85
Coordinates from ORCA-job 1005_0.0
  C   -4.07649176126183     -3.42654236651662      5.40022592501573
  C   -3.64525023711801     -2.12341773253664      5.06768202338503
  C   -2.82071398842943     -1.92937508560775      3.93595582950828
  C   -2.47306354304862     -3.02303892591209      3.13552692316430
  C   -2.93703073174859     -4.29257755117450      3.47248372808180
  C   -3.73300842381252     -4.50856953904473      4.60247643200800
  H   -3.20116458865047      1.09738460602152      9.78279998356057
  C   -4.09658979108371      1.26978662760679      9.18204808096735
  C   -5.29152921315355      1.66070823454764      9.82001305294861
  H   -5.28777934949855      1.78386284618932     10.90336845245914
  C   -6.45865390769439      1.87974608204804      9.07829166615757
  C   -6.44044286236024      1.71210425068559      7.67484664139493
  H   -7.36442398366471      1.88706599312591      7.11905889117869
  C   -5.26543836671048      1.33328511627716      7.05216232880525
  C   -4.09412614626852      1.10869579872681      7.80047181088733
  C   -2.32440891304793     -0.57866065219483      3.71387859338402
  C   -2.66135972510069      0.43579838557948      4.52807148623365
  C   -3.61048549195728      0.29459103885571      5.68386146645284
  O   -4.01969773683886     -1.11884008357600      5.86454882419114
  C   -4.94074541492700      1.15356830840196      5.57550178590349
  N   -3.04550447944159      0.72196930549761      6.94340554146324
  C   -6.03065281949737      0.46953164516467      4.74491467287950
  H   -6.33812020662322     -0.49743733028788      5.16098943504684
  H   -5.68460214944369      0.30707275891457      3.71069184754412
  H   -6.91747373730377      1.12112902536100      4.69130822795295
  C   -4.63398943829121      2.54581268577469      4.97336498876041
  H   -3.80688825704228      3.04728140234747      5.49879187855646
  H   -5.52561648047497      3.18370584054506      5.06702350469817
  H   -4.38201334848704      2.47431783359715      3.90335817456875
  C   -1.80196120629419      0.16868128742142      7.44256312895784
  H   -1.63437973089282     -0.41183950184970      2.88236059220920
  H   -2.24287083392663      1.43125404926509      4.37706733016929
  H   -4.07114694832431     -5.51296901497615      4.85344117088331
  O   -4.77958466699037     -3.63848038873353      6.57053518247858
  C   -6.08426789121881     -3.21952016343174      6.65243263051995
  N   -2.57082680368652     -5.44006173018373      2.63044919948842
  O   -2.97119796542406     -6.54351523595341      2.97090557085004
  O   -1.88765194009186     -5.22126860833347      1.64072250040977
  C   -6.59899871484243     -3.39198071706338      8.05501684534408
  H   -1.83667473109807     -2.90005828529782      2.25892128960712
  C   -0.78736571196882      1.26979218383000      7.77191468682341
  H   -1.36964568588386     -0.48705517651909      6.67291756403782
  H   -1.97791775710528     -0.44942725331401      8.34253435583370
  O   0.38899810722902      0.72232607870504      8.38190454424664
  H   -1.19874946876954      1.97614122090747      8.50665629727454
  H   -0.51489578592297      1.81598879047727      6.85728635075731
  O   1.28522430783767      0.30225818006925      6.35607432715272
  C   1.36307809598184      0.27014251761660      7.56006193332998
  C   2.53399176295799     -0.27232160567889      8.35341820106306
  O   -6.68802888487678     -2.77661083852149      5.71536069404219
  O   -7.65666940793818      2.25429832663215      9.60987241003618
  C   -7.75997314256065      2.44637267580997     10.99979216984565
  H   -8.79861870910595      2.74362086996409     11.20113977416425
  H   -7.08482439902476      3.24565604109202     11.35928762301680
  H   -7.53909012438458      1.52071417019678     11.56409262651775
  H   -6.31376159973447     -4.37536254335246      8.45614472000415
  H   -7.68841212134867     -3.26668851276357      8.06494378441336
  H   -6.13670836754414     -2.62379219401218      8.69618365583153
  C   3.70950933247475     -0.70342683794077      7.47574226806847
  H   2.14579606013667     -1.10626917402301      8.96412848222885
  H   2.83286094454425      0.50199062418940      9.08199619679594
  C   4.91793146902497     -1.24499813901990      8.25284966500760
  H   4.02681399091927      0.15867168641139      6.86632996977260
  H   3.35997655532254     -1.46022323911202      6.75293225829503
  C   4.66051958990773     -2.57331145691046      8.97885174576715
  H   5.26131243145572     -0.47983594610688      8.97298555954863
  H   5.75118059140161     -1.38530440644630      7.54194529235961
  C   5.92597316927356     -3.20526803124369      9.57619622442873
  H   4.23518107608339     -3.29152060669160      8.25549734534234
  H   3.89994433871901     -2.45183788708462      9.76753816013250
  C   6.65171374883167     -2.41759977047053     10.68629615190720
  S   5.49926503895558     -4.86862301787336     10.26824435314578
  H   6.65101111029608     -3.36805400119660      8.76234058512716
  S   8.01366782631767     -3.52559686903326     11.26588946756475
  C   7.04554033802338     -5.09220802705981     11.23339942055725
  H   6.77243329440291     -5.41043820207491     12.25028969976069
  H   7.68433561727276     -5.86296502654308     10.77723795240121
  C   5.76243044174054     -1.88770383514150     11.82014597254443
  H   7.18954914367693     -1.57288047980828     10.21960352806481
  C   6.50927944252027     -1.07055113033484     12.87472912370586
  H   5.23939752835522     -2.73695479413297     12.29017000694150
  H   4.97530359729956     -1.25543684597855     11.37135985809756
  H   7.29242861298688     -1.67269233904243     13.36090387954056
  H   5.81895913930337     -0.71258895528430     13.65520409106098
  H   6.99589098868653     -0.18564643246668     12.42934938536514
