56
Coordinates from ORCA-job 1007_0.0
  C   -4.31561977638392      0.97307742325986      2.33295237952315
  C   -4.31379587147125      0.24400840566234      3.53782518343637
  C   -4.33713254178691     -1.16583792422836      3.50022198432033
  C   -4.42136062437741     -1.82019410305066      2.26619731619571
  C   -4.46877304711287     -1.08815514101241      1.06785467754262
  C   -4.40337920489587      0.31994017507483      1.11139041119043
  H   -1.57844417396946      2.99825756697997      7.93545123234069
  C   -2.66749302814577      3.06349587416506      7.95659207409811
  C   -3.30297027983914      4.14782278061946      8.58277470291492
  H   -2.68970515400633      4.93254907365947      9.03472166697283
  C   -4.69605381635099      4.24080911738334      8.63646081810636
  C   -5.48722336593719      3.22627417286824      8.06868072687457
  H   -6.57806377229543      3.28823132317127      8.12208480227209
  C   -4.87143234503968      2.14803188916147      7.44677042794056
  C   -3.46828895246395      2.07460919383604      7.37573853565043
  C   -4.21905521472489     -1.85180500867614      4.78048723415600
  C   -4.13501818857051     -1.17026102092244      5.93607320044678
  C   -4.21941436918350      0.32988772265654      6.02276705012669
  O   -4.27649514012510      0.93768956302189      4.68181674471261
  C   -5.46480574073841      0.88346815625566      6.84381700672441
  N   -3.07853570215046      0.91968934876373      6.68966524916514
  C   -5.84311328014931     -0.08448956955244      7.98927408209784
  H   -4.97495013763730     -0.35079161576359      8.60992727749213
  H   -6.28803721950940     -1.01312014997121      7.59710998769669
  H   -6.58887169303428      0.40021161599509      8.63762042032856
  C   -6.68852341685211      1.12219536043457      5.95066412727634
  H   -6.49047962636237      1.87272873003142      5.17423665662530
  H   -7.53396173467835      1.47277297560992      6.56355798909766
  H   -7.00489463018241      0.18705793176153      5.46013975050091
  C   -1.72781735816092      0.69943845960610      6.20231712332215
  H   -4.16073789393206     -2.94402659871741      4.77991049958627
  H   -3.97976249536599     -1.68183981103172      6.88681057612988
  H   -4.42125716137519      0.91122543215340      0.19484734389500
  O   -4.29116032008263      2.35433101638941      2.36907529692792
  C   -3.16587960543705      2.97550049779656      2.85751599859193
  C   -3.40297607314589      4.45511965232306      2.98388317820898
  H   -4.44602407636088     -2.91175624930218      2.23663541468160
  O   -2.15966695007355      2.38406767174124      3.13528371522018
  H   -3.88614324531723      4.85018979412134      2.07827381794602
  H   -2.45055473260977      4.96533597964873      3.17133992438715
  H   -4.08669710674991      4.63381711112065      3.82956035465590
  C   -4.57458248564622     -1.76579499469007     -0.19231614178918
  N   -4.66055079447265     -2.31723710170393     -1.21138817019352
  H   -5.17050316432969      5.09530952251981      9.12499836410145
  C   -0.94237737661751     -0.33770297087937      7.00398830406237
  H   -1.18909374196718      1.65962084577498      6.20652298459899
  H   -1.75725087081656      0.38555134192229      5.14602946207404
  O   -0.85156622407513      0.04630204569986      8.38314780947362
  H   0.09181797810468     -0.39026401626113      6.62973479286295
  H   -1.40411744666828     -1.33166916663900      6.93302232925574
  C   -1.69926463998656     -0.52378254790909      9.26726286737461
  C   -1.53500524465268      0.08261255976139     10.63775043023788
  H   -0.47591582888220      0.27404001654616     10.86069844360487
  H   -1.98060404363193     -0.58003816564290     11.39008520972146
  H   -2.06141576743578      1.05140212008170     10.65624087473882
  O   -2.49341128233608     -1.38909631162442      8.98207548049590
