75
Coordinates from ORCA-job 1009_0.0
  C   -3.21675088257681     -2.40340982085471     -0.06990013893903
  C   -3.07704160486775     -1.55665075260816      1.04955986435387
  C   -1.81712939884931     -0.98766436325148      1.34209285483994
  C   -0.72418262691784     -1.26375101407492      0.51313732962300
  H   0.25913453383538     -0.84074604708675      0.71949917281067
  C   -0.89414903944019     -2.09558289857211     -0.59096998579754
  C   -2.13150045353324     -2.67059152489620     -0.89415549138695
  H   -2.23988829877977     -3.32224673958131     -1.75998215300233
  H   -5.21558462920816     -1.94846493182991      6.85226455537385
  C   -5.59382254488209     -1.04055348165349      6.37881681736217
  C   -6.38939985090619     -0.15205848172995      7.11991042276196
  H   -6.63192699317903     -0.37766167178863      8.15700401376672
  C   -6.87156051277316      1.01714122346327      6.52778276778315
  C   -6.57094879028268      1.32406275340993      5.18895467893084
  H   -6.96030372825514      2.24939908281706      4.75797824868816
  C   -5.78127748669937      0.44986380704077      4.45881024860611
  C   -5.30194234427799     -0.73677733250181      5.04669167062498
  C   -1.73624699763130     -0.15120681250798      2.53150509040893
  C   -2.82161512255469      0.05779747551716      3.29254822071938
  C   -4.16789066535781     -0.57114482087773      3.02477113439741
  O   -4.16683754715690     -1.33840535911387      1.80424802193878
  C   -5.35984591409597      0.48067282843152      2.99586550872705
  N   -4.54253122619809     -1.46089202383831      4.12869307739339
  C   -6.52482307633888     -0.05071401791903      2.13002505666081
  H   -6.81240839110694     -1.07038126554899      2.42510189331573
  H   -6.25761615754291     -0.05913856217179      1.06393968625076
  H   -7.39899361914117      0.60385446544850      2.26959658713979
  C   -4.93294684934183      1.86056443783335      2.47973077588370
  H   -4.17871702977670      2.33959633646474      3.12061597814868
  H   -5.80655599828091      2.53021280714882      2.43539008823219
  H   -4.52512341116593      1.78630866119847      1.45898592638629
  N   0.25754513786261     -2.38479180321275     -1.45942886392704
  O   1.33347625289796     -1.89152170305842     -1.15510445124831
  O   0.06798384635388     -3.10033014080875     -2.43146701684020
  O   -7.59653638415650      1.98522714880519      7.21529717778456
  C   -8.59482197885395      1.67662012221692      8.09148255525605
  C   -9.23908062320465      2.89374139155422      8.67947655242472
  O   -8.91501895508629      0.54409387958536      8.36139892882989
  O   -4.41930819972286     -3.03555600146143     -0.31309238191881
  C   -5.47412620779819     -2.29571177123203     -0.79124695408284
  C   -6.70943410294305     -3.13659435389968     -0.90696950619672
  O   -5.36876194431674     -1.13081588991138     -1.07310722825326
  C   -3.69949710206320     -2.56511316190931      4.52486357328020
  H   -3.26739156193083     -3.03649707572188      3.63082181840681
  H   -4.30775115832779     -3.32925536108007      5.03455679272648
  H   -2.87377633505618     -2.27284905554986      5.20402950727459
  H   -0.77159272087734      0.29393635176581      2.79079363374903
  H   -2.76863207069712      0.67090525895705      4.19545685397992
  C   -7.78693585575984     -2.53646980033433     -1.43801914066929
  H   -7.72871552437375     -1.49339401132772     -1.75739402312212
  H   -8.73675744805066     -3.05909741860718     -1.56536621326760
  C   -6.65287935738030     -4.56984716354327     -0.42506359064433
  C   -7.95207693984961     -5.36213325056587     -0.54649898688244
  H   -6.31175655292567     -4.56411184234440      0.62527625959159
  H   -5.84416362352059     -5.08606492959164     -0.97202023492227
  H   -8.76715065666170     -4.90360495419164      0.03714419291946
  H   -7.81107332138091     -6.38694086060230     -0.16935227593195
  H   -8.28956897867419     -5.43823861680670     -1.59317211390736
  C   -8.83619795317849      4.13219276839221      8.31655447581522
  C   -9.38992774170949      5.44015909626406      8.78445094925424
  H   -9.66668125628334      6.06730069386851      7.91849384628619
  H   -8.61917336002373      6.00885479178195      9.33586977773835
  H   -10.26357068932803      5.32455301860035      9.43965151743957
  H   -8.01979017893287      4.19150209265502      7.59017254727711
  C   -10.33280047844668      2.62376455304684      9.66994328026029
  C   -10.15636563646577      2.92742892616499     10.96482115395961
  H   -9.21492107142006      3.35434810561219     11.32135805859353
  H   -10.93175830904969      2.74856372392010     11.71359504674781
  C   -11.60323966576381      2.01786792814528      9.10364205838396
  C   -12.71856741316811      1.71780322299005     10.10189909436091
  H   -11.32042529324646      1.09353921823692      8.57215598458879
  H   -11.97891052457070      2.70197894582522      8.31845262662361
  H   -12.39016576788013      0.99856801026476     10.86964558924362
  H   -13.58718821245031      1.27876301400899      9.58604995009799
  H   -13.06536742430076      2.62735494673219     10.61950725691741
