36
Coordinates from ORCA-job C:\Users\AIElement\Documents/100_0.000
  C   -4.24973717935859      1.42521809930629     -0.55531498875555
  C   -4.44327023361277     -0.11354265214607     -0.42769396931864
  H   4.63879200358695     -2.51369479966667      1.30582302281201
  H   -3.39949264369036     -0.71709686539969      1.49835604974387
  C   -3.03839599957969      1.36380440564042      0.40936896423736
  C   -3.23642802549332     -0.19662001396463      0.54114635882575
  C   2.36826461243657      2.56335885218815      0.43423611362172
  O   1.57966922508217     -1.31740005861806      1.09322574647603
  C   -1.68468628127609      1.14109873132294     -0.29260265125696
  H   3.86662293998364     -1.37791986845631      2.46725216422159
  C   -1.88134631218692     -0.43453395726916     -0.15172214133742
  H   -3.04412851721752      2.05871442628000      1.26404764044667
  H   -0.84048293464920     -1.00073909676646      1.79498285938817
  C   -0.49187464249332      1.06740243201297      0.67586337976920
  H   -1.86364830401281     -1.14837191950643     -0.99292964128612
  H   -1.52052341032349      1.67472391767804     -1.24342578021948
  C   -0.69559486908354     -0.48599539363777      0.83338899957570
  C   0.86194559031823      0.80179250304270     -0.03107324885998
  C   0.67276535851200     -0.73340928999841      0.16753650448020
  H   -0.45328153181659      1.77582584696683      1.51667644148214
  O   2.00681953094208      1.27738765644142      0.66454740192375
  H   0.90185159939047      1.13486564217306     -1.07867306229260
  H   0.67243035417986     -1.31263241703799     -0.76883898067496
  C   2.80927873457235     -1.63280098795782      0.62099660513930
  O   3.13196463243951     -1.49269668084185     -0.53132535360876
  C   3.63025198358522      2.90989928839783      1.18483148440176
  C   3.68488340419655     -2.17140252265423      1.72503815407044
  O   1.74671926257264      3.30438585523302     -0.28377353508654
  H   3.50987458374879      2.68502451080038      2.25569691127921
  H   4.46267329724731      2.29193056366777      0.81235938199846
  H   3.86309654739267      3.97218789261149      1.04345264162483
  H   3.17793601655840     -2.99713060955159      2.24719168677036
  H   -4.02069887877485      1.80320213027155     -1.56500776386450
  H   -5.09439428780491      2.00889511989119     -0.15907525329410
  H   -5.39742585282868     -0.39890045144047      0.04069617122189
  H   -4.33485977254273     -0.69515028901250     -1.35774831365481
