55
Coordinates from ORCA-job 1010_0.0
  C   -2.48408312357613     -2.90044576154176      0.14836675365528
  C   -2.77424737798816     -1.88648173936489      1.07575442649367
  C   -1.75765190484512     -0.99154994512119      1.46938923861667
  C   -0.46282596554827     -1.12802734281111      0.92734406454411
  H   0.32420471741865     -0.44829084366515      1.24460893235600
  C   -0.19309240500727     -2.13628353876611      0.00224167289335
  C   -1.20673623281440     -3.02279072058051     -0.38922451465561
  H   -0.97417668319375     -3.80344479916311     -1.11626259241187
  H   -4.63186844512813     -1.50855478705819      7.22683714509490
  C   -5.18352397152295     -0.72026044218635      6.71092046477880
  C   -5.94333400157191      0.20736254659479      7.44179709509038
  H   -5.97057953418826      0.12769238834537      8.53218225543729
  C   -6.65418778630002      1.22691420733363      6.80479147992625
  C   -6.62819306767334      1.32763365500904      5.40124000823694
  H   -7.19301611307061      2.11786654879137      4.89796394519244
  C   -5.88077138675075      0.41828507641752      4.66603648215140
  C   -5.15570766611454     -0.60049051066812      5.31712090429751
  C   -2.02465285134248      0.06418143857456      2.43988258233098
  C   -3.17656608826384      0.24535547949774      3.11128787874535
  C   -4.40886642953720     -0.62984196804509      3.10335254486725
  S   -4.45071713742939     -1.76132856783410      1.63406792651471
  C   -5.75499218948223      0.22239087579814      3.15852363550987
  N   -4.46291140896032     -1.37232862824864      4.38515972718630
  C   -6.97700752416764     -0.61010474388709      2.69745606861870
  H   -7.01440672732209     -1.58492284939841      3.20615215863627
  H   -6.96726140493778     -0.77893339700945      1.60939613420019
  H   -7.89913689457079     -0.06343208851844      2.94743276437994
  C   -5.68364395738823      1.51092165088990      2.33294542133153
  H   -4.91636957692746      2.20791551841378      2.69880727784577
  H   -6.65329430950571      2.03277248411508      2.36540457344381
  H   -5.46329022270527      1.27918248202182      1.27869514831216
  C   -3.45487045997721     -2.34280753632202      4.75671310052499
  H   -1.19708891467494      0.75171565666123      2.64175332334902
  H   -3.22900048982956      1.05833179525549      3.84274515433783
  H   -3.26860939764448     -3.59845561244224     -0.15549957455996
  O   1.02459580739857     -2.34509604922654     -0.63070888384926
  C   2.22734210639040     -1.86003191232191     -0.21535649438530
  O   2.39196806643033     -1.16828460853764      0.75450545124849
  C   3.31254865069859     -2.32285467589060     -1.15597558841673
  H   3.34184947094934     -3.42327447845129     -1.18553927927448
  H   4.27926988730233     -1.93016977827043     -0.81832616369442
  H   3.09844054489551     -1.97479158666971     -2.17852157611326
  H   -7.23186601069600      1.94355283332530      7.39348213168139
  C   -4.05361612101079     -3.73567694587114      4.93636560422547
  H   -2.94003206688171     -2.04031729486082      5.68682914574654
  H   -2.68258377132426     -2.38405320712066      3.97463623829093
  O   -2.98022247273855     -4.60652514771449      5.31559754170793
  H   -4.51236055278779     -4.08625607380304      3.99850256779712
  H   -4.83605638645732     -3.74754490951775      5.71244104421815
  C   -3.29300613792794     -5.89980863627854      5.54553838986369
  C   -2.06292374487004     -6.69900747756371      5.90423001882279
  H   -1.34174303172244     -6.66816147921715      5.07227904017603
  H   -2.34697447131997     -7.73712484208566      6.11491920976021
  H   -1.56569587957163     -6.25590149567426      6.78099802164149
  O   -4.41489695421477     -6.33286821533728      5.46370997328067
