63
Coordinates from ORCA-job 1011_0.0
  C   -4.64107717591928      1.10528959718037      1.97619677835407
  C   -5.00134674523127      0.43412120864987      3.15103647719250
  C   -5.51621756687132     -0.87599422963254      3.10553471473534
  C   -5.66393429913773     -1.47635512211227      1.84295257397870
  C   -5.32499136661637     -0.82894067988323      0.65197653774617
  C   -4.80635277244908      0.47099310984606      0.74481974453252
  H   -2.21766212763562      0.32862822449896      8.71017728743265
  C   -3.21531781139291      0.76322990629672      8.80490197232340
  C   -3.68509090513533      1.20750659993522     10.05134545340234
  H   -3.03181068517789      1.11712229242352     10.92378747873931
  C   -4.96548234753640      1.74723995097653     10.19874020904285
  C   -5.80808538094995      1.86811149221464      9.07840249518138
  H   -6.80553010454744      2.30399640031702      9.18812940664091
  C   -5.36100808552931      1.43335611313334      7.83792445222214
  C   -4.07161939215568      0.88120406042168      7.70326675437747
  C   -5.85610943308326     -1.51607215324211      4.36623717512711
  C   -5.68018333396871     -0.85622663209202      5.52381549356004
  C   -5.09795620971472      0.53545416081901      5.61782726708900
  O   -4.83619411354136      1.09548863303774      4.32439405975767
  C   -6.00100164412753      1.54441559174344      6.45962316483029
  N   -3.84212651092708      0.51184586427140      6.38130629171895
  C   -7.49395732158419      1.19252093392106      6.41992342992521
  H   -7.71375379698648      0.22381777018733      6.89081392488150
  H   -7.86431239532598      1.16234355977166      5.38254290879883
  H   -8.07504197255445      1.96056806701589      6.95498507606697
  C   -5.80308993084531      2.98771402230073      5.94261699157823
  H   -4.73815577839852      3.25766822697868      5.90065563520822
  H   -6.30736969331798      3.68583092080811      6.62854786683208
  H   -6.22861006521287      3.11642277348305      4.93621105036716
  C   -2.63225605324704     -0.12134471504579      5.91499560840049
  H   -6.24921499538017     -2.53438644322642      4.34633330900098
  H   -5.92132798280166     -1.32313954547069      6.48176351990150
  H   -4.52960354963263      0.99770847468950     -0.17273641263759
  C   -5.55761825951624     -1.55846003307294     -0.64305087760122
  C   -2.46526592050696     -1.59072813844583      6.34010743824081
  H   -1.77201762413121      0.45031464908105      6.30166244999669
  H   -2.59449214515390     -0.04624451203022      4.81742994269697
  O   -1.17142447781096     -2.08110261099203      5.95474943499921
  H   -3.18934176698071     -2.23637413075708      5.82678334218184
  H   -2.59026181196578     -1.69521625939045      7.42726399976560
  O   -0.24638925986708     -1.21256673748493      7.81999709605915
  C   -0.13816862427435     -1.82813693608748      6.78675856739750
  C   1.14566662403534     -2.40878382113760      6.24714774147203
  H   1.95935493684108     -2.23017679031753      6.96030120115827
  H   1.38602636736413     -1.94164648523771      5.27901719837666
  H   1.02582048072003     -3.48801600671965      6.06612694660137
  C   -5.34294982011565     -3.06714268772921     -0.45168859142642
  H   -4.89015500026848     -1.18428545351582     -1.43346551841826
  H   -6.58491555974411     -1.40500205384598     -1.01580822188518
  C   -6.11228891620074     -3.59226365501049      0.75997041246369
  O   -6.19730071148729     -2.75403208940812      1.83319128922429
  C   -5.74883336955859     -3.84588277274079     -1.71923228897303
  H   -4.27748761728131     -3.25073217359802     -0.22036033795418
  O   -6.60886753249102     -4.68165280385407      0.83985611370308
  O   -6.55733539685890     -3.37324013484917     -2.50002246976066
  N   -5.14027091672408     -5.04313126163450     -1.94588751605980
  C   -4.29599668560095     -5.81268408866591     -1.04950309785808
  H   -5.50727003444407     -5.51376105858324     -2.76794602688255
  H   -4.84123496854533     -6.15823782978019     -0.15629322737439
  H   -3.41466832024059     -5.23588265283841     -0.72297421356953
  H   -3.92061194802464     -6.69111561970178     -1.59300875756387
  H   -5.31328332336827      2.07484769793622     11.18147022680321
  H   -4.23949685086376      2.11695801619541      2.04859904787830
