80
Coordinates from ORCA-job 1013_0.0
  C   -4.98027604268845     -2.30606113663674      0.15177940797800
  C   -4.79443754499295     -1.33090620727872      1.14397525402236
  C   -3.51111741311462     -0.78713291995085      1.35127688878082
  C   -2.44322912037808     -1.21386925073294      0.54479202193302
  H   -1.45197153785413     -0.78352394166371      0.71210354729144
  C   -2.63939811985203     -2.16890889326175     -0.45217232991491
  C   -3.91207165040704     -2.71768356705382     -0.64409589603617
  H   -6.51913418530657     -1.19954085932830      7.02905890236454
  C   -6.92363217272684     -0.33157977741010      6.50772332187367
  C   -7.63357891117859      0.63878669979110      7.22944480234916
  C   -8.15949356185521      1.78061107967547      6.62626771747767
  C   -7.97518222422612      1.96622336350005      5.24441071305175
  H   -8.38335785702607      2.86000164534735      4.76412312004899
  C   -7.27647678863979      1.02420463843817      4.50487256042651
  C   -6.75797495340163     -0.12857556557687      5.13442326373061
  C   -3.38425258447112      0.19737496100738      2.41666559997894
  C   -4.44385779793357      0.52855463109903      3.17193664153963
  C   -5.80273547615477     -0.11673620529661      3.01930856913900
  O   -5.88019698993853     -0.93226313391614      1.84897809885472
  C   -6.99476889771146      0.92858109667909      3.01108036704003
  N   -6.10390010494969     -0.92999888334094      4.21108180539122
  C   -8.22643449952275      0.31508183009911      2.30631337873623
  H   -8.48249687750862     -0.66460619500926      2.73420460693213
  H   -8.04252206341367      0.17973164442339      1.23029517560364
  H   -9.08945361944398      0.98619100106896      2.43699199079644
  C   -6.62745779500199      2.25596002651659      2.33793374607734
  H   -5.82584727529511      2.79154801259485      2.86676646784855
  H   -7.50675219833344      2.91922915846662      2.30567075810972
  H   -6.30241068067344      2.08862391255757      1.29824956625502
  C   -5.30154673789651     -2.07841727078817      4.56811377686823
  H   -2.40458005680808      0.65094911271589      2.59474879725796
  H   -4.35488816904084      1.24430602490619      3.99251752236051
  H   -5.13008049632427     -2.69550829342165      3.67505251214420
  H   -5.86245833578072     -2.70127315720964      5.28167073014930
  H   -4.32904552499445     -1.81316618028048      5.02863883121270
  H   -1.80558763114073     -2.49381591068332     -1.07843980544319
  O   -6.24027793263140     -2.82807921096787     -0.08961261306701
  C   -6.78448802013079     -3.68877531517131      0.82654768150380
  C   -8.12381201917586     -4.16662941598943      0.40329568949698
  O   -6.21101697299532     -4.02252670508232      1.83423743153220
  C   -8.74454196814615     -3.74889575640792     -0.79102903681753
  C   -8.78721092921785     -5.09143149186216      1.22267125739469
  C   -9.98774700888193     -4.24931661643969     -1.15086111380689
  C   -10.64595224580074     -5.18467999962272     -0.32686283957576
  C   -10.03647227742547     -5.60192959518864      0.87113704075551
  H   -8.23815432195304     -3.02889546030644     -1.43524728243373
  H   -10.48132690111954     -3.93748938517172     -2.07366354469969
  H   -10.52443597663406     -6.32105187391561      1.52914119431176
  H   -8.30128783811209     -5.41006210297878      2.14731323962983
  O   -11.84537810171856     -5.62162567132124     -0.76684347000759
  C   -12.58067974970491     -6.57862592565190     -0.01332761231376
  C   -13.86395751967520     -6.88028411074050     -0.76331657310379
  H   -12.79751867186255     -6.17680378787683      0.99426936910183
  H   -11.97662477816852     -7.49608981218181      0.11793964924414
  H   -14.46612147349172     -5.96708697760175     -0.88822941304814
  H   -14.46273734849223     -7.61980702479043     -0.20897268740911
  H   -13.64421872520567     -7.28750651673479     -1.76233261340175
  H   -4.09826560450981     -3.47317610493390     -1.41032086459308
  H   -8.78854749262655      1.39577940403439     15.86477514140999
  H   -10.03274870000599     -0.42483047028979     17.08997855176635
  H   -8.66527818859299      0.18959244106278     18.06263030767181
  C   -8.93537341104192     -0.35380580234428     17.14363968507407
  C   -8.38472006237653      0.36774008035772     15.92851508556965
  H   -7.30347317470899      1.85820507072821     14.12037885136918
  C   -7.64531682653153      1.22706928155494     13.29994312112173
  O   -8.75838350405258     -0.37027919618843     14.77157253386893
  C   -7.33187283969193      1.58204054813241     11.98815818937251
  H   -6.75093824157216      2.48404570849160     11.78384400944751
  C   -8.39765990231850      0.06335852010391     13.54373301926973
  H   -7.28259256551430      0.44726564695511     15.98399272794280
  H   -8.52694614451191     -1.37412021848557     17.20893801650843
  C   -7.75174738230159      0.79938571761875     10.90326673330571
  O   -6.76297472211987      2.25028359044997      9.28079904888768
  C   -8.82161242178275     -0.72857246768387     12.45775495047061
  C   -7.38560275837702      1.24942661872401      9.53435752092305
  C   -8.50255946939092     -0.36536888179718     11.15657659923973
  H   -9.40397606906629     -1.62746681563586     12.67095413789271
  O   -7.83867382692144      0.37959889538313      8.58165423981402
  H   -8.83430562990902     -0.98178487952440     10.31991707323208
  H   -8.69026438554399      2.52079457924379      7.22513513491767
