76
Coordinates from ORCA-job 1014-2-_0.0
  C   -3.84033034289146      0.74558178199874      2.21553569522857
  C   -4.91020854518632      0.33504227354851      3.02406732851578
  C   -5.70398074534579     -0.74929858665282      2.60815677859855
  C   -5.37627007958700     -1.44967412847633      1.43891310777772
  C   -4.27592228229239     -1.07706069093124      0.65589618149345
  C   -3.52371896858186      0.04314920487624      1.05478790541568
  H   -7.18246776483538      4.10905442627977      7.06333664498725
  C   -6.44609983625766      3.38223128798221      7.41055980547758
  C   -5.66526178026546      3.64763037319055      8.54780903630930
  H   -5.79376525431042      4.60038250763830      9.06921102571417
  C   -4.73237878557297      2.72092672368330      9.01918463262313
  C   -4.57362039107206      1.48844271775601      8.36041633974384
  H   -3.85469271009108      0.75450662204136      8.73536059241382
  C   -5.33912228636101      1.21327947209030      7.23534904859089
  C   -6.25710323274656      2.16367721763844      6.75204226260724
  N   -6.86516054802020     -1.07888008464105      3.32212962690135
  C   -7.09644149779294     -0.48120764860029      4.42682162227344
  C   -6.17640080536200      0.51999833785680      5.10596710721074
  O   -5.18497734165339      1.01959568573313      4.15694732803824
  C   -5.45630298710518     -0.05367308607297      6.40003729648407
  N   -6.88808983447629      1.67934560556974      5.59857815673705
  C   -4.12717121455638     -0.74798010405783      6.08445145935090
  H   -3.40058597017294     -0.08409078864112      5.60092503911607
  H   -4.28793147206662     -1.61959479444551      5.42916488623400
  H   -3.68028204770142     -1.12597258510094      7.01795402550227
  C   -6.38692893426892     -1.04525974330366      7.14302229009383
  H   -7.38542928957301     -0.62313044446774      7.32824946086462
  H   -5.93670870371583     -1.29585715465517      8.11558228162125
  H   -6.50627692864801     -1.98273354758088      6.57621405185364
  C   -7.66372373320664      2.51901197219810      4.70525701626297
  H   -8.03076493488932     -0.69516449038773      4.96154850796353
  H   -2.67494594888438      0.38327832062751      0.45799194593219
  O   -3.13887015321775      1.89886908571544      2.53852617407601
  C   -2.18682448716418      1.84410514539724      3.51877038762548
  C   -1.65603970519566      3.22251570881314      3.80958237750514
  H   -6.01369162342937     -2.28908605421922      1.15389338849775
  O   -1.85297236759548      0.82391373720721      4.05758482939753
  H   -1.42391770021656      3.75461241210472      2.87538170201116
  H   -0.76680293979310      3.14798511149466      4.44702637207514
  H   -2.43628711084823      3.79850446958724      4.33314055775459
  C   -3.90983465132921     -1.84229677675920     -0.57873537840763
  H   -4.13143168989582      2.94913145883026      9.90279631308427
  C   -9.17626295796550      2.31928130440092      4.81625541655599
  H   -7.41671663382593      3.57521353601555      4.90107024037901
  H   -7.36389118277915      2.32452817376589      3.66126856073631
  O   -9.62525382619594      2.56112081842971      6.15518407241241
  H   -9.46928871243630      1.30522341130919      4.51164580855617
  H   -9.69404904804322      3.05178537028254      4.17711702943161
  C   -9.87284506675262      1.49498321137191      6.95103677282239
  C   -10.24414033900084      1.93897616615229      8.34257220504860
  H   -9.33150700597478      2.27731380224546      8.86027266503271
  H   -10.68044168492728      1.09688479483229      8.89375171513586
  H   -10.94138535496252      2.78852115520178      8.30961850050765
  O   -9.78796972193938      0.34692728745701      6.58600617690128
  C   -4.66180663591451     -1.67374119618763     -1.76899182042738
  C   -4.30720925487480     -2.42791695586357     -2.95346686172085
  C   -3.21927743265178     -3.30895759629701     -2.90784215057365
  C   -2.46163878077476     -3.48195565110795     -1.74236013588005
  C   -2.81084662425640     -2.73843422769018     -0.54960316888659
  C   -5.76951090624737     -0.76572674453995     -1.86316033073635
  C   -5.07647627205418     -2.25029537507174     -4.14928755798415
  C   -6.13238084677897     -1.37570844409607     -4.19047197469080
  C   -6.47889470574089     -0.62204304261493     -3.03027874611092
  C   -2.02135238000165     -2.95757683456058      0.62952214214863
  C   -0.96357411635373     -3.83363055943449      0.62720207450464
  C   -0.61872398300543     -4.55673286984656     -0.55273807046058
  C   -1.34957453740721     -4.38443700742561     -1.70061764825470
  H   -2.27166833187158     -2.41436955049776      1.54204834664184
  H   -0.37930577213772     -3.98124135616449      1.53937772803587
  H   0.22729797006783     -5.24898641791622     -0.53579374538660
  H   -1.09596788097847     -4.93688607615934     -2.60997094972860
  H   -2.95405859206403     -3.87593752951353     -3.80533185888242
  H   -6.04520609302432     -0.17948708484764     -0.98546490674882
  H   -4.79960361369590     -2.83019020053700     -5.03444597778776
  H   -6.70959818974044     -1.24991804344995     -5.11034694157242
  H   -7.31752385951368      0.07813278149243     -3.07416182057506
