77
Coordinates from ORCA-job 1014-_0.0
  C   -3.87255078383012      0.64926803459872      2.26575094782976
  C   -4.90775088462102      0.16724079142595      3.08333163048754
  C   -5.65421883789648     -0.94806982266570      2.65531238944670
  C   -5.31674904497503     -1.58742499233831      1.45203171742076
  C   -4.25873679213994     -1.13452362663770      0.65305295376072
  C   -3.54764415464309      0.00250138358199      1.07555888879835
  H   -7.19499022906860      4.15723245913081      6.78021828974064
  C   -6.43994269508015      3.48203960961811      7.18691953414658
  C   -5.63320008699993      3.88492418473885      8.26436100181628
  H   -5.76270272436474      4.88926679837757      8.67764779245279
  C   -4.67358525927486      3.02990533960649      8.81113374044443
  C   -4.51466012353787      1.73198243433609      8.29210905188437
  H   -3.77398246344179      1.05446097921408      8.72644032282152
  C   -5.30617979382734      1.32038087389323      7.22870979580810
  C   -6.25200561907141      2.19811721276355      6.66523244690711
  C   -6.79517793362066     -1.32306184291491      3.48030812591135
  C   -7.06597319166155     -0.68945767095835      4.63472132251849
  C   -6.17743845763015      0.38100242129032      5.20838371376341
  O   -5.17622659769602      0.82563988139417      4.22964254771848
  C   -5.42560556734445     -0.03343351164648      6.54539665400937
  N   -6.90602964544386      1.57664936397092      5.59496662508741
  C   -4.09723729090895     -0.74965507822693      6.28044957011661
  H   -3.37878786862237     -0.12899749055475      5.73182220035753
  H   -4.26522827452738     -1.67405544753214      5.70371138143153
  H   -3.63862684473514     -1.04458032328487      7.23808321274329
  C   -6.32898679764910     -0.94024051546541      7.41655645579535
  H   -7.33054089430770     -0.51115569899107      7.56660640810753
  H   -5.86149507132181     -1.06943514051628      8.40472461037721
  H   -6.44454424390251     -1.93836374975415      6.96495591475247
  C   -7.71425444300549      2.29687559632331      4.63077052339377
  H   -7.45626355749098     -2.11704627388398      3.12034906613313
  H   -7.94783721363622     -0.93668677056137      5.22781279745510
  H   -2.72731378016474      0.40146326375293      0.47536093270988
  O   -3.21778008720924      1.82273482143086      2.61085713936716
  C   -2.27085296003342      1.78868593265534      3.59702539193429
  C   -1.81479788441517      3.18335478490685      3.93298639515449
  H   -5.90118818162743     -2.45534171283429      1.13450509379667
  O   -1.88788971202172      0.77184256587313      4.10867154006632
  H   -1.63278194722043      3.76550852660746      3.01788800044745
  H   -0.91094613605991      3.13626478837051      4.55232829529911
  H   -2.61678890445808      3.68949574307628      4.49470832048924
  C   -3.89477217134069     -1.84152819478103     -0.61697932014479
  H   -4.05219840578365      3.36499899094776      9.64521455562078
  C   -9.21715376004505      2.05122434195826      4.77038561633399
  H   -7.50845989179490      3.37564190697427      4.72286577217393
  H   -7.41314947595693      2.01308498211146      3.60772300920286
  O   -9.67100795424140      2.41365388125415      6.08042895737565
  H   -9.46855598806385      0.99987707319397      4.57692432815749
  H   -9.76582106090009      2.69202139430142      4.06199405086375
  C   -9.88548540036758      1.42731951921879      6.98053465789254
  C   -10.24459388931406      2.00011021963405      8.32783454608401
  H   -9.32761452189634      2.39052395897752      8.79935060196644
  H   -10.66865234557328      1.21212486039476      8.96236124760932
  H   -10.94715922561949      2.83932735032713      8.22298329229738
  O   -9.78333752711976      0.24984954434278      6.73067554491846
  C   -4.60509740982211     -1.56480333473305     -1.81181131249450
  C   -4.25931477797946     -2.26648798195467     -3.03048331285902
  C   -3.22227000428854     -3.20803211134231     -3.01108749672392
  C   -2.50512911093905     -3.48786573681252     -1.84047348052991
  C   -2.84411136530738     -2.79329795319167     -0.61579198290470
  C   -5.66499878754185     -0.59902112396235     -1.87380425236001
  C   -4.98729677997267     -1.97729681994654     -4.23039362769096
  C   -5.99598814570727     -1.04763532665571     -4.24193015008717
  C   -6.33590552967868     -0.34897316997239     -3.04567688479961
  C   -2.09157200856453     -3.11030523456235      0.56490929762473
  C   -1.07983296854601     -4.03867714646553      0.53695909423057
  C   -0.74852154025518     -4.71894996531192     -0.67219695328036
  C   -1.44321421377738     -4.44959226726578     -1.82402794863928
  H   -2.33289537379187     -2.59735641819719      1.49736233774591
  H   -0.52090711815283     -4.26041858039252      1.44999890199194
  H   0.06009864644245     -5.45474778038816     -0.67494721696635
  H   -1.19739552317253     -4.96661300218940     -2.75606200443976
  H   -2.96489778088419     -3.73688744568215     -3.93377366462246
  H   -5.93303746687464     -0.05595094816962     -0.96622988918176
  H   -4.71758602632788     -2.51629492121022     -5.14318119035343
  H   -6.54130458657156     -0.83664222788963     -5.16567243417395
  H   -7.13798753077980      0.39384154526956     -3.06598543254212
