77
Coordinates from ORCA-job 1014_0.0
  C   -3.65412423505957      0.89490057882888      2.27409866053083
  C   -4.23419736279542      0.37345478195770      3.44135590940207
  C   -4.83294331292978     -0.89940111003685      3.40258136789172
  C   -4.88178537284458     -1.60251192458993      2.18742120907177
  C   -4.33714699147325     -1.07067968098402      1.01133277063109
  C   -3.71424017582348      0.18944234563966      1.07551344823958
  H   -1.22924307477527      1.90169183148571      8.12571237122509
  C   -2.15215489474376      2.46898982907965      7.99491456474395
  C   -2.26599658001056      3.77149567992786      8.50722725597645
  H   -1.41098856173520      4.21286832420918      9.02739297029984
  C   -3.44384329632257      4.50897025474865      8.36192535365351
  C   -4.54915220798338      3.93828979293404      7.70532664922832
  H   -5.47837245003970      4.50622225817393      7.60169616790069
  C   -4.45081696331179      2.65056853178625      7.19538937532287
  C   -3.25213515813947      1.92400958812252      7.32344199635689
  C   -5.32148080376132     -1.42280889100791      4.67059298271983
  C   -5.18767793680976     -0.72967162157501      5.81576097200882
  C   -4.57216293254656      0.64254258720778      5.88668361828829
  O   -4.19223457856702      1.12603351700311      4.55732137537220
  C   -5.49618546823030      1.76512739248475      6.53355586673134
  N   -3.37837583243239      0.67364918307971      6.71404174237038
  C   -6.40460329003261      1.16860229444506      7.63416159930341
  H   -5.83443304264469      0.57482547531721      8.36392997648959
  H   -7.18903384199567      0.52722055169325      7.20108766711117
  H   -6.90021744387777      1.98868738595303      8.17600852210393
  C   -6.36144431957147      2.48010563037207      5.48870930192445
  H   -5.75185610781075      2.99285648073418      4.73357570954500
  H   -7.00263907134033      3.22592573053528      5.98499842962562
  H   -7.02425945052741      1.76518686070187      4.97410488537356
  C   -2.24851091456672     -0.19487394384783      6.43739364303827
  H   -5.76923489259013     -2.42102602762302      4.68215079660866
  H   -5.48770505351583     -1.15788369825802      6.77254106153886
  H   -3.26282945234384      0.63473291867731      0.18648167946660
  O   -3.05997218401355      2.14681573088169      2.30652991737605
  C   -1.91551745097709      2.30006904984046      3.04436050972489
  C   -1.52934471279640      3.75264415071073      3.11675144144764
  H   -5.34976872289099     -2.59054723731136      2.16795492606868
  O   -1.33263532885860      1.38273336548431      3.55580829301555
  H   -1.64759454902499      4.23957245226292      2.13802984617966
  H   -0.49689067727821      3.84168729776282      3.47616909062074
  H   -2.20408702082909      4.25968613843198      3.82582398946492
  C   -4.39868295422278     -1.82940149158494     -0.27965442404368
  H   -3.50963204197984      5.52305319146574      8.76364065682913
  C   -2.14436466302197     -1.38943008376872      7.38393448046089
  H   -1.32202479707312      0.39887041061073      6.47840837258534
  H   -2.30718696505182     -0.56769144730603      5.40211691534325
  O   -2.01949288064085     -0.95298823910939      8.74538156823986
  H   -1.23165758351382     -1.96345744122823      7.15916795641394
  H   -3.01912510472585     -2.04741295928972      7.29421751658078
  C   -3.11466223689182     -0.98742954440972      9.53625026624974
  C   -2.81349205024415     -0.39971010864908     10.89197701296274
  H   -1.83855937017652     -0.74862068309544     11.26192425509335
  H   -3.61427707916269     -0.66223214022782     11.59423010072906
  H   -2.75961847126870      0.69730957679965     10.79656741367989
  O   -4.18857797302884     -1.41808614669770      9.18849974288437
  C   -5.56215855167914     -1.75837805251969     -1.08616458430624
  C   -5.62140629114995     -2.50200223214134     -2.32738295077852
  C   -4.52301926598969     -3.28000889422366     -2.71574688065340
  C   -3.36377755237088     -3.35763514127138     -1.93282810166203
  C   -3.29495133207008     -2.61963056087239     -0.68864757749276
  C   -6.70229713202790     -0.96383138170266     -0.72704571654241
  C   -6.80467236584910     -2.42072227372578     -3.13145258724365
  C   -7.87259075974475     -1.65036356331134     -2.74659010321493
  C   -7.81685283762155     -0.91149986746564     -1.52769634097179
  C   -2.09356388849289     -2.72940399793234      0.08944714551030
  C   -1.04030614257624     -3.50458843642773     -0.33017774940381
  C   -1.11208867861338     -4.22760702469680     -1.55771550030286
  C   -2.24174129751704     -4.15408176096548     -2.33259792155985
  H   -2.02558412453070     -2.18141012476328      1.03063423059482
  H   -0.13605478143919     -3.57022353402899      0.28089710203344
  H   -0.26400250735815     -4.83980962493481     -1.87594250078904
  H   -2.30663555563473     -4.70536937878844     -3.27512520412884
  H   -4.57114761743913     -3.84029151799665     -3.65440440302376
  H   -6.67188575177433     -0.39192351137377      0.20164073363544
  H   -6.83677352712384     -2.98869453516041     -4.06572560642031
  H   -8.76823401625681     -1.59733968284158     -3.37125196905746
  H   -8.67106613391610     -0.29694165160477     -1.23087326222414
