76
Coordinates from ORCA-job 1015_0.0
  C   -3.57512675121718      1.11741461959011      2.02556998147529
  C   -3.80025117779238      0.35313929591315      3.17106084044728
  C   -4.23138310349589     -0.98404054884558      3.06978857670011
  C   -4.45518271177217     -1.52562848422146      1.79637059087965
  C   -4.25037781136079     -0.76157465987741      0.65079875416439
  C   -3.80455031148218      0.57515295281949      0.74696742658226
  H   -1.05014821445999      1.89224324622241      8.20294655666155
  C   -2.06475110885641      2.26723888362474      8.06871653871756
  C   -2.48319030619211      3.44905873022811      8.69988218996872
  H   -1.76736610800190      4.00431361133802      9.31265120421685
  C   -3.78948940081268      3.92528612721821      8.56005051318563
  C   -4.71495354022848      3.21027436161240      7.78030743308211
  H   -5.74066827359813      3.57522880440691      7.67447496485377
  C   -4.31241458964490      2.04077796190204      7.14804238804879
  C   -2.99209303513493      1.57675985271648      7.28304551864909
  N   -4.38079583824927     -1.77347537500004      4.21515833393156
  C   -4.22628303055198     -1.22374404711384      5.35723334263549
  C   -3.92320980772268      0.24283173078647      5.61760662443995
  O   -3.55342739038894      0.91270867786859      4.38312548901363
  C   -5.10571123895118      1.04425363816165      6.31536436952462
  N   -2.81427351263487      0.40018195673807      6.53991429662582
  C   -5.91205985624296      0.12861629190682      7.26567891253187
  H   -5.26000503764670     -0.37906132154600      7.99255256033848
  H   -6.48275718014458     -0.63389360422276      6.71095779520239
  H   -6.62968615601641      0.73924114158277      7.83463629343943
  C   -6.05076874975525      1.68722726200216      5.29310007962872
  H   -5.52357602933351      2.40086923529930      4.64661976539099
  H   -6.85548132161639      2.22736267113335      5.81677218523314
  H   -6.52911999132712      0.92482176270036      4.65666231197671
  C   -1.50287855255583     -0.12756410664963      6.19609592301090
  H   -4.30728203725768     -1.85197994633624      6.25366843596446
  H   -4.79303464359036     -2.56281664143080      1.73675003101952
  H   -4.09306440724596      4.84910942801743      9.05851326950942
  C   -1.00162724005690     -1.22664852785185      7.12145745062711
  H   -0.76443751308600      0.69281814361863      6.15942736664591
  H   -1.54641366533173     -0.54404818028046      5.17741622035918
  O   -0.73262958146079     -0.66434756070293      8.41104087830606
  H   -0.07225145154107     -1.66645777925797      6.71809418109211
  H   -1.73710741245898     -2.03891318830305      7.22140393610862
  C   -0.62462904243100     -1.52155951586140      9.45318463352617
  C   -0.35694038915902     -0.77662286891538     10.73761183853933
  H   0.57947697431206     -0.20347507521273     10.65030660627606
  H   -0.28357071516148     -1.48958912101920     11.56763166877180
  H   -1.16438871565563     -0.05252768418637     10.92783215696428
  O   -0.73217098201230     -2.71616155165584      9.33848931009106
  C   -3.84933083935892      7.84968667609489     -3.98897567002753
  H   -3.22064349617714      7.83782079878922     -6.08149094648113
  C   -3.37151202156464      7.23573410259075     -5.18962408736174
  H   -4.41521861108043      7.61161128014747     -1.94809575933752
  C   -4.03968986297150      7.11244654628734     -2.84398226651332
  C   -3.09423816028814      5.89062910141008     -5.18786646952659
  C   -3.76065418486903      5.71250460776277     -2.81744482402530
  H   -2.72692076343095      5.41784202052392     -6.10307588881481
  C   -3.27000704843176      5.08034540486057     -4.02270365103791
  C   -3.94731885200575      4.93245181182556     -1.66445615671420
  C   -2.99029240239265      3.70451342699604     -4.00958909996324
  H   -2.61906060764906      3.22770132668893     -4.92179447269156
  C   -3.66751762826043      3.55665935051722     -1.65184245286689
  C   -3.17766930848535      2.92681301289049     -2.85842642586014
  C   -3.85779801037630      2.75392627007549     -0.48412969532515
  H   -4.25381845840034      3.24039047626555      0.41088045202862
  C   -2.90540101736487      1.52151993761751     -2.82140275015512
  H   -2.52230464787525      1.03836227592416     -3.72481349734013
  C   -3.59235891174629      1.39754014151180     -0.47259396566973
  C   -3.10663710327056      0.78761982654466     -1.68206558099008
  H   -2.86890194809601     -0.27830590811776     -1.67910519205869
  H   -4.45799814719492     -1.19592557910917     -0.32882516885399
  O   -4.20254418748395      9.18810661723438     -3.88736753703726
  C   -3.79841481108833     10.18901276856994     -4.71942739628389
  C   -4.37967883980426     11.49916346418563     -4.24778366089871
  H   -5.47841901778296     11.43397530327316     -4.21510445171579
  H   -4.06807456540239     12.30214434247273     -4.92645993358145
  H   -4.03647698731309     11.71487464023749     -3.22385727344682
  O   -3.08747659030112     10.04492432231195     -5.67800062006204
  H   -3.19931504772630      2.13455929274075      2.14954629881022
  H   -4.31976696248229      5.40923174195953     -0.75293160055618
