68
Coordinates from ORCA-job 1017-2_0.0
  C   -4.02040787995299     -2.51922762685026      4.50131607049771
  C   -4.25542445998211     -1.13277880996928      4.54589650150519
  C   -3.91738367789108     -0.34540240376731      3.43025223943364
  C   -3.36116593425646     -0.93847683518404      2.30862846636187
  C   -3.13557445790593     -2.30756122890638      2.29022143313628
  C   -3.46841538823736     -3.10445528871385      3.38220550254188
  H   -2.92040530063898      2.81057167706497      8.93716496844606
  C   -3.97831067485990      2.85889116391459      8.73457214578899
  C   -4.78514492881061      3.72638601094343      9.46523404193292
  H   -4.31978337670537      4.34461817569105     10.21612069860647
  C   -6.15174262651534      3.79586914232268      9.23676893435454
  C   -6.74152427622166      2.96851075040927      8.27079575526754
  H   -7.80692804150537      3.02665041788584      8.11893552122972
  C   -5.94567267830621      2.12172969419654      7.54632937051996
  C   -4.56443877696383      2.06579282134810      7.77021898855083
  C   -4.15312631788951      1.07985315330163      3.53540330999193
  C   -4.65016278247564      1.58929448917359      4.66018232119031
  C   -4.92428107109865      0.76203441607300      5.88254143601584
  O   -4.79221315755529     -0.63961301958154      5.66665708070882
  C   -6.32159087563485      1.07582004586796      6.52512385867370
  N   -3.97601596307250      1.14692412144240      6.92180581758804
  C   -6.84396267968256     -0.15181766478860      7.28140755928960
  H   -6.09081350745147     -0.50802780986144      7.98054675042577
  H   -7.09674197433434     -0.95053548472077      6.58923611837230
  H   -7.73288064458504      0.12568128982996      7.84183687630590
  C   -7.35786238369230      1.52011394404256      5.49828381867892
  H   -7.09709142818127      2.47469065378892      5.04916086723089
  H   -8.32416446413106      1.62602325129751      5.98381391227620
  H   -7.44950059171187      0.77225720806634      4.71330824028439
  C   -2.55031164429461      1.03574978197390      6.74632087367351
  H   -3.91071746385446      1.69892041261456      2.68540547206570
  H   -4.80292472147365      2.64811682952326      4.79498129584470
  H   -3.29032920839656     -4.16795729156460      3.35042241537311
  O   -4.31104769727664     -3.29979389176136      5.60789029369993
  C   -5.59893849809351     -3.36909897505462      6.01616182130427
  N   -2.55332151877324     -2.91619699620875      1.12756195893349
  O   -2.36982869828653     -4.11501350895387      1.14939229752149
  O   -2.27725518112960     -2.19264854138823      0.19294449043908
  C   -5.69441056020870     -4.11247541521556      7.31591635012470
  H   -3.09841449285219     -0.34442951735415      1.44650027036528
  C   -1.94707202450118      0.17788612404818      7.83413928695364
  H   -2.08141076603370      2.02857836430101      6.74618967193849
  H   -2.35611862496623      0.57328395895377      5.77238526139761
  C   -0.85204988073646      0.61030227509161      8.56252744977816
  C   -0.89031620922556     -1.42990943545693      9.84536177230412
  C   -0.31947394453995     -0.19071018306639      9.56885485616266
  O   -6.51354751409228     -2.89389221150245      5.40476199510535
  O   -7.01644216976270      4.62524976833836      9.89739323599528
  C   -6.50034847845837      5.48113175976316     10.88484865205060
  H   -7.35403800160151      6.03891180118653     11.26692178954403
  H   -5.76837997927591      6.18200012439814     10.46935017903698
  H   -6.03992793875759      4.91998380228829     11.70494985104313
  H   -4.86978949338901     -4.81176363433622      7.41283517403921
  H   -6.64896165511659     -4.62694116311450      7.37416464540706
  H   -5.64217990178031     -3.38889780021111      8.12816825087502
  C   -2.50996458586989     -1.06193074065108      8.11907465987744
  C   -1.98397689067711     -1.86139242784042      9.11837963797536
  H   -0.40067190837596      1.56863357885016      8.35456951007167
  H   -3.36598067815703     -1.39345128081110      7.55061175668738
  H   -2.42659703886773     -2.82340767700955      9.32908981967265
  H   2.18789946023076      1.99576832501480     11.81102911815531
  C   2.42569757313342      1.92618599882053     10.74744247363766
  O   1.35414198694366     -0.42040039067247     11.24831314939706
  C   0.85079668766655      0.23837000445057     10.37168513009943
  O   1.30199062931340      1.45377563875252     10.02068022950359
  H   2.66035237432927      2.90729746528596     10.34256344856258
  H   3.27130094704488      1.24662144398893     10.62254368661437
  H   -0.46215196958745     -2.03358262978780     10.63081916356227
