68
Coordinates from ORCA-job 1017-3_0.0
  C   -3.98244541276795     -2.42638349269663      4.59028592812458
  C   -4.23837634260042     -1.04094274488345      4.64419443227894
  C   -3.84690254887772     -0.21320905412331      3.56788897432939
  C   -3.19405211428292     -0.77804588418643      2.46638920643987
  C   -2.94423155880555     -2.14823261539217      2.44562508187798
  C   -3.33742173901047     -2.98400683345466      3.49488209914024
  H   -3.41763689865537      3.06570385730765      9.16513369746152
  C   -4.47889468832468      3.01142258049440      8.91714243168825
  C   -5.39825585917221      3.83906346138452      9.59027310677689
  H   -5.02345908406448      4.51544113140973     10.35895731526213
  C   -6.76207790837544      3.80128604934858      9.27473821378750
  C   -7.22399146913055      2.92458219565041      8.26797499347350
  H   -8.29170673254426      2.91777858072129      8.03642310691695
  C   -6.31922479702320      2.11327335455262      7.60600509416669
  C   -4.95053379494666      2.14561101800101      7.93355413641912
  C   -4.15002127953978      1.20590364411207      3.68868261319837
  C   -4.74504649270296      1.68533820313048      4.79315806939122
  C   -5.06868078218027      0.84257467725087      6.00268137878496
  O   -4.85798447190348     -0.56482515040482      5.73670101268357
  C   -6.55105794232860      1.04398038898463      6.54801020990737
  N   -4.23262097835379      1.24347137585312      7.13565896279268
  C   -7.05329080450096     -0.24061525484627      7.24616414853317
  H   -6.34116724720608     -0.58709290032046      8.00975007618484
  H   -7.21868880035953     -1.05137218499276      6.52264790930824
  H   -8.00662746744322     -0.01908376650587      7.74995891526665
  C   -7.54703241089049      1.43898497526947      5.44946174765543
  H   -7.31357492991777      2.41178240384786      4.99355424291945
  H   -8.56154784446296      1.50751763148289      5.87285746187874
  H   -7.57321960716259      0.67872407601710      4.65255665356474
  C   -2.78132374058045      1.30004658726297      7.05507003590895
  H   -3.87711772042886      1.86931015149440      2.86333682665910
  H   -4.95902871688350      2.75116765021760      4.90108532471294
  H   -3.13727896709368     -4.05363281829331      3.45300843768725
  O   -4.32962983365695     -3.23609024768300      5.65637622722680
  C   -5.65923729554883     -3.53529368895683      5.83806816405563
  N   -2.24915002431380     -2.73603590563798      1.29038472177249
  O   -2.05354589378293     -3.94224699836136      1.30054106362356
  O   -1.90832666150777     -1.98135089466852      0.39166128454435
  C   -5.84480377362083     -4.35759465400510      7.08413779184773
  H   -2.87490456349922     -0.16225103248658      1.62534365525012
  C   -2.07855529993910      0.44226167567113      8.11108237398515
  H   -2.43026126329074      2.33692971238689      7.11460446993477
  H   -2.47543769911155      0.93101198222786      6.06196093656248
  C   -0.87003079020110      0.80899077944735      8.75977879420352
  C   -0.85209729980499     -1.32037078741973      9.95969159470535
  C   -0.27630446325274     -0.08617229174494      9.67474902714382
  O   -6.51879374423783     -3.16348978565939      5.08935312025510
  O   -7.71916434417850      4.56796146759990      9.87308210617799
  C   -7.33602524311106      5.48637188900677     10.86713647007229
  H   -8.25250878699610      5.99525848709515     11.19737160254331
  H   -6.62740832792704      6.24350606129490     10.48167859139178
  H   -6.87325549395445      4.98596711875169     11.73863232398734
  H   -5.09955012049971     -5.16485434269533      7.13280094169697
  H   -6.86239176394979     -4.76604575981445      7.10447606469097
  H   -5.69385724571861     -3.71302630230259      7.96528432158369
  C   -2.63454603948105     -0.81207164954942      8.40876455913078
  C   -2.03839977691572     -1.68540066440255      9.31764049823356
  H   -3.55500094458485     -1.10149350590508      7.89904070031592
  H   -2.49922359043806     -2.65597825400165      9.52097687075483
  H   -0.37615205686996     -1.99445530491493     10.67628380702622
  H   1.89878321074401      3.64374451200123      7.85475485433422
  C   1.75848461915797      3.39238738980307      8.91725183262951
  O   -0.66749706638197      3.09060415501148      7.96019537943615
  C   -0.19567647444315      2.12914028845918      8.53109224609713
  O   1.04449601158018      2.16534716739203      9.05848292611279
  H   2.72987001272243      3.23658014477033      9.40323071127424
  H   1.21721736117974      4.22050096558490      9.40004295869316
  H   0.65000581835534      0.20967698001198     10.16632516352437
