64
Coordinates from ORCA-job 1018_0.0
  C   2.43510996136811      0.41573988766574      0.60391359824841
  C   2.86487597767720     -0.90647525600339     -0.00816198315064
  O   1.75475432174279     -1.83512345219588      0.02503519692493
  C   0.50179228272693     -1.39049566626812     -0.23535542455008
  C   0.11790731976827     -0.07602662676176      0.01811073936748
  C   1.14477361226431      0.79124731896814      0.58760676651775
  C   -1.23844419746848      0.32640418453072     -0.22314956816107
  C   -2.17289150207256     -0.64762151267384     -0.70229117102422
  C   -1.75094253961644     -1.98800621471124     -0.93266051709663
  C   -0.44063379037872     -2.35591564984007     -0.70367848143177
  H   0.85194564285255      1.74228904143470      1.03697165085582
  H   3.20657317060313      1.03885577038364      1.06105348865090
  C   3.96667958709449     -1.53354753016036      0.86454068202085
  C   3.66649043510588     -2.52708548767251      1.80637971451207
  H   2.64303839408626     -2.89456665877559      1.88495641856005
  C   4.66931980605581     -3.04778388241866      2.63102657265209
  H   4.41997291726946     -3.82738124034666      3.35627025664465
  C   5.98077269772153     -2.57564753659313      2.53435217799591
  H   6.76271077554515     -2.98230912287028      3.18127458633873
  C   6.28572027461881     -1.57993012280614      1.60082708385144
  H   7.30898933661076     -1.20498668495821      1.51200038523473
  C   5.28690331474900     -1.06595299880580      0.77003258859920
  H   5.54193802816378     -0.30016902171229      0.03307839089433
  C   3.32624230842926     -0.77900198971538     -1.47347637076415
  C   3.55370581090538      0.45404807381409     -2.09640482563866
  C   3.99442099997026      0.51356213416240     -3.41959291273812
  H   4.17486653621723      1.47159091202807     -3.91165162480626
  C   4.20262138381075     -0.66425569941355     -4.14461556077283
  C   3.96742041514283     -1.91120806588276     -3.54594920196156
  H   4.12118094634969     -2.82759204334736     -4.10869058887998
  C   3.53598479096720     -1.94863390960996     -2.21887327622553
  H   3.34668345041277     -2.91742006486949     -1.75113436950424
  H   1.01163121587050     -5.98655926222965     -0.45299679411291
  C   -0.57646125906330     -4.74433270562356     -1.20725596595640
  C   0.39388232973557     -5.88930654991836     -1.35869934185845
  O   0.10813491068509     -3.60826099161890     -0.90051931958039
  O   -1.76952768495601     -4.81683491904971     -1.34144562578331
  H   -0.16166712095337     -6.81644939946930     -1.54411594221304
  H   1.07720048250312     -5.68753642685141     -2.19875167560889
  C   -1.71129378491104      1.65115079073211     -0.00783127147826
  C   -3.02749756065615      1.98687016379959     -0.24458803272808
  C   -3.95946467306618      1.02347764542655     -0.71747083680576
  C   -3.52415419359843     -0.26747600076859     -0.93862969196608
  H   -3.35965652213784      3.01531613476676     -0.07089074954970
  H   3.37833048410597      1.38395631621370     -1.55156216152833
  O   4.63909904886564     -0.45651916202331     -5.44472500291890
  C   4.90504565872790     -1.41569021266549     -6.37346110364578
  C   5.35463702648708     -0.76117661847240     -7.65682397093781
  H   4.56670771542233     -0.08954756920707     -8.03209901440926
  H   5.57729929359053     -1.53407406282954     -8.40217661556168
  H   6.24758527981910     -0.14379671583416     -7.47242238023189
  O   4.79656609080302     -2.60015462428358     -6.19611273549614
  H   -2.46621224345932     -2.72410846828790     -1.28908310349708
  H   -4.22663283094004     -1.01990136713377     -1.30203542305657
  H   -1.02370727056668      2.42276609571347      0.34284349556010
  C   -5.38930953818454      1.45874436058501     -0.94599678020768
  O   -6.20152152545960      0.39815634823373     -1.43844224389639
  H   -5.43156453958775      2.29860723030531     -1.65755920229263
  H   -5.83453933170051      1.79907648759925      0.00621770592200
  C   -6.82323264776002      0.58414932136081     -2.63846942124803
  N   -7.54705700766400     -0.52260997715832     -2.95345254511709
  H   -7.57815766601715     -1.32074161780350     -2.33404041982102
  H   -8.06650412799189     -0.52628699158617     -3.81978349580797
  O   -6.74040047663549      1.58494186350345     -3.31224475533009
