96
Coordinates from ORCA-job 1022_0.0
  C   -5.50254708350818     -1.86942344699921      7.90826956353148
  C   -5.26686116831883     -0.69933177043582      7.15276956604201
  C   -5.03849045155596     -0.80263399051087      5.76150385617577
  C   -5.08972792084242     -2.05576866313116      5.14131331562618
  C   -5.35548889705447     -3.18844897170788      5.90723935651835
  C   -5.55827930854005     -3.11016124440662      7.28936378586434
  H   -2.67940173134996      3.25577019989788     10.36173814095219
  C   -3.74739992347152      3.42315603375767     10.21024082078995
  C   -4.50013518623206      4.07817373546296     11.19741650684722
  H   -4.01610891430222      4.42530366203124     12.11286912344051
  C   -5.87148431091137      4.28757915327685     11.02345813061915
  C   -6.51924206762047      3.85977455499802      9.85111913455789
  H   -7.59047776179769      4.04344068215585      9.74258280564892
  C   -5.77300029567596      3.22560521201770      8.86830541464609
  C   -4.39562337984443      3.00764082109170      9.04555289630850
  C   -4.69536805874850      0.42808109154262      5.06300513796128
  C   -4.62201834548689      1.60440042321249      5.70848138552059
  C   -4.94184918489924      1.77562091284151      7.16689485511576
  O   -5.24566822015932      0.46887930263226      7.79969570604190
  C   -6.16478205882009      2.73955739321876      7.47959894904842
  N   -3.86002465936386      2.36020725927414      7.92248758814339
  C   -7.52103109298704      2.03324325788606      7.39010988698776
  H   -7.61094595326406      1.19515432885486      8.09207860239247
  H   -7.69252277158389      1.65058135550962      6.37032133325548
  H   -8.32720430796555      2.75261871762708      7.60548746159735
  C   -6.15086776194870      3.95622884616122      6.52343548482758
  H   -5.16966191456958      4.45471388336304      6.51252457881575
  H   -6.89591644823837      4.69042119602283      6.86476943365482
  H   -6.41341967426551      3.66406044493941      5.49426553476185
  C   -2.55755165921655      1.73046168624331      7.96957125816783
  H   -4.46578081382645      0.36924208720296      3.99533109368411
  H   -4.31886798326069      2.51043833961971      5.18274093950848
  H   -5.74867713367813     -4.01195295101799      7.86962224158089
  O   -5.59646175929225     -1.78877820140396      9.28409190736991
  C   -6.72146955291278     -1.24007090470773      9.84867678587115
  N   -5.40915863675532     -4.50342978699904      5.25241787881601
  O   -5.63303845640255     -5.47795844293516      5.95493987556459
  O   -5.22558057663160     -4.54207048367205      4.04444363195462
  C   -6.53743458174042     -1.09325790131456     11.33405666106485
  H   -4.91625846277822     -2.16259425228682      4.07025178664247
  O   -7.68728467848504     -0.92844647155114      9.20945410871878
  O   -6.62019922934871      4.98976259702888     11.94732013815058
  H   -6.12078701405626     -2.01411197397895     11.76763925910207
  H   -7.49712849273814     -0.84167297723481     11.80122244136708
  H   -5.81338091248306     -0.28327755322275     11.52040058264451
  H   -2.31663221944952      1.31097599558959      6.98233223716983
  H   -2.50334687576305      0.91771869957050      8.71971597154068
  H   -1.78527252415132      2.47759449966592      8.21178771419564
  C   -6.67140748162862      4.61646964473698     13.26462372645780
  C   -7.01695062919340      5.61297469330683     14.18790296262473
  C   -7.13629877070211      5.30253518687945     15.54005234961168
  C   -6.91131127951543      3.99536589773920     16.01745866563216
  C   -6.54925244158522      3.01580006407072     15.07227704721902
  C   -6.44019887303288      3.30830909715883     13.71205417535960
  H   -7.18270726032586      6.62924892339439     13.82398734754183
  H   -7.39581115321663      6.09383087219696     16.24569784333951
  H   -6.35992096676414      1.99345353385081     15.40864864775674
  H   -6.17603437170894      2.52370744669765     13.00100848864005
  C   -10.01488422511803      3.99202876965075     16.72316277810541
  C   -9.80495650970838      5.87877193240001     18.21696795005065
  C   -11.70184917887334      5.73267683432070     16.71520604839090
  C   -10.99316755006686      6.41150048515762     17.71247376594133
  C   -11.21036663463683      4.51769836944682     16.22742794973865
  C   -9.28689943191443      4.66694299632017     17.72051504529138
  H   -9.26230093508871      6.40898440481499     19.00361095154128
  H   -11.76281321971248      3.97254554008757     15.45712621993125
  H   -12.63611060275608      6.14569961692926     16.32527845666310
  H   -11.37031988480588      7.36075400266383     18.10319353831412
  H   -9.63783927136321      3.04226479734352     16.33765575911406
  C   -6.12810258408410      1.62936757376517     18.69886527431045
  C   -4.53158719869972      3.16050262961797     17.72712649013825
  C   -3.75343152243550      1.19199402702206     18.90722008093940
  C   -3.48336809944803      2.36346622016490     18.19202903574454
  C   -5.08085327396949      0.82501821909940     19.15244632809950
  C   -5.87226149491784      2.81677847643311     17.98690110110253
  H   -4.31316819738175      4.07096062246708     17.16330850044228
  H   -5.30261016134665     -0.09541120493444     19.69979549432683
  H   -2.93309460274959      0.56435198172958     19.26599014038534
  H   -2.44896301646158      2.65781018024281     17.99349679535130
  H   -7.16279465899414      1.33922283526113     18.89532734901098
  C   -8.02138998000305      4.08700484671463     18.27536052732551
  C   -6.99380270397333      3.66029887578216     17.46906891680640
  C   -7.99048211743318      4.00818171164717     19.75015201348246
  C   -9.03405120701420      3.70135745709522     20.60136102419800
  C   -8.69297115489562      3.77733816437397     21.98316541857813
  C   -7.39251924763959      4.17000558055121     22.20707868469439
  S   -6.57322761752182      4.43778248724509     20.69226636738662
  H   -10.02386230199565      3.42254147309412     20.23624378459825
  H   -9.39470412443934      3.54977828707398     22.78673868992459
  C   -6.66522605384861      4.37559620729280     23.51110670646628
  C   -7.50241722658478      4.06883881772395     24.75400873150112
  H   -6.30133477188873      5.41844671154308     23.56299243516762
  H   -5.75388190011261      3.75008640358565     23.51945043346273
  H   -8.39468476903158      4.71297704723310     24.81018706631267
  H   -6.91081454768454      4.23648364560130     25.66754328812469
  H   -7.84273437743025      3.02086122822620     24.76237473604491
