55
Coordinates from ORCA-job 1023_0.0
  C   -2.39137599510442     -2.75429135134967     -0.18762784452262
  C   -2.62086235691310     -1.95233613762820      0.95950609622412
  C   -1.54554915994873     -1.41086527063701      1.69714436969134
  C   -0.22892152179414     -1.69100665274288      1.28329220919221
  H   0.60290956561409     -1.27593330829627      1.85937402622312
  C   0.01324976727468     -2.47942507210481      0.16510646662698
  C   -1.06351556234031     -3.00142499159114     -0.56056437572017
  H   -0.86065934591511     -3.61492519886762     -1.43982009779618
  H   -5.69821492419005     -2.45547382653575      6.70721589594002
  C   -5.93565017233577     -1.46193892257978      6.32231808067951
  C   -6.65312727147203     -0.55004696293609      7.11279102600323
  H   -6.96897973493441     -0.85223814580453      8.11528845918877
  C   -6.95642865414618      0.73214362861817      6.64973438477478
  C   -6.55919981875084      1.12014192707221      5.35667463784403
  H   -6.81262512584563      2.11624393348661      4.98195153226624
  C   -5.85114762455344      0.22883596055181      4.56285335360686
  C   -5.53048194887239     -1.05708832445514      5.04449609998666
  C   -1.77043798114186     -0.58472956659162      2.87688458016358
  C   -2.95690448049633     -0.31086910506722      3.44699264577933
  C   -4.31931279481763     -0.82605467774330      3.05117397887967
  S   -4.31663467658164     -1.60915746241986      1.37005269472756
  C   -5.42806317916331      0.32365625876808      3.10082130723574
  N   -4.81053312814464     -1.76689816609760      4.08865228705737
  C   -6.66930188485331     -0.03449765303096      2.24568062182094
  H   -7.03163021865288     -1.04956798407771      2.46804079197497
  H   -6.45595263631128      0.03564769473965      1.16820633549013
  H   -7.48118055191593      0.67118185131851      2.47933699071980
  C   -4.89335502794799      1.68982216490402      2.65874568426456
  H   -4.09322987291270      2.06460535925769      3.31230494005987
  H   -5.70704833447473      2.43256197811401      2.66555200710213
  H   -4.50020968731807      1.63458836255495      1.63105906859547
  C   -4.27091428905223     -3.08870683817476      4.31031498620938
  H   -0.87054687162468     -0.17628763139137      3.34838892261591
  H   -2.96941899770507      0.29255987368119      4.36077736311771
  H   -7.50253564567224      1.43148956354480      7.28717097457698
  C   -3.05198475617849     -3.16085029308120      5.23603571385555
  H   -4.01639558553226     -3.52650648090501      3.33273639243257
  H   -5.06648514806818     -3.72372520043763      4.73738846976796
  O   -2.79332961853984     -4.55537667509682      5.45289891225140
  H   -3.24484361363534     -2.66706584301704      6.20242121561654
  H   -2.16678304942300     -2.68313218548258      4.79461662004063
  C   -1.66922636882408     -4.87010933072499      6.13120381261681
  C   -1.52353626099001     -6.36607697067347      6.27427070080781
  H   -2.40457225175824     -6.78363678706535      6.78609650941941
  H   -0.61385883029505     -6.59414321185751      6.84265360860586
  H   -1.47445400249667     -6.83523976367793      5.27916651518525
  O   -0.89960885206100     -4.04505462487521      6.55617007516552
  H   1.03821616302885     -2.69099354652045     -0.14935612230237
  C   -3.56467879429547     -3.30705956210982     -0.97612590363469
  C   -3.23222863477512     -4.18012578475239     -2.18531272448412
  H   -4.19250612631018     -2.45863158920642     -1.30757570878980
  H   -4.21232066553101     -3.87390583141232     -0.28198360537080
  H   -2.64782717294167     -3.63157981065672     -2.94162562024409
  H   -4.15937264493015     -4.52290097041093     -2.67061178907936
  H   -2.65781364342868     -5.07683084452458     -1.90123757246016
