83
Coordinates from ORCA-job 1025_0.0
  C   -0.19519048408999      1.15811618957598      0.89992327326427
  C   -1.23408788221393      0.23994711345110      1.12147212751880
  C   -1.32692241526707     -0.89948539442130      0.30147678861806
  C   -0.41336996886188     -1.07334897281297     -0.74988630308975
  H   -0.49118157512195     -1.97431784248487     -1.36390159670974
  C   0.60702922101139     -0.14295992744455     -1.00200229002763
  C   0.70219047071501      0.97371497718198     -0.14583045638894
  H   1.46885784232691      1.73525267339735     -0.30069977093928
  H   -2.20487545213394     -0.08386828301235      6.67451052819882
  C   -2.97164433531540      0.48404589704404      6.14307409078993
  C   -3.64981542425956      1.53667561202362      6.77874259016918
  H   -3.39939736445282      1.77601807189244      7.81609455082312
  C   -4.62631224440968      2.28263097183753      6.11267453551256
  C   -4.95192232521150      1.98126725946516      4.77811757991843
  H   -5.71455524741036      2.56525051605149      4.25437194009608
  C   -4.29244477999567      0.94028479981905      4.13718663274363
  C   -3.30824158128846      0.20039224084029      4.81574034061265
  C   -2.36666203046113     -1.85812666959308      0.64723630722279
  C   -3.17494206009403     -1.66676201568016      1.70593595549614
  C   -3.10848944403728     -0.45321755739797      2.59356283805015
  O   -2.11266750021515      0.50385284274507      2.10652774460560
  C   -4.46833782882931      0.35772348509513      2.74164423266962
  N   -2.77140505131313     -0.78091775709203      3.96767126023191
  C   -5.68486510216463     -0.59613599733568      2.75353792170525
  H   -5.56235305817472     -1.40115719448129      3.49427551383613
  H   -5.85630163400380     -1.04871585688515      1.76350106486263
  H   -6.58750107648405     -0.02854996326305      3.02609527423463
  C   -4.64521733361186      1.40252111719971      1.63402887430407
  H   -3.84395124581938      2.15225382672210      1.65270439442613
  H   -5.60976204573845      1.92041949359452      1.75774408426580
  H   -4.65143813907775      0.92427519434469      0.64066060875046
  C   -1.53488415176986     -1.46906606451151      4.29981629163945
  C   1.56186768818996     -0.32664081795022     -2.12631133382278
  C   1.13823853148684     -0.84096903101773     -3.37015591568892
  C   2.92045316299686      0.00487661529111     -1.99688902694651
  O   -0.11150341433523      2.29631626837269      1.68626877775542
  C   0.19654488418439      2.14571332609320      3.01455172457921
  C   0.01143994209675      3.44568650586692      3.74881402385345
  H   -1.06303283406258      3.57183239627362      3.96166634434857
  H   0.33523696139356      4.29802534384280      3.13511303807736
  H   0.55850598215490      3.41279977466227      4.69914934356939
  O   0.54752111718462      1.10195342927697      3.49296854989318
  C   -1.80390189485311     -2.69361428814842      5.18044472107135
  H   -0.83668966311327     -0.78284064299298      4.80758781739172
  H   -1.04048029829750     -1.78967356965799      3.37185356816860
  O   -0.57568959583607     -3.28096902314358      5.63357983637000
  H   -2.31619609715072     -3.47977217473147      4.60751700758039
  H   -2.42260987941038     -2.41980638586717      6.04697957672920
  C   -0.01395559154095     -2.75910596010502      6.74500523669050
  C   1.27108128377694     -3.47143370742569      7.08702262662905
  H   1.08415384083849     -4.54974126939053      7.20753174675801
  H   1.69001321527345     -3.05275020964091      8.00997876750773
  H   1.99031478100196     -3.35625820342194      6.26099474735808
  O   -0.49333847172986     -1.84467332701429      7.37130424356245
  H   -5.13655997002882      3.10079856082195      6.62720925718730
  H   -2.46049578330818     -2.76406995565627      0.04097916516037
  H   -3.91707614081058     -2.41661510555062      1.98135686030243
  C   2.02541290002845     -1.01101483326401     -4.42736162066997
  C   3.38045700713453     -0.67008143720185     -4.27830671350690
  C   3.82605283527110     -0.16092229435744     -3.04992247852371
  H   3.29417575006552      0.38178965908520     -1.04146660208024
  H   4.87343144460529      0.10098758436973     -2.89611684400088
  H   1.68882358317729     -1.39797731764104     -5.39173768246667
  H   0.08428151186377     -1.08856487138457     -3.51966346551743
  O   4.17416744783040     -0.86330844100793     -5.36605888061120
  C   5.54937089769404     -0.55192443015314     -5.29215596406245
  C   6.14063502998335     -0.84336547140210     -6.66204422925750
  H   6.05966490361918     -1.16465795421342     -4.52589393410418
  H   5.70902647737827      0.51178252468526     -5.03599519462172
  O   7.51867237076626     -0.55069397102929     -6.58163721158665
  H   5.63789579621064     -0.21965391883309     -7.42442183089573
  H   5.96880743795618     -1.90347467752313     -6.92610314969584
  C   8.30921481295395     -0.71564504853652     -7.67800682737115
  C   7.84428940941115     -1.15052741630344     -8.92831661827497
  C   9.67323556104718     -0.42140441388657     -7.50539629780846
  C   10.55793880367843     -0.56151649497133     -8.57188624704514
  C   10.10142261569823     -0.99492949652552     -9.82439823360316
  C   8.74705266548213     -1.28557084442942     -9.99141057293935
  H   8.37530998337347     -1.62470872820508    -10.96236210829924
  H   6.79081962038519     -1.38418826742665     -9.08602812130994
  H   10.01114871061946     -0.08507666931999     -6.52263031621474
  H   11.61662934288669     -0.33071369419379     -8.42458713611586
  H   10.79763257255175     -1.10385041098285    -10.65941935091352
