82
Coordinates from ORCA-job 1028_0.0
  C   -4.03076190586587      0.75556174425176      2.71630846539869
  C   -4.81594525838208      0.29424003178507      3.78801176890088
  C   -5.42091254673265     -0.97725272199066      3.71659778137629
  C   -5.25133566463462     -1.75536505147853      2.56546519800672
  C   -4.48296407076162     -1.28392160644755      1.48829651983220
  C   -3.86754142299016     -0.01898076325819      1.57540937324746
  H   -3.64132021495180      0.27650873992228      9.79972429134492
  C   -4.54745004193703      0.85780542536600      9.61955043498276
  C   -5.25330691660298      1.41308065989823     10.69543564392457
  H   -4.88150815762717      1.24415165818262     11.70903112503618
  C   -6.44184038698555      2.14395740347600     10.51618484802657
  C   -6.92821889038149      2.31111225167756      9.19588525901545
  H   -7.84578646126988      2.88381785798543      9.03446310580735
  C   -6.23903386344517      1.77225415279473      8.12199738576441
  C   -5.04246913793582      1.05463231648677      8.32620768285449
  C   -6.19197447554300     -1.39913937922156      4.87872805548516
  C   -6.28025413739468     -0.60947733789817      5.96126255480500
  C   -5.56382605046068      0.71541315068473      6.08756815962437
  O   -4.96940316228074      1.11649960729425      4.84300041595682
  C   -6.48541573712263      1.89217548176087      6.62290936737323
  N   -4.51955058089567      0.62741039158451      7.11380680223932
  C   -7.95213643970166      1.75265025331401      6.19814971739514
  H   -8.42656205492182      0.84791732882817      6.60452800508555
  H   -8.04055385607529      1.72468266063889      5.10007840192190
  H   -8.53090277521294      2.61991718037423      6.55343763502339
  C   -5.93719715442129      3.25463187862547      6.13894304289111
  H   -4.87116599206335      3.36507689955990      6.38540505622808
  H   -6.49086784685481      4.06385783920114      6.63918234268844
  H   -6.05398875526868      3.36760575762629      5.05097502152479
  C   -3.40816341776011     -0.29108357928186      6.99632847578991
  H   -6.68439809489415     -2.37541539396986      4.85313641861953
  H   -6.83243061355872     -0.92777658446785      6.84866767594714
  H   -3.25806953978999      0.36620828856154      0.75695544232307
  O   -3.45658791002112      2.01137126790307      2.77504777675765
  C   -2.41995780543203      2.21124921209563      3.65501629471339
  C   -2.01419696607229      3.65932784440000      3.66144073532143
  H   -5.72324354824756     -2.73855804681288      2.50764424173620
  O   -1.93544753416994      1.32776105934880      4.30609662591586
  C   -7.21979409808414      2.66944251359189     11.67180067785968
  C   -6.63978731398406      3.51633672574933     12.68142424592336
  H   -1.87607088801514      4.02488532943115      2.63309214402640
  H   -1.09219566839813      3.78016345194060      4.24250045650443
  H   -2.82047389189832      4.25692331169904      4.11630242740716
  H   -3.00364908780490     -0.25062136752677      5.97545113232694
  H   -3.67082700766161     -1.33696539337076      7.24980023970647
  H   -2.59982190194808      0.03486035969419      7.66829360875558
  C   -8.56183577801466      2.33253008385216     11.79312391914796
  C   -9.33925113713214      2.75994942457037     12.88071544266631
  C   -8.80787170767666      3.53564975011968     13.90776890658407
  C   -7.43003027471277      3.92664124227884     13.81643296137277
  H   -9.01909317263301      1.68825417841318     11.03800560225401
  H   -10.38238524693282      2.44403875417843     12.91392823849383
  C   -9.61881850739061      3.96204284593127     15.06632175994485
  C   -9.00412764078037      4.73282194146074     16.10638299891929
  C   -7.62378644512149      5.12027264273558     16.02744991837720
  C   -6.83095791006544      4.73983767571855     14.83803392159020
  C   -5.51181332197237      5.15854346230268     14.67962395628643
  C   -5.30578955105169      3.99766787424243     12.57001565273209
  C   -4.75929605836626      4.80376868698764     13.54670244503824
  H   -4.71936606751141      3.73786954695256     11.68881242210721
  H   -3.73688060398490      5.17606446810400     13.44220307991132
  C   -4.31966475822571     -2.08290043361510      0.30735334318673
  N   -4.18767749305752     -2.72949322532386     -0.64868777179363
  C   -9.78070558760136      5.12555813295281     17.24997663788147
  C   -11.15173448331750      4.75995586940259     17.32662093048068
  C   -11.73209364450926      4.03034872668397     16.31056111030178
  C   -10.96992171176022      3.63512205333590     15.19405584197933
  C   -7.07538151296154      5.84321604303793     17.07930239051574
  C   -7.83018869548645      6.22490918170152     18.21476805312525
  C   -9.16776110407975      5.87208363009136     18.29003489704097
  C   -7.12396642825249      7.00342515356818     19.29069059334853
  O   -5.94516571964908      7.28230776008961     19.17808191448525
  C   -7.90856883291721      7.43386118698237     20.51782819998949
  H   -7.23792311700218      7.98661150280325     21.18818984204915
  H   -8.32016960854759      6.56119067052020     21.05063972018713
  H   -8.75860939331558      8.07777212835359     20.23879737607890
  H   -6.03016658912543      6.14988632555605     17.07874760569926
  H   -9.78045764663017      6.15501774370836     19.14864982789723
  H   -11.73368196452253      5.06643713716024     18.20002529321369
  H   -12.78708050343851      3.74952012112627     16.36513837030207
  H   -11.46745979216792      3.05503809682703     14.41641700714161
  H   -5.04389874362359      5.78973680717987     15.43516551006740
