80
Coordinates from ORCA-job 1029_0.0
  C   -2.30843247987978     -0.52530206950202      0.72869989941975
  C   -1.35786677645395      0.44666775377070      0.65454674037081
  H   -6.26931886558698      0.23715872277099      4.67190127854599
  C   -5.67109858287616     -0.65621946797327      4.86099900881083
  C   -6.23158464400383     -1.75297465040918      5.53511815977113
  H   -7.27196453495864     -1.69649776516528      5.86675865938081
  C   -5.48591150739955     -2.90780867490270      5.78483198248272
  C   -4.14553274657869     -2.98356510126703      5.36480003348108
  H   -3.55842831676804     -3.88448793917236      5.56508631601439
  C   -3.57898101947071     -1.90457178058506      4.69995836696553
  C   -4.34044000483258     -0.74987226520854      4.44438994611532
  C   -0.77554922576863      0.93474910579825      1.88953504963333
  C   -1.22447997828705      0.50738235665447      3.09956661389035
  C   -2.37631496418459     -0.44653660716566      3.22407978570626
  O   -2.70652488308382     -1.03010668892988      1.91520018183873
  C   -2.15572975261646     -1.67275469526276      4.21212444162727
  N   -3.56834322837611      0.18948931916537      3.75029499641208
  C   -1.28918551573020     -1.25534108113593      5.42333741182220
  H   -1.68272880135138     -0.35183343620214      5.91369775581106
  H   -0.24226778279423     -1.07381201196656      5.13200680918950
  H   -1.29560163087556     -2.06604631089426      6.16717430532848
  C   -1.51651576249621     -2.87964069242711      3.51568167269016
  H   -2.14620763850417     -3.26390138966834      2.70303766696216
  H   -1.35796989419478     -3.68930029501869      4.24558692130740
  H   -0.53180702718629     -2.61546972151943      3.09690509644181
  C   -4.12864216412223      1.39221351852568      3.16302566463408
  C   -4.14166483833295      2.55643116858049      4.15012488278004
  H   -5.15570043876481      1.20294943198833      2.80321800419450
  H   -3.53506465293406      1.67722244156885      2.28231623948624
  O   -4.74201629834912      3.66872973163292      3.47973473412926
  H   -3.11907959339556      2.81631950359734      4.46881706116190
  H   -4.71314498573614      2.31365005156110      5.06074869501382
  C   -4.86395494213353      4.81203254670095      4.19299219296023
  C   -5.48997463842655      5.90552121085984      3.36288729975342
  H   -6.47887019276122      5.58487059971977      2.99977539513467
  H   -4.86771252449054      6.10580083037048      2.47657755710002
  H   -5.58693832511422      6.81563849093647      3.96689440003335
  O   -4.50721998687426      4.91052004218963      5.33963367535390
  H   -5.94027613039613     -3.74945278998239      6.31346573999233
  H   -0.79028236981408      0.89219787827938      4.02078635094422
  H   -1.04416187454169      0.86041765347961     -0.30057159292543
  C   -2.98766944211195     -1.14950025427252     -0.42467065164166
  C   -2.45385082471248     -1.08096370087240     -1.72391107264303
  C   -3.11945654819281     -1.68629188289349     -2.78373689303932
  C   -4.20188146148825     -1.83070585690959     -0.24365959922325
  C   -4.89531553431623     -2.43301746677067     -1.30665590047365
  C   -4.33381945870073     -2.37984765917365     -2.60986156791140
  H   -1.49765039420887     -0.58663523637635     -1.90607984071037
  H   -4.63848704393711     -1.86005868202187      0.75488270005392
  C   0.29090907593686      1.89972919951650      1.82049050333743
  N   1.14603540673985      2.68160920137455      1.74867368343809
  H   -2.66800747133995     -1.66265109161633     -3.77837441274095
  C   -6.22086455880878     -3.05510551130765     -1.00794953333650
  C   -6.35865944948643     -3.92392588709851      0.08390206403515
  C   -7.60505964461356     -4.46625924286652      0.42026794097204
  C   -8.74632624271172     -4.15584924553160     -0.32773432524300
  C   -8.60530317331043     -3.28449045600375     -1.41466288227929
  C   -7.36966696998416     -2.73798442546233     -1.75756030358016
  H   -7.29370051949183     -2.05117479073066     -2.60226587143808
  H   -5.49528187805863     -4.20277894811957      0.69112309772893
  H   -9.71408659487931     -4.57057303596622     -0.05976548600343
  H   -9.49089128738702     -3.02542261569268     -2.00102686865970
  O   -7.56377866504615     -5.32417346821371      1.51039690766792
  C   -8.63528520489382     -5.73373747676290      2.24482648507944
  C   -8.15633606401716     -6.56006064330909      3.41292882622904
  H   -7.52328338145310     -7.38839850642554      3.05972744095737
  H   -9.02038360445525     -6.94867587888093      3.96526988519259
  H   -7.53609196022000     -5.93519828056778      4.07536583426755
  O   -9.78178502059782     -5.46750292450966      1.99983356761356
  C   -4.93301623991681     -3.05867205972398     -3.79563198887148
  C   -5.10785484921959     -2.35870813923873     -5.00384861367801
  C   -5.62830324322362     -2.99562827708632     -6.13391381456605
  C   -5.97360846665895     -4.34898665411309     -6.08063931551550
  C   -5.79569814071537     -5.05943432736262     -4.88865040657342
  C   -5.28436860975348     -4.42104119009479     -3.75734280995800
  H   -5.14407112249991     -4.98656407393063     -2.83366672206246
  H   -6.37836652867358     -4.84918910873004     -6.96445151068665
  H   -6.05466020198568     -6.12053947602564     -4.83933085456805
  H   -4.84878278727063     -1.29756725828179     -5.05168142111131
  H   -5.76593237388922     -2.43005159173927     -7.05954166982420
