83
Coordinates from ORCA-job 1030_0.0
  C   -2.56510138057924      1.03384854897907      3.07639668347595
  C   -3.21445291153449      0.18352573888703      3.99788517354066
  C   -3.25142102536056     -1.20924511522601      3.76220793065292
  C   -2.66702628531930     -1.72881058046362      2.60138690942146
  C   -2.05118403663475     -0.86364549538941      1.69981373302941
  C   -1.98843599399850      0.51666767454743      1.92601331959225
  H   -2.13363424046727      2.08907389772166      9.12063054989488
  C   -3.14561983371040      2.33120234445163      8.79462028287889
  C   -3.77945686361131      3.50326121513385      9.23694568158731
  H   -3.24226564865309      4.17336948496507      9.91387988096519
  C   -5.07461222255569      3.82922577909561      8.82544446891002
  C   -5.77137960480680      2.97280101800552      7.95434868172107
  H   -6.78549486498241      3.22508146704949      7.63135066352464
  C   -5.15513357534653      1.80969428577091      7.51131124790710
  C   -3.85076717336986      1.49174959985727      7.92881072487667
  C   -3.90309351654106     -2.02326305306541      4.77829358949182
  C   -4.38288005273975     -1.47908192436533      5.91085293042753
  C   -4.30332288733741     -0.01121343493348      6.22654041972633
  O   -3.80442600128069      0.74612510862180      5.05368627136613
  C   -5.67232796125897      0.68507731478718      6.62506825271197
  N   -3.43770977926092      0.28311654604254      7.34539508752669
  C   -6.54344781367383     -0.26111694419003      7.48348524882597
  H   -5.98181006894726     -0.66857980260734      8.33779739314374
  H   -6.94193779498763     -1.09817761618508      6.88812061113716
  H   -7.39807391244391      0.30268426494549      7.88651990148829
  C   -6.47425717829789      1.15078860841695      5.40420413996886
  H   -5.92810951514494      1.90039403413255      4.81740782335313
  H   -7.42794647094732      1.59484831251957      5.73089130539351
  H   -6.71602808859008      0.30114413947115      4.74463434859750
  C   -2.04047509453693     -0.13383757189607      7.35243239874647
  H   -3.97417092809533     -3.10160418399476      4.61066060936193
  H   -4.82891484936313     -2.10963675015781      6.68042034185841
  H   -1.49571511457067      1.17031832345249      1.20757832796692
  O   -2.56662876936301      2.39843487469669      3.28920075498041
  C   -1.86255757967693      2.89792543907328      4.35935644494478
  N   -1.44735825784126     -1.41119559415639      0.47657678718280
  O   -0.93119819775744     -0.62341327804085     -0.30237366621080
  O   -1.49970557942469     -2.62130991378645      0.31176395934012
  C   -2.14389310488258      4.36434916992238      4.53152470183783
  H   -2.68533215321281     -2.79813800376011      2.38972455406431
  C   -1.54212543157570     -0.63163663444132      8.69957112709194
  H   -1.39227179961193      0.68185609106712      6.98547065572188
  H   -1.94747919635781     -0.95206207974863      6.61945723353836
  C   -0.22643493068157     -0.37924427171965      9.10227266506962
  C   -0.53882927222264     -1.64602558269728     11.14312663740182
  C   0.28449403735258     -0.87831147493767     10.30756047566275
  O   -1.14291514604090      2.22076981443576      5.03961663152082
  H   -2.15875901910880      4.87805010003946      3.55967071042960
  H   -1.39329012629319      4.80620218540903      5.19794317865939
  H   -3.14130557497215      4.47749173644304      4.98709763215721
  C   -2.35316608901330     -1.40128838702102      9.55129915829290
  C   -1.86574363034257     -1.90096743526443     10.75444385544005
  H   0.42620920478122      0.22279933687812      8.46227129731932
  H   -3.38875930377030     -1.60206521468773      9.26599779930002
  H   -2.49567554127261     -2.49623048015208     11.41941342880470
  H   -5.54682854507400      4.74898384292936      9.17938111304303
  C   1.17497993961366     -1.99012561181421     12.78612051503787
  O   -0.15042292364374     -2.17403959204999     12.33497281421521
  H   5.11382355287702     -4.76718037115881     21.92717631173850
  H   5.90865753558623     -3.38801777187322     19.96924070678346
  C   5.81440708613523     -5.18356340164232     21.18673409212775
  H   6.83899532427473     -5.07587728002535     21.57616274265214
  C   5.67762074999657     -4.46550761017602     19.85690399618560
  O   4.34712933412179     -4.63438809600385     19.40019856869496
  H   5.84459133988361     -3.14305259146087     17.63986995886053
  C   4.80848376666667     -3.34499779709649     17.36657497436221
  C   3.97061065208065     -4.09861846506633     18.20654681442395
  H   5.59514361870048     -6.25656866405301     21.07284284404442
  C   4.31959329816814     -2.84021715853765     16.15984394605110
  C   2.64567546954100     -4.32883738683295     17.80881909574377
  H   6.39005980353730     -4.87757981312592     19.11570213085653
  H   4.96392645844803     -2.25365569007218     15.50097070806736
  H   2.00192250894079     -4.91589152696170     18.46770865935698
  C   2.99590051634612     -3.07159542883857     15.76488306327904
  C   2.15696586116566     -3.82447179778868     16.60258568146832
  O   2.61458563998720     -2.53573473709752     14.56708541763258
  H   1.12096403312823     -4.02634005920180     16.32784499187884
  C   1.29127645829482     -2.71502075211784     14.11767258018833
  H   1.40896280414221     -0.91802013190114     12.92306761183683
  H   1.90587003139199     -2.40670749022043     12.06844368228726
  H   1.05077933259586     -3.78623019838010     13.97992256213790
  H   0.55967254502275     -2.29616352624925     14.83420097338576
  H   1.31630195830736     -0.65656652511432     10.58222248803848
