61
Coordinates from ORCA-job 1031_0.0
  C   -0.82578621513353      1.40567795710818      2.14635653606300
  C   -1.86842538537653      0.45371937762419      2.15157727500896
  C   -1.87942708560258     -0.57976706471780      1.18834663601764
  C   -0.87498595635372     -0.62718977891028      0.21493004856322
  H   -0.86231951611056     -1.40733038335552     -0.54647902162853
  C   0.12716254847801      0.34062306560067      0.21836332344322
  C   0.16844192981698      1.35665059659681      1.18061431090460
  H   0.96799719328859      2.09602174550211      1.16664728554102
  H   -3.25016085947427     -0.60786446287484      7.45394480204641
  C   -3.98038461264626      0.02989254268336      6.95199812908692
  C   -4.69220205352241      1.01009333105783      7.71273910218167
  C   -5.63171053152249      1.88463652887830      7.06234045515170
  C   -5.84155675919095      1.74380501022879      5.65086197322711
  H   -6.55444522650973      2.40893519902120      5.15479402277838
  C   -5.15753660811425      0.78883487978737      4.94800410124253
  C   -4.22359208743094     -0.07100835122152      5.60033524362375
  C   -2.95736298779935     -1.55328098775103      1.29049504388894
  C   -3.86996426284744     -1.48876454623629      2.27571131858890
  C   -3.87805174622857     -0.42206346439786      3.33588836646302
  O   -2.82910796424068      0.59087204450207      3.06693203731447
  C   -5.23292187146092      0.39152936914752      3.48037460802758
  N   -3.65812863196001     -0.94203918226927      4.66137795420670
  C   -6.45339083064373     -0.53783931093933      3.28328037216790
  H   -6.38683714214310     -1.43565954829863      3.91633595761879
  H   -6.55798396334341     -0.85162627496233      2.23232931825980
  H   -7.36894108493322      0.00283148631076      3.56605124519137
  C   -5.32209419921553      1.57096350371690      2.50603076033941
  H   -4.52375515428428      2.30450500035463      2.67719472851364
  H   -6.29116312002081      2.08090754027128      2.62499563191055
  H   -5.25900367928566      1.22316744563554      1.46180664586096
  C   -2.47602790412880     -1.71997587197568      4.98373244159516
  N   1.17277488987460      0.29593214892586     -0.81321754059132
  O   1.11138227477457     -0.59831432953501     -1.64456488062296
  O   2.03992318266199      1.15653491744315     -0.77911474873510
  O   -0.83551863013978      2.43210840186705      3.06943946508236
  C   -0.63402421994490      2.12411432294867      4.39501549163003
  C   -0.86731299108282      3.33516997610690      5.25403037623784
  H   -1.95394908039432      3.49975983947341      5.33955514022280
  H   -0.42834781713164      4.23262819114296      4.79520456977616
  H   -0.45146851826147      3.16171389470392      6.25392786599691
  O   -0.32455258154355      1.02724159565451      4.76919348213542
  H   -2.99698201997450     -2.36012786623485      0.55318629176222
  H   -4.64484160556825     -2.25087561621725      2.36324844485698
  H   -2.23342401915232     -2.38532425758475      4.14311094849312
  H   -2.67945225192197     -2.35257797609129      5.86209949145178
  H   -1.60097242022000     -1.07991630055897      5.19669607007501
  C   -6.32018246553056      2.85702619924013      7.82443734259153
  C   -6.10979486393900      2.98592073881324      9.19168988007314
  C   -5.18273905661021      2.12612297116379      9.83795405011007
  C   -4.49830231583437      1.16966744628933      9.10837217104235
  H   -7.03736578286758      3.52598288514376      7.34254861204576
  H   -5.00091062293965      2.20960779351460     10.90984989581505
  H   -3.78640971364031      0.51471537349189      9.61919575259845
  O   -6.82322338788873      3.95144959004273      9.83290618379737
  C   -6.67636707831868      4.13785264686197     11.23035288732442
  C   -7.59859589749970      5.26709748142637     11.65177755477801
  H   -5.62459910682570      4.38228486575000     11.47594033655844
  H   -6.93187509996440      3.20511134499564     11.76955556329196
  H   -7.33890198981293      6.19791998931762     11.12398560717543
  H   -7.51520401541499      5.44510759805466     12.73548525686722
  H   -8.64592702694848      5.02078873773278     11.41770778496055
