99
Coordinates from ORCA-job 1032_0.0
  C   -1.19539065777752     -0.01293844975515      1.78290493901514
  C   -2.57345763049286     -0.28044566774278      1.93010173479943
  C   -3.16302215986015     -1.34856946701033      1.21553186723428
  C   -2.36958851510519     -2.13885603997903      0.37669493678703
  H   -2.79420884943755     -2.97685982808163     -0.17630870235016
  C   -1.00960562683849     -1.85912779634909      0.26054137377094
  C   -0.41078983701604     -0.79751194716191      0.94996549542874
  H   0.65540021901185     -0.60192309947009      0.84373722155213
  H   -3.47389408386707     -0.18338995811196      7.32282177104744
  C   -3.90052613097891      0.70264855882396      6.84953051860650
  C   -3.98634538236567      1.91365070175530      7.55407317210897
  H   -3.62374331659880      1.95483059975474      8.58481997347710
  C   -4.51889939060257      3.06148853894410      6.96095794710963
  C   -4.98721844144719      3.01519456933957      5.63576575589330
  H   -5.40702789659443      3.91201047622634      5.17089674421140
  C   -4.90913754744422      1.82167062583892      4.92967666343888
  C   -4.36681269630695      0.67407336231323      5.53329059123387
  C   -4.58420720255461     -1.57324769441653      1.43685776442399
  C   -5.25513936901166     -0.89749584315678      2.38715905212864
  C   -4.59794423526636      0.10882101807059      3.29296463437952
  O   -3.28937222377743      0.51508564483070      2.73079537964212
  C   -5.39236509385368      1.45960310170762      3.53156667528379
  N   -4.38116974445115     -0.39968315052535      4.63096479551577
  C   -6.91590758681915      1.20109944527014      3.59419785440949
  H   -7.16461521041235      0.39687988227041      4.30330787731461
  H   -7.32715711170717      0.94342234463557      2.60509175095512
  H   -7.42117421267615      2.11539357565142      3.93976536907162
  C   -5.09784676340124      2.51757100048318      2.46098802026918
  H   -4.03783612890055      2.80108258267976      2.44652126525891
  H   -5.69737361745093      3.42076465821448      2.65614749451059
  H   -5.37157633381203      2.14939596095192      1.45880406505175
  C   -3.60853938328791     -1.61202358160508      4.85476420362357
  O   -0.63606718462457      1.06411156787102      2.44163980244154
  C   -0.50712812762000      0.99838089262290      3.80995329008231
  C   -0.04749076258610      2.32041054873648      4.35786768805350
  H   -0.90653285089146      3.01115880982435      4.37076759904242
  H   0.72921984231492      2.76286352200541      3.71813044683251
  H   0.31719601374318      2.18472923143661      5.38326333469121
  O   -0.74806385783071      0.00629534224773      4.43921937426070
  H   -4.57261986137184      3.99504273161017      7.52631906155326
  N   -0.17174639809895     -2.72178123896661     -0.58215017104418
  O   1.01033962787699     -2.43839046676061     -0.69357759554947
  O   -0.71036914485724     -3.68416757075926     -1.11584684954478
  H   -6.30787334387777     -1.10758557574666      2.57578191542674
  H   -5.09166054187958     -2.32891337089336      0.83081590232790
  C   -4.34698375041291     -2.67502377603059      5.66782588883051
  H   -2.63908446636758     -1.36949945964723      5.32009558655423
  H   -3.37547585480130     -2.06288406718240      3.88188388551759
  O   -3.60442753781057     -3.88240532759077      5.48122454796639
  H   -5.37308180189661     -2.81387679603449      5.28586633654507
  H   -4.41704745781816     -2.43858544511525      6.74016214620188
  C   -3.71160398335842     -4.86753384302104      6.39718507853906
  O   -4.38285165125007     -4.77233748943720      7.39887449346361
  C   -2.90637591915327     -6.07052305950034      6.01894473411881
  C   -2.88323961106825     -7.14700854057912      6.92614251162347
  C   -2.20714121568545     -6.12571049155529      4.81457274034204
  C   -2.13775680603323     -8.28490433989171      6.60482847778412
  C   -1.46478614842487     -7.27809515045161      4.49607858509057
  C   -1.42961479144689     -8.35446559741018      5.38637168955340
  H   -3.44751228586872     -7.05178282233001      7.85188367609674
  H   -2.21937153101979     -5.29312816992323      4.11362068356934
  H   -0.86644105161186     -9.26468736849027      5.18428061748047
  O   -2.02385962500220     -9.37793663726402      7.39978758121959
  O   -0.81690004371902     -7.24594959147155      3.30550391317820
  C   -2.69934380365875     -9.40040449466450      8.65527562695002
  C   -0.01809751165469     -8.33973776638820      2.90254459204414
  C   -2.38695557512692    -10.69323427503785      9.36189126008717
  H   -3.78823455720580     -9.29832846076493      8.48176083641423
  H   -2.38280540802071     -8.54165474152762      9.27394297086648
  C   0.65765246452219     -8.03662603210718      1.58207672547366
  H   -0.64393261795398     -9.24985482114577      2.80872453202854
  H   0.74807003844651     -8.55558755809586      3.67241709593903
  C   0.37975932711569     -6.87599296593592      0.84922814530865
  C   1.02729848916123     -6.63095215200522     -0.36794698681339
  C   1.95578868150556     -7.54896089046402     -0.86504225642388
  C   2.23541551262332     -8.71373627661352     -0.14076796933323
  C   1.59206918143545     -8.95387417283272      1.07484440396991
  H   1.82174986395167     -9.86467536830202      1.63799599268837
  H   -0.34525072594085     -6.15898413108869      1.23605814572235
  H   0.80024409665440     -5.71431967029400     -0.91897563507261
  H   2.46318265736804     -7.35751044024469     -1.81443621491019
  H   2.96191980784236     -9.43675435003625     -0.52209772883660
  C   -1.80246305719817    -10.70083118999780     10.63080241297265
  C   -1.52221397880256    -11.89661206578471     11.30501240836714
  C   -1.82132217725052    -13.12284029506073     10.69349938998120
  C   -2.68271128538577    -11.93156700365525      8.76129608890617
  C   -2.40376783140398    -13.12727271289024      9.41068696531270
  H   -1.55376242487100     -9.75229727861150     11.11643166295929
  H   -1.06666145250883    -11.85585948718276     12.29459009479760
  H   -3.13082917746875    -11.95249821618431      7.76415632863731
  H   -2.62805400369657    -14.09150360146282      8.94915037421781
  O   -1.58925326125355    -14.33832518654732     11.24811192792632
  C   -0.99967778140596    -14.42647938394775     12.53635363960277
  C   -0.86568499946586    -15.89469025977799     12.89379337391561
  H   -1.85191726945297    -16.38403341182782     12.90308020635427
  H   -0.41218758430119    -16.00388554224761     13.89148411511782
  H   -0.22957894112364    -16.41693795442466     12.16240808530154
  H   -1.62992725327152    -13.89854125192259     13.27761549983656
  H   -0.00973315864699    -13.93109716562247     12.53328871223753
