62
Coordinates from ORCA-job 1033_0.0
  C   -1.86359446157636     -2.97536318597572     -0.77374530185793
  C   -3.11018068839819     -2.86619222536974     -0.09107637648377
  C   -3.50424964293384     -3.84232949329967      0.83659572645217
  C   -2.66515541590616     -4.93604475990757      1.08469645593020
  H   -2.94129262877311     -5.71171560105439      1.79938354612232
  C   -1.45223447086784     -5.02626988386591      0.41561551090994
  C   -1.03269949624814     -4.06111166494857     -0.51056363584769
  H   -6.62809226078773     -3.02110802950211      3.76257566644453
  C   -6.86873896488738     -2.07139328219418      3.28213064376656
  C   -7.76271676967824     -1.17086454027615      3.87282025832527
  H   -8.22473431816232     -1.42852375297912      4.82998854186569
  C   -8.08818055992354      0.04906918260732      3.27440931181904
  C   -7.50527307699737      0.40207437669842      2.03614070053001
  C   -6.63113103498725     -0.49424309013831      1.41363431420388
  C   -6.30649676464034     -1.70309875974036      2.05306855524117
  C   -4.81732981041906     -3.69320561479480      1.57775509063931
  C   -5.24845661777819     -1.83427988432023     -0.03609925249346
  O   -3.85928860830485     -1.78026976617746     -0.38910319986189
  C   -5.79797514948217     -0.34222298754093      0.14064974806288
  N   -5.39265389553030     -2.40713480544146      1.28622410108630
  C   -6.58836701095007      0.15738326060567     -1.07894781894632
  H   -7.48787157681022     -0.44534758217853     -1.26680192671563
  H   -5.96363413059528      0.12838291838680     -1.98540144133692
  H   -6.90660527880668      1.19420135629865     -0.90813230003052
  C   -4.62835736770963      0.62843976020609      0.42305085155874
  H   -4.00819019775722      0.28036047648433      1.26186178022652
  H   -5.04412430699692      1.61282627014599      0.68437209107510
  H   -3.97900420302271      0.73634768586530     -0.45807387423933
  H   -0.07288848427708     -4.19691086756758     -1.00268973831502
  H   -4.62618827619439     -3.75703664910843      2.66248268844561
  H   -5.49367908194615     -4.53764640387790      1.32297461753369
  O   -1.59504684742642     -1.98914738363697     -1.65623197883966
  C   -0.36302100815258     -2.00968185796536     -2.36875832516689
  C   -0.31712423146585     -0.78906685777305     -3.26700374130124
  C   -5.97524165470673     -2.66192321787611     -1.11126367361116
  H   0.48055890010065     -2.00605026322767     -1.65321793859754
  H   -0.28943050366793     -2.94075716598177     -2.96193516567502
  C   -5.46072059811590     -2.76441117967960     -2.41300421146592
  C   -6.14709007295088     -3.48497714886554     -3.39494263914976
  C   -7.35812699521498     -4.11325034579319     -3.09154246727821
  H   0.62970846337254     -0.76901761659847     -3.82900330318145
  H   -0.39004561234671      0.13459306993227     -2.67258129196461
  H   -1.14936737172517     -0.80244129065461     -3.98760415208592
  O   -7.73727296634343      1.58482869298675      1.40248093206988
  C   -8.62064317553281      2.53800954718000      1.97509626344449
  C   -8.66956493461360      3.74726037662496      1.05991438262910
  H   -7.66811824297023      4.19069475283383      0.94558381613257
  H   -9.34211622187851      4.51285481337516      1.47780482319395
  H   -9.03952041999341      3.46837999612471      0.06099357846621
  N   -0.56873304102030     -6.17073509345913      0.68518152071829
  O   -0.94632201834877     -7.00368659933478      1.49642989920696
  O   0.49416790416171     -6.22281753557544      0.08160360096471
  H   -8.78968082148382      0.71816885773755      3.77096779774609
  H   -9.62778536958441      2.09551514825670      2.09323483996203
  H   -8.26557390041973      2.82486658500652      2.98289592468132
  C   -7.87688492924636     -4.01846547988177     -1.79664222435452
  C   -7.19017646877710     -3.29954058169085     -0.81378371976797
  H   -7.89349399809464     -4.67820852815504     -3.85928451722225
  H   -8.82110193982648     -4.50962657527108     -1.54630782745535
  H   -7.60867122307445     -3.23362681650016      0.19297892136831
  H   -5.72978456787760     -3.55687124854026     -4.40307279138776
  H   -4.51171158142718     -2.28104151063704     -2.65256166618913
