67
Coordinates from ORCA-job 1034_0.0
  C   -2.02647139113967     -3.03185714599895     -0.82129547878745
  C   -3.25463508898671     -2.85275563484630     -0.11826994184228
  C   -3.68575461242814     -3.80367121008281      0.81873593687260
  C   -2.91252475674355     -4.94980741889461      1.04487353770596
  H   -3.22006470956578     -5.71020657494420      1.76320674190550
  C   -1.72412980100912     -5.11413242401849      0.34751029016188
  C   -1.26218291058732     -4.17052301975231     -0.58097942983425
  H   -6.83389064810282     -2.87704498834768      3.72346179288682
  C   -7.03192524078667     -1.91717870037131      3.24334381868936
  C   -7.91606901861801     -0.99425293898332      3.81472289668893
  H   -8.41555102732250     -1.24540708748011      4.75457106949938
  C   -8.18462963908842      0.24002379419815      3.21787883830937
  C   -7.55101550611228      0.58774249258252      2.00319911865746
  C   -6.68622896067753     -0.32989033483937      1.39913048728214
  C   -6.42287177366369     -1.55535745323613      2.03535724002639
  C   -4.96234108858168     -3.57498847781891      1.60159797404077
  C   -5.33352340079924     -1.70575843354300     -0.02918683696754
  O   -3.94438864695921     -1.72474573453302     -0.39839204760582
  C   -5.79851669876320     -0.19168681586049      0.16171453327016
  N   -5.51102100025112     -2.28394299213690      1.28611160101060
  C   -6.50650583604001      0.37305367789393     -1.07933218434722
  H   -7.42976457869687     -0.17521156299334     -1.31509493795277
  H   -5.84166180477336      0.32914381562212     -1.95734442282619
  H   -6.77554723237412      1.42303553616191     -0.90427840368691
  C   -4.58606586748729      0.69928657878621      0.51484821351487
  H   -4.02140620989834      0.28898892151493      1.36467032108918
  H   -4.95067283158757      1.69972548729696      0.79195054460058
  H   -3.89878119567870      0.79203862447384     -0.33868700189517
  H   -0.32239673259548     -4.36346544077204     -1.09245258288092
  H   -4.73275395029412     -3.60647435198755      2.68120179096261
  H   -5.67009630956133     -4.41217383924787      1.41029035715888
  O   -1.70668056048560     -2.05296681513937     -1.69182472307136
  C   -0.49461230747935     -2.14472347507493     -2.43148208033172
  C   -0.39044972701329     -0.91717153260600     -3.31556617204868
  C   -6.07823637770465     -2.45749504621538     -1.12141602591916
  H   0.36358021791163     -2.20605785977840     -1.73599026966820
  H   -0.49583877281809     -3.07004269660104     -3.03815775293344
  H   0.53776298152149     -0.95402315277894     -3.90692677285051
  H   -0.38136203617529      0.00085128066252     -2.70803739546715
  H   -1.24413278018110     -0.86374970815721     -4.00864719418270
  O   -7.72310266344068      1.78384876683165      1.37695482225137
  C   -8.59782955540043      2.75716966165642      1.93034259637652
  C   -8.58045082308741      3.97698149794877      1.02832801720253
  H   -7.56430348099323      4.39511783426107      0.95643202437786
  H   -9.24820235471662      4.75525887516886      1.43012814538786
  H   -8.92039258163080      3.71882433733049      0.01331351881053
  N   -0.91322975944769     -6.31730098132870      0.58884441569152
  O   -1.32553837149260     -7.12832622115021      1.40537316681330
  O   0.12736076347745     -6.43666677239266     -0.04285773444592
  H   -8.88107075438289      0.92549389602884      3.69897236307552
  H   -9.62051072566815      2.34271449489854      2.00916686925925
  H   -8.26870835501491      3.02266515490965      2.95262611096742
  C   -7.95153866866623     -3.92039292576897     -1.95124129180479
  C   -7.15651940309366     -3.23350937760604     -0.92124786651947
  H   -5.68067932195182     -2.30226988564520     -2.12879799586129
  H   -7.49918882698629     -3.34053591688399      0.11640016658141
  C   -8.72776570766447     -5.05613512191988     -1.60797231854863
  C   -9.51499477296146     -5.69856218419388     -2.57478667500163
  C   -9.53199841264474     -5.23555995446294     -3.88785547241802
  C   -8.76383796841347     -4.12107378269765     -4.25249267302106
  C   -7.99170958383556     -3.47754931153240     -3.28959236551194
  H   -10.09773725243475     -6.56967700707515     -2.26774643850114
  H   -10.14882988996848     -5.74615276799709     -4.63222145818282
  H   -8.78005438205898     -3.74939201620914     -5.27970458988704
  H   -7.41914630313809     -2.58862912461234     -3.56505681334321
  O   -8.74820289367087     -5.58074380574984     -0.35534203023805
  H   -8.09106011911461     -5.14164470396115      0.19926805725594
