68
Coordinates from ORCA-job 1035-2_0.0
  C   -2.43961576191193     -3.12026651621734     -1.06772927886404
  C   -3.52021956913143     -2.85696251294721     -0.17856013304248
  C   -3.82098719941051     -3.74273737811563      0.86651881049188
  C   -3.03200935941756     -4.88619325487863      1.04650401470840
  H   -3.23285063438656     -5.59341451702176      1.85159932243423
  C   -1.96575865905187     -5.11628165313363      0.18801014833476
  C   -1.65217973287790     -4.25168651162054     -0.86886716063686
  H   -6.56042283398947     -2.65683753105453      4.12044520697870
  C   -6.79518563440654     -1.70325964330267      3.64408127626206
  C   -7.62968041684105     -0.76979970010420      4.27884011260472
  H   -8.04823661808670     -1.00820361410945      5.26009634219741
  C   -7.94493429867343      0.45131762636593      3.68503959220982
  C   -7.41478558890055      0.76174486260077      2.41980570485093
  C   -6.59965049606997     -0.14526573963014      1.75609896628226
  C   -6.28162295895967     -1.36665345526922      2.39007238279791
  C   -4.98475100497088     -3.45039191412866      1.79066210503107
  C   -5.47935228281547     -1.57577923856410      0.21895810293923
  O   -4.21889450259500     -1.71710203354442     -0.41992673186448
  C   -5.81663367146597     -0.04154795630091      0.44598661629110
  N   -5.41931135178412     -2.09406993260148      1.58034341884689
  C   -6.57277320519350      0.58217779195580     -0.73428132137414
  H   -7.57696202093878      0.15381462171758     -0.86680266020394
  H   -6.01003479641440      0.43203919065099     -1.66930097470165
  H   -6.68291274377019      1.66418211992667     -0.57685375320015
  C   -4.51317800667834      0.74679369112921      0.70648094730150
  H   -3.91615660260037      0.27692789844053      1.50140151166488
  H   -4.76883739382074      1.76881929777123      1.02389553437156
  H   -3.89477988470890      0.79853772886148     -0.20182347409637
  H   -0.80906829498810     -4.49862589937673     -1.50948121062982
  H   -4.65598710157358     -3.56011355424191      2.83754944992932
  H   -5.79561974006266     -4.19553063812720      1.63248201226024
  O   -2.28233016808248     -2.23025554753228     -2.07147532912163
  C   -1.20371341309301     -2.39689563505822     -2.98871964406193
  C   -1.26131470919637     -1.26287854734039     -3.99290349123209
  C   -6.54212718109323     -2.30637259711612     -0.58718884707183
  H   -0.24513659653950     -2.39049300753217     -2.43749513963466
  H   -1.29068099013703     -3.37727965800263     -3.49321675479290
  H   -0.43375326757130     -1.35394560360089     -4.71344060120598
  H   -1.17770362122307     -0.28902404239298     -3.48647610403115
  H   -2.20952468806001     -1.28265056345348     -4.55235575483292
  O   -7.62784603925457      2.00719287697875      1.83673260914296
  C   -8.90098915637192      2.46619066504888      1.61239639112779
  C   -8.85202759595283      3.84864907270795      1.01365876647616
  H   -8.19643056532778      4.50197924467153      1.60846194780294
  H   -9.86664677939783      4.26180281827315      0.96333498226565
  H   -8.42731090167309      3.79600081746893     -0.00188142433383
  N   -1.12765057954909     -6.31056569953999      0.39001027698141
  O   -1.43534255109427     -7.07431923643245      1.29253411287776
  O   -0.17308250906123     -6.46554696266866     -0.35790791511121
  H   -8.60142896383545      1.16238155652326      4.18607843970148
  C   -7.32535812755927     -3.61502263937826     -2.59083627880077
  C   -6.34466827394571     -2.86367174126344     -1.79354633254690
  H   -7.52419165109364     -2.34683622224167     -0.10373891935242
  H   -5.34412133603125     -2.74776498310048     -2.22764719987967
  C   -7.17170970046880     -3.67985522547972     -4.00116921318560
  C   -8.06060870272441     -4.42952632033353     -4.77968255168917
  C   -9.10799045967369     -5.09478607678314     -4.15207548527188
  C   -9.30581760442902     -5.04424584033059     -2.76970534409276
  C   -8.40698674695869     -4.30591586264945     -2.00770606506838
  H   -7.93822356703428     -4.47895534932839     -5.86064513130156
  H   -10.13652193320599     -5.58767553776295     -2.32189110331228
  H   -8.52334089679287     -4.28368425658998     -0.92201262293357
  O   -6.18299340091002     -3.02845576344367     -4.65872717096499
  H   -5.71762445500279     -2.43159774066786     -4.05780934790121
  N   -10.04425057248920     -5.88304228138856     -4.98369231845491
  O   -10.95854293131247     -6.45524199038088     -4.41188466437801
  O   -9.84526281707291     -5.91141211471510     -6.18742481412725
  O   -9.88898418028448      1.82997835970583      1.85002316214040
