73
Coordinates from ORCA-job 1037-2_0.0
  C   -2.23551228150878     -3.18420432325735     -0.94817258233801
  C   -3.41913600353333     -2.93772008820506     -0.19457284877128
  C   -3.81689028335802     -3.82001902398965      0.82168432759996
  C   -3.03609450400778     -4.94970073171769      1.09564957998537
  H   -3.31452642038449     -5.65522353536734      1.87877285128165
  C   -1.88005453750596     -5.17171738495714      0.35971060459915
  C   -1.46131584174985     -4.30461866565935     -0.65847000896872
  H   -6.84766727542093     -2.71109350597789      3.79206320509527
  C   -7.04943866219633     -1.77122374570172      3.27549756981158
  C   -7.94027454289026     -0.83316095943211      3.80963346029575
  H   -8.44171915750482     -1.05268473910380      4.75635451430468
  C   -8.21513401687242      0.37717704997630      3.16698296270256
  C   -7.58268635979594      0.68314665902365      1.94106762618477
  C   -6.71198954503847     -0.25235333421632      1.37405941621949
  C   -6.43594431628058     -1.45030603936342      2.05879403017134
  C   -5.07761736512015     -3.53607973555089      1.61211118042900
  C   -5.43614511216371     -1.69580450917050     -0.02592816689513
  O   -4.11146857085722     -1.82182483177000     -0.53152621056163
  C   -5.82812910201160     -0.16570898090679      0.12804870025301
  N   -5.49673010502730     -2.18472311086209      1.34646278660184
  C   -6.50626504118103      0.39973913777838     -1.12733091429803
  H   -7.47216161740427     -0.08267100800172     -1.33540543718729
  H   -5.85712589162082      0.25936108939380     -2.00664013325238
  H   -6.69145242078693      1.47449308202665     -0.99945054590183
  C   -4.57105429536416      0.66895397006507      0.46155540410381
  H   -4.02576630952963      0.24277118504919      1.31629522092752
  H   -4.87995630689060      1.69217110832247      0.72273487859787
  H   -3.88495636779034      0.71094740595861     -0.39736782954704
  H   -0.54911678766227     -4.54209305951185     -1.20023625578363
  H   -4.86383627008209     -3.63934558229613      2.68878079596273
  H   -5.85886059415945     -4.28915139480413      1.36673534750438
  O   -1.97149366453319     -2.28924317495424     -1.92474441397608
  C   -0.79347392618181     -2.44332016343242     -2.71022780261973
  C   -0.73393396923779     -1.29734685973193     -3.70106836949094
  C   -6.39500778397515     -2.47572933843017     -0.91040170361078
  H   0.09473512445073     -2.44258276861080     -2.05113735331246
  H   -0.81804400514136     -3.41784022077542     -3.23303340227764
  H   0.16931301949102     -1.38427001712358     -4.32482170224923
  H   -0.70450130606482     -0.32975874053577     -3.17678243324692
  H   -1.61403236633049     -1.30542157843866     -4.36269650819150
  O   -7.76516358822885      1.84988225419970      1.26504959972199
  C   -8.66292296811457      2.82908004709309      1.76870665043060
  C   -8.66936149013857      4.00380516899812      0.80880326773265
  H   -7.66260731227448      4.44095567571655      0.71995870937858
  H   -9.35617155330412      4.78522223982866      1.17032037626120
  H   -8.99885593276206      3.68865834021389     -0.19349647258001
  N   -1.06050676510826     -6.35780200605469      0.65315650913573
  O   -1.44784197162617     -7.11497163017538      1.53097610053719
  O   -0.03936995235394     -6.51766389650463     -0.00081010131537
  H   -8.91731424735813      1.07520884814874      3.62105885337813
  H   -9.67648464686813      2.39620165249982      1.86503560538515
  H   -8.34344353451250      3.15106626815290      2.77784687899643
  C   -6.96140137327158     -3.90053721390765     -2.90658796564702
  C   -6.07132390529872     -3.08604820262914     -2.06242696746681
  H   -7.42140644834802     -2.51484313389937     -0.52962903923052
  H   -5.03597993350886     -2.97126692175040     -2.40682903214177
  C   -6.71526593095973     -3.97158906651644     -4.32142791785782
  C   -7.50171183270433     -4.76366560414269     -5.13582716742101
  C   -8.57861443795364     -5.51955130171558     -4.60668129051766
  C   -8.84912298330297     -5.45064455527375     -3.19715494515953
  C   -8.01885912701444     -4.63621614299896     -2.38717816677801
  H   -7.28532235422154     -4.78742977570814     -6.20629296737433
  O   -5.70878817233800     -3.26328730366245     -4.89961782020673
  H   -5.35189065895061     -2.62402507430810     -4.26937235424158
  H   -8.20174050004440     -4.61718760479074     -1.30943136610765
  C   -9.92791210147088     -6.21102702624899     -2.66069365935192
  C   -9.40739759397371     -6.34416741686138     -5.42069248296646
  C   -10.71120390458591     -6.99977103601293     -3.47614943491109
  C   -10.44707015501750     -7.06416208065691     -4.86986848679032
  H   -10.12577548239078     -6.15777208296216     -1.58601792168840
  H   -11.53674991679086     -7.57840459059425     -3.05361681541327
  H   -11.07358803780307     -7.69281685803242     -5.50855132425477
  H   -9.20462640417805     -6.39739950518242     -6.49406869168704
