59
Coordinates from ORCA-job 1038_0.0
  C   -3.73604559305349      0.29447745696469      2.26589415853425
  C   -4.20810555493107     -0.13603662768220      3.51124790843895
  C   -4.53601147492046     -1.48856810116140      3.70995094226643
  C   -4.38837917968620     -2.39217735355352      2.64121052062795
  C   -3.92586446443567     -1.98424069515961      1.38639531827702
  C   -3.60286565577838     -0.62189443683500      1.22460434139281
  H   -2.84712893709257      1.67615100966403      9.37200634903295
  C   -3.88545903411134      1.90259367692757      9.11964594945092
  C   -4.71348244073516      2.52985750262813     10.07167193144860
  H   -4.28683393218917      2.78271715104319     11.04288246994162
  C   -6.05485470645013      2.80938772910358      9.78512417803012
  C   -6.58459994941666      2.47367081815437      8.51923553713154
  H   -7.63055011046199      2.71507976448289      8.31484783693096
  C   -5.77299761184419      1.85962241517981      7.58170718068382
  C   -4.42544244200900      1.57003475562727      7.87720402687184
  C   -5.00899792636025     -1.86589888995446      5.03352390753968
  C   -5.15870879887517     -0.94041219113917      5.99687014015485
  C   -4.82651113043491      0.52344222498710      5.81019797673382
  O   -4.32335754842897      0.79518759229649      4.49699094838809
  C   -6.05451564589912      1.49395841881756      6.13060337232328
  N   -3.81454851607607      0.95292753192786      6.78426714056921
  C   -7.42139228213137      0.83657877926340      5.89961421314473
  H   -7.59653823913329     -0.01782825293910      6.56874997381924
  H   -7.51976209284229      0.48542637557004      4.85979748318352
  H   -8.22491729267147      1.56878718783030      6.07909427845256
  C   -5.94987007511219      2.77369183151324      5.27084503924344
  H   -4.96038196086641      3.24314987081703      5.36711539963522
  H   -6.70870653314454      3.49681044171169      5.60776856959491
  H   -6.12138779025894      2.55391493847294      4.20654856667425
  C   -2.45550824591918      0.47072188737778      6.78845258392593
  H   -5.23845743147285     -2.91813972459279      5.22909179838663
  H   -5.51364809015669     -1.21046265217476      6.99458138681476
  H   -3.23878486405949     -0.27025939142250      0.25399789921720
  C   -3.75693801421875     -2.93313164356205      0.21075927871561
  C   -4.19030961395307     -4.38140734174522      0.43358917246054
  H   -4.64998520218144     -3.43767384981143      2.82081905831017
  C   -2.22074937527970     -0.78852744163421      7.64179399946161
  H   -1.80366837962923      1.27442269304335      7.17129881533606
  H   -2.14658152876086      0.28046537797162      5.74914345377797
  O   -0.81947064529942     -1.09535164428797      7.72588317340945
  H   -2.68548331043788     -1.66951012089507      7.18069477647723
  H   -2.62703698447219     -0.64799702834992      8.65370599604342
  O   -0.56289971445242      0.33038528315704      9.45616361299228
  C   -0.10061080633942     -0.47699642253711      8.68581952233679
  C   1.33493613505687     -0.94235066878281      8.66878878173224
  O   -6.93037403974466      3.39772537608559     10.65373722222661
  C   -6.47498275140005      3.77316992904648     11.92958333049999
  H   -7.33056461784308      4.22546770565126     12.45098490679992
  H   -5.65707323305707      4.51670983340493     11.87690878019200
  H   -6.11963353249465      2.90502053829191     12.51653457455187
  H   1.91525254835193     -0.37809086276868      9.40874519522928
  H   1.76460765390665     -0.81110822723456      7.66391876511695
  H   1.37736911489720     -2.01844377151204      8.90082686254438
  H   -3.48456253761464      1.34895386317230      2.13304365680918
  H   -4.31179498491042     -2.51913160253328     -0.65093126163932
  H   -2.69546686044134     -2.91899034085304     -0.09904937062111
  H   -5.25763411888833     -4.45249031501522      0.70035043071731
  H   -3.61148935737714     -4.86383405157742      1.23820842293633
  H   -4.03815029245800     -4.97435631047093     -0.48204048327821
