41
Coordinates from ORCA-job C:\Users\AIElement\Documents/103_0.000
  C   -1.80378843136045      2.84305600347063      1.17665077086250
  C   -2.69615101890207      1.73873580715896      0.74393196518548
  H   2.25177946640984      5.24253652599587     -0.14560977552995
  H   -9.61325241628178      0.86573646281254     -1.34276032815699
  C   -1.15402853763737      1.66907709842542      0.54131930670051
  C   -3.67422688409943      1.90225575615887     -0.40460913981371
  F   -1.60956112677338      3.09197569063957      2.49024383405779
  C   -0.48121504982309      1.73827342197777     -0.81716257719922
  H   -3.05107544515079      1.10639260794103      1.56508266827430
  H   -9.61553295542418      0.58212540058840      0.41414487149745
  C   -5.02871183011620      2.52452042039432      0.00784838342080
  H   -0.65819354096223      1.00165597454922      1.25691432433780
  C   1.03948649072336      1.99791518295053     -0.73036662184897
  H   -3.22930576889647      2.53592246242100     -1.18718474938711
  H   -3.85441382912382      0.91379215038495     -0.86264484277988
  C   -5.79807490116508      1.72938596345793      1.03129421250675
  H   -4.83311997628707      3.53508590670216      0.40945698532559
  H   -5.63176537800018      2.66476600398937     -0.90321425828469
  C   -6.87890302797429      0.95933334369908      0.82498229926752
  H   -5.41761311590328      1.78600862867681      2.05893950901855
  H   -7.30639829673329      0.45113953970528      1.70034778899088
  C   -7.61161571368796      0.70679113109033     -0.46598689859941
  C   -9.09296179626229      1.10910463106218     -0.40206645232920
  H   -7.12077146290210      1.22596268285561     -1.30486519411055
  H   -7.54947656616105     -0.37327399534233     -0.70022059341293
  H   -9.20451888928279      2.19067925308822     -0.22172814339319
  H   -0.64548173748623      0.78134223374256     -1.34352995879985
  H   -0.94625838323684      2.52299054781477     -1.43379146776268
  C   1.40655534992210      3.33742007509814     -0.14760106206332
  H   1.48852854026577      1.20157385362255     -0.10555789326213
  H   1.47315175841391      1.87602598158917     -1.73507097490688
  C   2.08444163370857      4.33350022983332     -0.73941753249910
  H   4.58896632358009      4.68747636528158     -3.14436097921985
  H   4.44758854189776      5.55182260594943     -1.59539724069651
  C   2.67459245239650      4.37508436978180     -2.12397062037928
  H   4.72315865652786      3.79580814585145     -1.60558671599947
  H   1.06505741559632      3.50938043618299      0.88068276725955
  C   4.19241370023773      4.61466068005289     -2.11842303567465
  H   2.44828757667702      3.45036238485325     -2.67884758983246
  H   2.19059917547809      5.19472595682841     -2.68879365673125
  F   -1.84297100220115      4.01564207866386      0.50275861596781
