34
Coordinates from ORCA-job C:\Users\AIElement\Documents/104_0.000
  C   -5.06644486220474      1.32091298805578      0.49558239428965
  C   -4.54049980457555     -0.06551262257166      0.45874605108786
  F   1.76210249939123     -0.02273256153630      3.52890799892334
  H   2.55803960284843      3.98500329414043      2.51421301077562
  C   -3.54751864207764      1.03483633224117      0.35825107593011
  F   -4.78915191608338     -0.84187768024670     -0.61773944627743
  C   -5.86832189477609      1.90067016376261     -0.65349670072353
  C   -2.58263253635285      1.32960432717874      1.48978433100666
  H   -5.36721567058080      1.65736402548344      1.49604965956597
  H   2.65513354696642      4.10190873264584      4.28728669862779
  C   -5.75166446180748      3.42301079149181     -0.76014908248898
  F   -4.57479498012921     -0.82382644531860      1.57810350691536
  C   -0.36057156420919      0.75355892108570      2.58437969141752
  C   1.08720535271416      0.45302053074685      2.45897749373812
  H   -6.10484914222225      3.91816800738608      0.15984439903468
  H   -3.10419011293991      1.20924763013325      2.45428200870153
  C   0.69116944902224      1.88377703708928      2.42818001416044
  F   1.54954004812245     -0.13942318556146      1.33686728466840
  H   3.20508140418945      2.62323743762802      3.45999720356295
  C   1.03452430495023      2.81997248784226      3.57118880182847
  H   -1.65813888097777     -0.62482634011664      1.56669257489935
  H   0.28276087677596      3.62849974189914      3.60884156576918
  H   0.94635518079707      2.27265380372915      4.52447755231668
  H   -3.14871312022904      1.18119392185935     -0.65376555829681
  C   -1.33962875492080      0.42810834129565      1.47430885494777
  H   -2.27474583846812      2.38907723713980      1.43471547659597
  H   -5.54367011414685      1.42822927590135     -1.59548554409219
  H   -6.92767602145592      1.61539360040447     -0.52467620823311
  H   -4.70631045340510      3.73414999425319     -0.92326777799485
  H   -6.35153612768715      3.81124391336308     -1.59875642542180
  H   0.72679837201688      2.33081910837361      1.42608985417556
  C   2.44015727176280      3.41638341725139      3.45188442781982
  H   -0.82813549196267      0.50750512477312      0.50027755639867
  H   -0.75069751834480      0.64223864819678      3.60408725637119
