42
Coordinates from ORCA-job C:\Users\AIElement\Documents/106_0.000
  C   -5.99746365427665      2.50820111492461      0.06822160950098
  C   -6.25014700859896      1.14738266125588     -0.17586551576737
  O   -2.42956477513647      2.32708796908275      1.09190986669227
  H   -6.81372616538677      3.21986667330510     -0.07193809972333
  C   -4.74173892352211      2.94067938494011      0.48738283665155
  C   -5.21544046077801      0.21617832439984      0.00783931474819
  C   -3.71431096069700      2.00339881986744      0.65259285764159
  H   -4.56913158439762      3.99797057815910      0.68815530785327
  C   -3.95179730031947      0.65113267186027      0.41881656492362
  H   -3.13394556919877     -0.05900199338738      0.55678145662751
  O   -7.50851656644278      0.83308756011138     -0.57777455396915
  H   -5.37540533330292     -0.84745491849185     -0.17019842920331
  C   3.80544989670155      2.35627549399498      1.26786628478580
  C   2.50950564654732      2.86579959036224      1.31108887673036
  H   3.16529611686557     -0.86429756932325      2.22724007811082
  H   4.64579819421779      2.99469199379158      0.98767401649226
  C   4.06641631051232      1.01430502530734      1.59258872013448
  C   1.45214763152859      2.01979018395702      1.66855161143425
  C   2.99937623759662      0.18112988752761      1.96604735925737
  O   5.36405259585960      0.62053359317322      1.51980620405448
  C   1.69732551881835      0.68895059477783      1.99990167006603
  H   0.85553111077771      0.05275125658058      2.28051266089179
  H   2.33031011785484      3.91423769513429      1.07254666323435
  O   0.12424234323950      2.43355944132156      1.75233923783985
  C   -7.82862389568561     -0.51168166750704     -0.85234338426490
  F   -2.47360358260150      4.54724076865610      1.56320701492522
  F   0.10320197187102      4.69476353935419      1.58561737285058
  C   5.69958466213676     -0.71247911001357      1.83032119522695
  H   6.78715301672737     -0.80016428155435      1.70179063834339
  H   5.44196441864990     -0.97120129696478      2.87407963934003
  H   5.20160736547488     -1.43157679774423      1.15394658469076
  H   -8.88337746340882     -0.52668663066322     -1.15932326488829
  H   -7.21216935557218     -0.92276336630881     -1.67303121241423
  H   -7.70718778941707     -1.15526869264276      0.03849664788984
  C   -1.64927042195667      3.92491446035577     -0.65581011757727
  C   -1.87963638508580      3.54445545341594      0.85789858874764
  F   -1.83160632098932      5.23057169101191     -0.89879697082546
  F   0.12663134808073      2.34412148829205     -1.02982234689670
  C   -0.13974560056297      3.55081257152273     -0.50497353887102
  F   0.72549138773310      4.45389940466058     -0.98041815538347
  C   -0.31800580300685      3.50256651926882      1.05765686035835
  F   -2.31616097084913      3.20014991422841     -1.56146215025909
