95
Coordinates from ORCA-job 107_0.0
  C   -2.32384913822776      2.42043811988223     -0.32183977171519
  C   -2.23573147012227      0.96835135937585      0.17355191055531
  C   -1.52461615205506      0.94423468416658      1.55647038991763
  C   -0.85431939215787      2.73083921162401     -0.77953372521008
  H   -2.68661881063751      3.08360663006986      0.48107894730252
  H   -3.03235485500550      2.52441467617795     -1.15945027520263
  C   -0.09483650338395      1.41658980926719     -0.37339650098700
  C   0.01555436095015      1.22920790981684      1.17886266194871
  C   -1.16303468008040      0.36596819095751     -0.74695883107420
  H   -3.20851113122391      0.45318358932839      0.18997479570351
  H   0.86024166776943      1.30117552258146     -0.89904506726594
  H   -1.43429091980340      0.38571088199273     -1.81521081491020
  H   -0.88423051320172     -0.66634500097429     -0.48309788136610
  C   -1.91998653508632     -0.33711289318269      2.30747514564612
  H   -1.88798336113972      1.79159374547880      2.16228506165811
  H   -3.01944281850497     -0.38041116208235      2.37514066646348
  H   -1.53687404779060     -0.38381607584723      3.33386731419025
  H   -1.59608505092644     -1.25080009983588      1.78570392888456
  Si  -0.33391307766249      4.54446789838612     -0.43651463315420
  H   -0.85551323401262      2.72121147471417     -1.88661648843109
  C   -1.85108136670778      5.62368075677219     -0.81735246008834
  H   -2.24542447638263      5.42188991497887     -1.82771452949106
  H   -1.57373464503263      6.69111914451889     -0.77834963010150
  H   -2.67324470358931      5.46843321395002     -0.10017096357866
  C   0.19677589246313      4.91588028697179      1.34653247901820
  H   -0.56925224966284      4.59203607942959      2.07083296093133
  H   0.33102129397002      6.00396974084948      1.47327244725150
  H   1.14654607168385      4.43040876576069      1.61887528036415
  C   1.00920388878188      5.09014664057845     -1.65877881793325
  H   0.62948730899277      5.02715561993465     -2.69289373464955
  H   1.92128793438195      4.47925972213281     -1.60256319450826
  H   1.29569834099941      6.13992338954902     -1.47610845718609
  H   5.89429887174918      3.40877680811164      3.17618572815595
  H   6.62333957007886      1.84361424112336      2.74412222441166
  C   6.75200265442446      2.93533173554514      2.67013362926805
  H   7.65730042928944      3.20081536964394      3.24286682696234
  H   4.02444100715516      3.76382232832296      1.54652101345973
  C   3.50335867650290      1.23180579729869      0.92608398003383
  Si  6.93222643161363      3.53952746788482      0.87895011465056
  C   3.98539275334799      3.64633701136340      0.45093521349091
  C   4.88033516499732      0.80419213013154      0.23268421526373
  H   6.43777104069162      5.95707984584175      1.38706969144525
  H   8.26605042121096      1.56802871522817      0.04717744634203
  H   3.58946651848839      4.59145861883726      0.04762519020475
  C   3.08134719658230      2.44970583900922      0.05182729000262
  C   7.28009783361722      5.40376035364012      0.93797568550553
  C   5.37004004946392      3.29138501758670     -0.19690087800560
  H   8.17867091358383      5.62207819150687      1.53980373004303
  C   8.40459534724967      2.66182659821939      0.06825877379503
  H   2.01949201560245      2.69579429071886      0.11233012964955
  H   9.33841842406444      2.86842709562661      0.61841141871846
  C   5.07791110465364      1.90731495492363     -0.84094184878562
  H   5.54187838670360      3.99207891646499     -1.03589295430297
  C   3.63119797178774      2.09975318642743     -1.34300766055069
  H   7.44686199969008      5.81378695610502     -0.07253803917722
  H   8.54907132250410      3.00012403573118     -0.97183603790536
  H   5.81735831858402      1.62403393344694     -1.60575796623190
  H   3.18811024561934      1.18979711677125     -1.77816483333844
  H   3.53309214015475      2.91538605378428     -2.07780317593248
  C   4.96567994689560     -0.58878941743179     -0.40401329783992
  H   5.68639778564169      0.85532056445375      0.98074641039436
  H   4.24662718326755     -0.72596396111509     -1.22727714955594
  H   4.79609180497072     -1.39577911531461      0.32117096894092
  H   5.97314058987946     -0.73802308181024     -0.82651822089518
  H   0.84867908455705     -3.02637213270125      0.10407017442957
  H   2.46173832254730     -2.74218048336140     -0.59712211485152
  C   1.88040568144137     -3.41238321212221      0.05561344762487
  H   1.83950923828540     -4.39941237370266     -0.43627402968757
  H   0.28523285519631     -2.18642396076450      2.83916557991196
  C   0.99765938929899      0.11138593074104      1.62760780887782
  Si  2.65265052419666     -3.59090223245841      1.77977286216529
  C   1.08737389614498     -1.67391959606909      3.39181303395347
  C   2.55152285534092      0.02360399009905      1.21957406752100
  H   0.65249629591514     -4.75455418657183      2.79427702930147
  H   5.08514570293768     -3.39058146056614      1.08365623024418
  H   0.95957930061092     -1.93819915519663      4.45467487295509
  C   1.04237279801164     -0.14445113905943      3.18123023221227
  C   1.72771097636029     -4.97582876504367      2.69127475928859
  C   2.53306771145984     -2.03936237902105      2.88966750231770
  H   1.81916129606526     -5.92982575462383      2.14443765430324
  C   4.46310307201850     -4.13339756465352      1.60792607596048
  H   0.25131970148600      0.36759318153003      3.74229180976431
  H   4.53014764575614     -5.07804477979875      1.04162783549830
  C   3.13079150115914     -0.64495630372078      2.51506547389284
  H   3.11297188608480     -2.36854942099154      3.77342850076354
  C   2.46831435929328      0.24342787413770      3.58979919313819
  H   2.13486008641505     -5.13312671429646      3.70455859082856
  H   4.91608855162011     -4.30845848978506      2.59862979729563
  H   4.23027247072191     -0.65419553432932      2.52138161084888
  H   2.67841678002266      1.31799404935602      3.48895676270088
  H   2.71680399721690     -0.05812645854338      4.62087003131642
  H   0.31798011371424      2.17368795937006      1.65506674168599
  H   0.58815300788045     -0.80508472017990      1.17721728431964
  H   3.76610434774498      1.64868068630204      1.90702427059539
  H   2.60274480283472     -0.66039619937616      0.36395107962442
