90
Coordinates from ORCA-job 108-_0.0
  C   0.22855483349060     -1.85395389665693      1.78799889535227
  C   0.53349665583420     -1.42031113938324      3.09110893607471
  H   1.16602064660094     -2.04546400822901      3.72236807831976
  C   0.03093123489300     -0.21776884284727      3.57782967100202
  H   0.25875297268319      0.12302803685159      4.59036183514708
  C   -0.79430114818845      0.58779685903247      2.77296541713645
  C   -1.09955237273213      0.16656017369614      1.46928363429183
  H   -1.73414196320390      0.76700080454248      0.81687018635646
  C   -0.58925279959997     -1.04504094163215      0.98996095869282
  H   -0.83114208038834     -1.37301415372317     -0.02126988624463
  O   -1.24444120362213      1.73827290201276      3.33710110895872
  C   -2.11282417844254      2.58927657319510      2.60690458016778
  C   -2.47912721700638      3.76262652602816      3.49676393776317
  H   -3.01935789901822      2.03310576286069      2.30000165904588
  H   -1.61401294518629      2.93864088532899      1.68242706652254
  H   -2.98506856859925      3.41330366820891      4.41025767052685
  H   -3.15502175527685      4.45001053930127      2.96410515287223
  H   -1.57817229653275      4.32076840569228      3.79550360845819
  C   0.77514556044432     -3.18018488442756      1.25663791263890
  N   -0.17175186276480     -3.75949710125496      0.31381128502490
  C   -0.52845404609731     -4.89809979599416      0.79564075665436
  N   0.95568580108839     -4.12527142579966      2.34945582249416
  C   0.21180894317725     -5.14261926220166      2.08967080390939
  C   -1.55488810693205     -5.74009560063085      0.13883164631328
  C   -2.51991838147658     -6.44116443219626      0.88410595202996
  H   -2.50193599414476     -6.40008437177609      1.97482331260721
  C   -3.52015621219332     -7.17182589999619      0.23733601278323
  H   -4.27066162587919     -7.70280230204068      0.82898013883838
  C   -3.56312764196040     -7.22175372481953     -1.15918513595890
  H   -4.34238173220362     -7.79950808367368     -1.66369323185033
  C   -2.60753937194753     -6.52599582949987     -1.90887863445971
  H   -2.63828247490980     -6.55954012631349     -3.00125025880579
  C   -1.61560262624321     -5.78463260146533     -1.26628875640728
  H   -0.87293803389817     -5.22898368687225     -1.84146438965961
  C   0.17442332053880     -6.33236508324696      2.97105601536860
  C   0.29011657953085     -6.16363455608490      4.36335291907076
  H   0.37054556316774     -5.15156511527435      4.76477077943776
  C   0.30246081753106     -7.27047069155494      5.21263262937451
  H   0.38330709749819     -7.12502330142071      6.29323674268598
  C   0.21512191754696     -8.56350606115263      4.68356893638686
  H   0.22691972439912     -9.43089402609332      5.34922376187584
  C   0.11654319169673     -8.74226249245996      3.30038930042870
  H   0.06052106460999     -9.74979534786086      2.87972534122098
  C   0.09128500603051     -7.63536286426319      2.44789976557095
  H   0.02630031359978     -7.78555747935663      1.36873018226068
  H   2.71514871995229     -6.28987461285316     -2.81843255549160
  H   5.96317273795953     -9.57545145126259     -2.63930204057703
  H   1.80674894312787     -4.12194360257166     -1.95022649792224
  C   2.94253975345132     -5.94920855052433     -1.80575942130969
  C   2.43934478780988     -4.74697568020542     -1.31891895990994
  H   2.58893154536019      0.95719147290864     -4.52126521224577
  C   2.66962484979103      1.10272853499435     -3.44066181688397
  H   5.99417628859714     -8.19695835057427     -0.52800685704208
  C   2.75661946555480      2.39581574457566     -2.91167385459646
  O   4.21890300955551     -7.90462573963886     -1.56518814218192
  H   2.74470194489353      3.26315631325511     -3.57738829127890
  C   5.45747302382653     -9.92648949473191     -1.72633308038097
  C   2.68211003722747     -0.00405011856295     -2.59130507758779
  C   3.76797393387901     -6.75454710672184     -1.00087863933840
  N   2.01645010190949     -2.04224977068254     -0.57722023777762
  H   2.60194004220415     -1.01616196940664     -2.99266789604067
  C   5.08876823229890     -8.75459567535934     -0.83554752627885
  C   2.74384689986744     -4.31342682218060     -0.01567620826336
  C   2.85499922059109      2.57468961993660     -1.52849332160547
  H   6.13433922551116    -10.61318952702172     -1.19402484567112
  C   2.79761592844302      0.16480321930190     -1.19901147855351
  C   2.19703669389231     -2.98726863390889      0.51565479139387
  H   5.47399476133995      0.23274656015160     -0.20293850679455
  C   2.76033211145653     -1.02488453470421     -0.31753628218055
  C   2.88040388314547      1.46785357426056     -0.67592785412599
  C   4.07259351578659     -6.33352265599652      0.30302105305077
  H   2.91074573698313      3.58226538738440     -1.10789560588093
  C   3.56169450813687     -5.12222149006702      0.78244808884035
  H   4.55761532497026    -10.48593225164272     -2.02594476940143
  C   5.49210388011891      0.27379105315402      0.88777577926172
  H   2.94522936557114      1.61811636061404      0.40324193557973
  N   3.14394506058106     -2.40786239830080      1.45842074166125
  H   7.24284443399970      1.53543910482852      0.94271424787795
  C   3.50066218355599     -1.26931072463840      0.97647625222138
  H   4.70716795513839     -6.93389757794512      0.95551031136624
  H   4.59045931297781     -9.10570838360604      0.08854603795224
  C   6.49242498610482      1.00443359952399      1.53444127418672
  H   3.80319747937362     -4.79435393262906      1.79380456305644
  C   4.52717918283098     -0.42731631460356      1.63315022759405
  C   6.53559284102430      1.05429973957844      2.93095650184907
  C   4.58810651864729     -0.38285380225833      3.03826776867984
  H   7.31491263901570      1.63203739605435      3.43538209579902
  C   5.58012325658813      0.35848686370918      3.68075309328744
  H   3.84553343630753     -0.93854806324558      3.61351615492276
  H   5.61102553472815      0.39197268506500      4.77312194046188
