54
Coordinates from ORCA-job 10_0.0
  H   2.37458803091360      1.28404107636115      0.76893710536852
  C   2.05082057674369      0.56071314956731      0.01651247922028
  C   0.76165074060718      0.70975790226240     -0.51569182604736
  H   0.13745160165295      1.53324241360602     -0.16699848579836
  C   0.29292052264308     -0.19815140429258     -1.47398144425911
  C   1.13233835710074     -1.25062299832758     -1.88170713153710
  H   0.75471151294842     -1.95789785400745     -2.62354852209350
  C   2.40491721228344     -1.38196550643298     -1.34052785639806
  H   3.03674689962932     -2.21294900466977     -1.66726216102362
  C   2.90236086595840     -0.47839378063506     -0.37834378780165
  H   6.83837487963825     -1.28241906506041     -2.65460700227889
  C   6.18017524046906     -0.50021431365865     -3.04602725299110
  C   5.41150731054625      0.25913274613845     -2.15088258230957
  C   4.57485537448820      1.25172629519449     -2.70272109564178
  H   3.95025611778278      1.86370344421683     -2.04825057885888
  C   4.51304974646574      1.46881582344621     -4.07451570564875
  H   3.86172527474916      2.23673419467353     -4.49761529170398
  C   5.28911575257616      0.69432997305767     -4.95590890062346
  C   6.13023356254509     -0.29761249439277     -4.43068739029474
  H   6.74786524776247     -0.91643467284197     -5.08242375850875
  O   -0.93591341772279     -0.14848220102188     -2.05243090149575
  O   5.16130766789425      0.97878070614360     -6.27716282420025
  C   -1.83130047070027      0.87188261112312     -1.67799403328149
  H   -2.74896211032202      0.71586048602843     -2.26199509925006
  H   -1.43139059146986      1.87764164078481     -1.90523437353920
  H   -2.08243332246738      0.82844421224586     -0.60190999806176
  C   5.89908869561252      0.23253342592529     -7.21784626008146
  H   5.63119524673800      0.62340723240977     -8.20911358222902
  H   5.64862399269436     -0.84354317949505     -7.17911544825996
  H   6.98935576430990      0.34656049574407     -7.07265359450857
  C   4.30192335700483     -0.68373221340445      0.15306443710262
  C   5.48840791356563     -0.01509980491018     -0.67192026970094
  C   5.47646869429894      1.12861287010220      0.37392226213858
  H   6.37164646464478     -0.64558864127711     -0.48155397796050
  C   4.75316702873319      0.16383507417683      1.37040710763991
  H   4.47862414079900     -1.75524463539813      0.31751202538953
  C   5.63561836694117     -0.64899619339419      2.33972736425446
  H   3.95921263967020      0.63644685352259      1.96756643736563
  C   6.72710199587719      1.89642924885021      0.76901080228548
  H   4.74377339454096      1.89768381668166      0.07538212956825
  O   5.76474717799642     -1.86188484169506      2.23492091074597
  O   6.82747085150071      2.44123007202298      1.86726173739066
  N   6.20008660416376      0.08578076055728      3.33512625865611
  N   7.68949347579223      1.97578252575588     -0.18672600239843
  C   7.09893122699766     -0.49694058668209      4.30900417795830
  H   6.22689235070298      1.09699516725955      3.19494966306004
  H   8.15476451436776     -0.24809736028603      4.09638575688299
  H   6.98680008484355     -1.58868305723560      4.27620727558209
  H   6.86110962638150     -0.14061874469281      5.32504943949773
  C   8.91822562805078      2.72307400810231     -0.01258512057333
  H   7.50700230244567      1.53703991154988     -1.08327197198501
  H   8.93724514279739      3.10439865189110      1.01673307708818
  H   8.97642524089248      3.57853159287269     -0.70769014128955
  H   9.80142549492001      2.08232417153753     -0.17397607456129
