30
Coordinates from ORCA-job C:\Users\AIElement\Documents/111_0.000
  O   1.67243289480704     -0.03707545131442     -0.70022271630466
  C   2.61191027872055     -0.28688573364585      0.22650264759761
  O   10.73164722782615     -0.97033981440562      0.89061412687749
  H   -0.13846543987450     -0.51997412269555     -1.48023777551771
  C   0.50389174351837     -0.86133486676265     -0.65911735203441
  C   3.76346372193817      0.69987352328512      0.08159385858849
  H   -0.01598054493821     -0.75326145298902      0.30507119428958
  O   2.52274635546167     -1.15255618523903      1.06014085178330
  S   5.18020505725853      0.03413376587615      1.04988309458821
  H   12.60478700897577     -1.37237151911115     -0.95846239861370
  C   3.35658957596313      2.11258390167971      0.51927674337119
  C   6.57942181176246      0.68186310029373      0.17825393823852
  H   9.97704312140665      2.29059325572487      1.65745898627504
  H   10.49851251290117      2.74977731235641      0.00695099725601
  S   8.02255333760134      0.06920109161685      1.00411384848667
  H   3.05567858708621      2.12903353432516      1.57808190242425
  S   6.54602676345616      1.63792817843222     -1.16815548286366
  C   9.38514692178106      0.89283148538238      0.08260140855726
  H   9.05746735672033      0.95206198201911     -0.96800649973748
  H   8.78978760723402      2.93990096100309      0.48401182556937
  C   10.60630127422539     -0.01463520931499      0.16730602881326
  H   4.19769395197762      2.80498342090724      0.37391700718236
  C   9.68123186862733      2.30689098022571      0.59716429830264
  O   11.55792811919272      0.41528486481191     -0.67767070722320
  H   0.77059000361345     -1.92030278437337     -0.79542688721728
  C   12.78360560301468     -0.32265256379777     -0.68059467247631
  H   13.43057281586715      0.16409955575516     -1.42079064392789
  H   13.25456135643934     -0.30023835364954      0.31408490035900
  H   4.08712374583292      0.72642136815273     -0.97084004245773
  H   2.51134536160319      2.45930577545140     -0.09596248018621
