69
Coordinates from ORCA-job 118_0.0
  H   -3.44383608141854     -1.80599950074894      3.34730153674432
  C   -2.62226718873860     -1.34237234723543      2.79455194116152
  C   -2.83060358801685     -0.11757841130390      2.14201726741170
  H   -3.81240129692917      0.36092805533315      2.19274763639487
  C   -1.79222916360594      0.50119017805833      1.43677467541865
  H   -1.94478941480914      1.46637369158736      0.94715379966236
  C   -0.55604230189279     -0.14140580953030      1.38272255035917
  C   -0.34949509764359     -1.35592398530411      2.02973306921941
  C   -1.37253898972462     -1.97071080983991      2.75086085545510
  H   -1.20312431034003     -2.91529919656251      3.27408691576786
  C   0.73740476280926      0.30066404234128      0.74218292647302
  C   1.08312670480799     -1.78237126900620      1.82327520210203
  O   1.61783730834514     -0.81396188014901      0.93375826436749
  O   1.73524536056736     -1.83061986621774      3.06957434985540
  H   1.17408801551868     -2.76375325974890      1.32309148980207
  O   1.17017731651262      1.47546932436896      1.33631696634660
  H   0.66324533967911      0.43796691589805     -0.35637295360724
  C   2.34266200010132      2.09608560937334      0.77998903039784
  C   3.52890589720149      1.87655651961833      1.71424339497736
  H   3.33898536287873      2.36537347998352      2.68422530746670
  H   4.45072866849459      2.30430289353786      1.28683737586103
  H   3.69277363724768      0.80655180540195      1.90103445728086
  C   2.01940190277643      3.57064628856066      0.55893254671252
  H   2.55885420094006      1.62346654411279     -0.19792860393781
  H   2.89068474709507      4.10752431327726      0.15018829225432
  H   1.73921338999397      4.04282382550316      1.51460552443340
  H   1.17676000805007      3.69027242036377     -0.14042254328814
  C   2.76953497771079     -6.12840720344492      2.04209044960284
  C   2.46999820828221     -4.99620894702561      2.80935226594174
  C   3.70018726039429     -6.05708093663273      0.99432681269445
  H   2.27860469027726     -7.07977528750031      2.26380997841190
  C   3.12043676379916     -3.80027565871301      2.50289237276337
  C   3.01034752907093     -2.43394850245061      3.14998414860042
  H   1.74829810795980     -5.05124860508192      3.62895351522719
  O   4.01905641394365     -1.66954949517195      2.51549516219646
  C   4.34669478020968     -4.85251394267151      0.69268780749685
  C   4.57832326329232     -2.32131083168761      1.37991683090851
  C   4.03887147406895     -3.73008670223411      1.45964678391861
  H   3.92667334050083     -6.95455923764982      0.41256431536306
  O   5.97393794689575     -2.33694780798820      1.41523624593197
  H   5.08271257771037     -4.79728720566338     -0.11310976284832
  H   4.23900407916858     -1.78083186124955      0.47217976330600
  C   10.00569232571011     -2.50652657662266     -0.34918966814467
  C   8.61526478720099     -2.35375072345326     -0.30166334804045
  C   10.83023091802976     -1.83847685204786      0.56888769749966
  H   10.45502321496848     -3.15669130927843     -1.10468979515051
  C   8.07743666730268     -1.50755252672846      0.66731102654008
  C   6.63850326719040     -1.17122742997809      0.97826091152980
  H   7.97081995623989     -2.88754645759149     -1.00513459932310
  O   6.71469682493564     -0.16009516733802      1.95844352126409
  C   10.27945012132277     -1.00534859096521      1.54964229704470
  C   8.02698939360944     -0.04839371976327      2.52545751021688
  C   8.89522416750238     -0.84214138110446      1.57572571325507
  H   11.91380190282696     -1.97604167657402      0.51980769237371
  O   8.13774041822973     -0.59106246732510      3.79873120909051
  H   10.91902677478269     -0.50063893328958      2.27830234172186
  H   8.26293419595398      1.03192109461523      2.53101168548650
  C   7.65131057166491      0.15611639856133      4.92945997197084
  C   6.16885728107228      0.51264771842900      4.82454953858933
  H   5.98786900196377      1.29990832572009      4.07631043713225
  H   5.80482869743103      0.87789412835111      5.79910165713142
  H   5.57824913736509     -0.36390051194836      4.52314413513140
  C   8.54093061039739      1.36441718354322      5.23289935413281
  H   7.77347858707337     -0.56759207687873      5.75239603198681
  H   9.59865316519262      1.06317588903689      5.29203518178776
  H   8.25534047983638      1.81116930529435      6.19885746251858
  H   8.44465401984970      2.15385678113467      4.46919350784366
  H   3.21216131714844     -2.45045354555635      4.23309327607347
  H   6.07833359201294     -0.75227422474990      0.11935728572956
