58
Coordinates from ORCA-job 119_0.0
  S   1.23566026077667      1.74366331726718      0.04985948591858
  C   3.03227357367023      1.70194453326305      0.02324080530645
  C   3.80376855288257      1.35628764186645      1.14115881708872
  H   3.33717031779008      1.08581605482097      2.08985444819144
  C   5.18968420801194      1.37787986778386      1.03203934137961
  H   5.82156849580054      1.11895264310225      1.88369275015386
  C   5.80915573488275      1.74151611533019     -0.17816361612901
  C   5.02858447979570      2.09288207405861     -1.29459087006270
  H   5.50407744974724      2.38378418440054     -2.22732253773897
  C   3.63769463357333      2.07915854480536     -1.18169600095192
  H   3.03191300166896      2.36706445128687     -2.04489592253390
  C   0.77067508982747      1.93284782624076      1.77627517627025
  C   0.61983838635763      3.24967905697256      2.23838563551694
  H   0.78811431686924      4.10259713582880      1.57614370513063
  C   0.25101840622243      3.46156503224577      3.56119833765597
  H   0.12461375845295      4.47247665051995      3.95310651474103
  C   0.01684977079849      2.37154696796756      4.41983265878634
  C   0.15343225155075      1.05457545221662      3.94499355546902
  H   -0.03478879747081      0.21219091638153      4.60483779179975
  C   0.53070326956916      0.84250946349247      2.61737442088426
  H   0.62190970118605     -0.18071368295511      2.24869722126532
  C   0.68077477011841      0.10055876780084     -0.42657283749303
  C   1.47755346689002     -1.03879533135840     -0.29887846877991
  H   2.49497404186398     -0.97611504336866      0.09166885007080
  C   0.95824703876109     -2.27547120903860     -0.69297826174594
  H   1.59565819845258     -3.15268971198016     -0.58590789985686
  C   -0.34155471239252     -2.40382496510176     -1.21560078390018
  C   -1.10758064206166     -1.22579236482287     -1.34190272616599
  H   -2.11727928865062     -1.27293482798394     -1.75432198604849
  C   -0.61207758810769      0.01901195193693     -0.96235021841714
  H   -1.22823852504523      0.91386411271695     -1.08238197850652
  C   -0.93532264626664     -3.75609056461180     -1.64703183838229
  C   -2.20428713022621     -4.03963156161265     -0.80663289065899
  H   -1.96742650946431     -4.09464383122078      0.26798844875618
  H   -2.64353516865062     -5.00429368805784     -1.10583706436278
  H   -2.97733226173916     -3.26790803831532     -0.94458554126243
  C   0.05456129073958     -4.91734743340887     -1.44148951920097
  H   0.33813900716544     -5.03854049379962     -0.38379626880709
  H   0.97303023970594     -4.78884751468783     -2.03595722067241
  H   -0.41284583479283     -5.86032031245080     -1.76305827744718
  C   -1.30926904244967     -3.69114807903098     -3.14765023149726
  H   -2.05811310232195     -2.91223036051279     -3.35863849298067
  H   -1.73641515098641     -4.65407541054408     -3.46945990100600
  H   -0.42386070424833     -3.48875547559216     -3.77123282192885
  O   -0.35496964289592      2.73094101333740      5.68344639753114
  C   -0.56788681481557      1.86858691473117      6.74877461048341
  C   -0.95812886324314      2.66061582640684      7.96279393301154
  H   -0.16153703381631      3.37783139265448      8.21540335565929
  H   -1.13123128158013      1.97731039367471      8.80241236608514
  H   -1.86811760145360      3.24469703915249      7.75447540912903
  O   -0.44607425815651      0.67986513122806      6.67240251214737
  O   7.17322313423724      1.71907940858010     -0.12920345993520
  C   8.03580918397093      2.06513867646079     -1.15962284315516
  C   9.45474619495438      1.93005642810885     -0.68859002738667
  H   9.62817767051045      2.59393513722286      0.17290487456221
  H   10.13578022534769      2.18964365910775     -1.50754716347581
  H   9.64315696397373      0.89965802055239     -0.34906925972712
  O   7.66579551471004      2.41495809693110     -2.24284449277688
