46
Coordinates from ORCA-job 12-_0.0
  C   -2.25548853431092     -0.23421453681793      0.83748045522027
  C   -2.05149598302925     -0.45125123123297     -0.68297216478736
  C   -0.54566489329269     -0.84765211089194     -0.35260410204236
  C   -0.70582462809168     -0.09332016591696      0.99312888344931
  C   -0.08798492084616      1.32005338455392      0.93066481962261
  O   0.65059598745655      1.65799199602578      0.01451359775414
  N   -0.37850222663507      2.11078489106035      1.99647318214942
  C   0.09832312414406      3.47375734112723      2.09943257441648
  H   -1.16749301088848      1.82423571493668      2.57901481367088
  H   0.89152100265408      3.62204138125383      1.35488527788627
  H   0.50667983860254      3.67224779642210      3.10443411967874
  H   -0.70518750400059      4.20720173994106      1.90480436779524
  C   -3.22875145600010      0.79353033392496      1.39304538093019
  O   -3.05621853681361      1.32000642818027      2.49085923520039
  N   -4.32088584358805      1.03474013299460      0.62120749251898
  C   -5.39979794598422      1.91314862462912      1.02650678803008
  H   -4.41043179777169      0.52472437281979     -0.25129950098296
  H   -5.12182087222039      2.36867683337118      1.98585873752520
  H   -6.34532070325506      1.35934084180185      1.15828158944815
  H   -5.56525740907793      2.71257081206370      0.28482110637175
  C   -0.22532735506162     -2.32458889928476     -0.31649668647854
  C   0.14855362286134     -2.95725137768005     -1.51694622351327
  H   0.21400448518403     -2.36293065397281     -2.43293592542661
  C   0.44142927668709     -4.32127656902978     -1.55876506312578
  H   0.73159699881493     -4.78509038425661     -2.50562789378334
  C   0.37180493031546     -5.09127167391015     -0.39261697677125
  H   0.60459911530815     -6.15912942471876     -0.42068014178097
  C   0.00930871485138     -4.47979621217221      0.80944892951062
  H   -0.03971369897894     -5.06739109936285      1.73051407917938
  C   -0.28648924404402     -3.11194256190939      0.84539264171504
  H   -0.55809647219891     -2.66051646849958      1.80275676872189
  C   -2.97591229276117     -1.32777546901396     -1.48886890529614
  C   -3.48783590009732     -2.54289419791284     -0.99719720027281
  H   -3.21224514585892     -2.88786921649436      0.00182713210740
  C   -4.34079937925021     -3.33070099598063     -1.77443628609368
  H   -4.72352281812474     -4.27209975848732     -1.37086694849741
  C   -4.70330996814167     -2.92219949684305     -3.06197916982267
  H   -5.37197201975773     -3.53940870174923     -3.66800121616168
  C   -4.20416315812665     -1.71832613712741     -3.56690248215223
  H   -4.48006308452458     -1.38735241229957     -4.57194338309398
  C   -3.35149939031814     -0.93226096125054     -2.78616316556613
  H   -2.96484286312914      0.00866042014349     -3.19024267045381
  H   -2.54345891525151     -1.18831717195878      1.31151601230277
  H   -0.29412627451381     -0.58653554445175      1.88628711821976
  H   -1.99919252691733      0.53587140037021     -1.16935691920983
  H   0.16304967598297     -0.33709101239383     -1.01827207811219
