66
Coordinates from ORCA-job 120_0.0
  C   -2.22785351362916     -4.51158288282865      1.82546446553112
  C   -3.26020585090931     -3.59702987037043      1.59274062183899
  H   -3.34904340168917     -2.76744106025034      2.29131815013557
  C   -4.13908727049913     -3.76239875652727      0.50243580004064
  C   -3.92343758440598     -4.88816099413057     -0.34211606370667
  H   -4.56964954119749     -5.07116631997290     -1.19896431223886
  C   -2.88959712488892     -5.77533915368389     -0.08397273924309
  H   -2.75529020613225     -6.63182133260237     -0.74996742265303
  C   -2.01240816758475     -5.62436647205839      1.00439278562253
  C   1.39376738422930     -5.46727769248524      4.77848256763090
  C   0.32364344872155     -4.67685556776664      4.37170276172904
  H   0.02651237425619     -3.78445006377293      4.91633271252989
  C   -0.41211485810515     -5.06229194275435      3.23889721831398
  C   -0.09496657631535     -6.21150238781783      2.50202665194128
  C   0.99368180696278     -6.98209084998946      2.94603142358191
  H   1.26191093071324     -7.88592292352756      2.39377414173483
  C   1.73452070493479     -6.62858158684812      4.06595014705989
  H   2.57929218886446     -7.23150862227613      4.40301163079286
  C   -0.00603776662337     -6.84880831148268      0.05490346555639
  C   -0.04399561749702     -8.18327578569212     -0.34880026748729
  C   0.69581949163457     -8.64454598392885     -1.43837872056003
  H   0.64564348397858     -9.69688717810433     -1.72877801198076
  C   1.48803480606805     -7.72270596484449     -2.12883773868366
  H   2.08148602578135     -8.04677178290428     -2.98789577411580
  C   1.52749204320064     -6.37685824988183     -1.72713628647457
  H   2.15208413027687     -5.66964116567451     -2.27989390738531
  C   0.78083420220514     -5.92525862462217     -0.63162111921070
  H   0.81639006622288     -4.87611200601409     -0.32693657656970
  O   -1.44516952370678     -4.23516994526394      2.91388336764431
  C   -0.90665482559047     -6.63777248321797      1.27702866983076
  N   -1.44648538082431     -8.01312992221405      1.45500716601714
  C   -0.95690761543991     -8.93930689268319      0.55586047453204
  O   -1.23251356649968    -10.12592201279611      0.53827499652653
  C   -2.32213131550590     -8.40115089885067      2.54312130416228
  C   -3.77530065400670     -8.57925834659635      2.10611700009290
  H   -2.26262216319504     -7.64135478914808      3.33712441752676
  H   -1.96256767096841     -9.35493403872295      2.96229823059004
  O   -4.49874279164374     -8.97987061952907      3.27293037168916
  H   -3.84890535066967     -9.35830442380786      1.33057017180463
  H   -4.19856922300627     -7.64844540430641      1.70002472615541
  C   -5.85010592703748     -9.04048908405741      3.15740509164363
  O   -6.46281812011807     -8.75697347119592      2.15016912991557
  N   -6.39566332046571     -9.46058184080048      4.33433901840862
  C   -7.81850588731888     -9.62395482782199      4.52107488939951
  H   -5.75474182308725     -9.67023476469279      5.08981912164963
  H   -8.31502056203078     -9.34322186469153      3.58250676860399
  H   -8.20336494135672     -8.97608265798067      5.32837967484667
  H   -8.08495363290580    -10.66906755863677      4.75865117520912
  O   2.22581486276478     -5.16160144457872      5.83692046834783
  C   1.81746103198423     -4.45685520412665      6.94251438961494
  C   4.22498389722291     -4.76279039684487      7.59484292300937
  O   0.68921104033358     -4.07899598501083      7.15240531440270
  N   2.88027750060877     -4.24547070140328      7.76581002894556
  H   4.29400434998469     -5.84679359464505      7.79699198049029
  H   4.89568791168347     -4.23813512489958      8.29047063624905
  H   4.58326493086479     -4.58510836240401      6.57087680066950
  H   2.63039483890726     -3.79147592676604      8.63596791314692
  N   -5.16521382462465     -2.87079353876639      0.26547782953854
  C   -5.37038030874058     -1.75306065094282      1.16360335098127
  H   -4.48846691220409     -1.08706377781006      1.20504909953755
  H   -5.58605455537865     -2.08047373036459      2.19846540541153
  H   -6.22339367015751     -1.15546078013170      0.81649763869209
  C   -6.07878501871400     -3.08839268646584     -0.83900929517873
  H   -5.55944789245694     -3.08914234731187     -1.81519050959686
  H   -6.82188593402739     -2.28066164704683     -0.85911248602701
  H   -6.62418356124627     -4.04660472065352     -0.75064285821381
