42
Coordinates from ORCA-job 13_0.0
  C   -2.69797737654914      1.11234394791164     -2.87177861075312
  C   -2.63863107570719     -0.42267603415910     -2.65655776527717
  C   -1.13433670401354      1.20144705171465     -2.67149259294606
  C   -1.06954231324458     -0.34173323419003     -2.81453999959532
  C   -3.55973183485756      1.96303486194384     -1.97138614903184
  H   -2.95785875796050      1.38812862695940     -3.90251972348342
  O   -4.03318549168876      1.39513620749136     -0.82927543753442
  C   -3.84259258644528      0.06604259414682     -0.49235069247799
  C   -3.18825775486869     -0.85005936475242     -1.32227352910140
  H   -3.10403946921872     -1.01370755115892     -3.46076423397978
  C   -0.23638837947799     -1.14975981945994     -1.85010874574593
  H   -0.77922278962955     -0.66422982851153     -3.82334058133910
  C   -0.62284579441025      1.69030360387959     -1.34317520320242
  H   -0.64526400132532      1.75539068048624     -3.48793810629332
  C   0.00513492945684      0.81357269338618     -0.45258539632121
  O   0.20006436797013     -0.53052970155157     -0.72001262733740
  O   -3.81853931947369      3.11378804983671     -2.19858751512876
  O   0.02963365761410     -2.30920589121485     -2.01704499154192
  C   -4.38449208999390     -0.30100336708459      0.74559187106222
  C   -4.27980159672668     -1.62893502138235      1.17500799910051
  C   -3.63595758790805     -2.57419874916371      0.35270969218519
  C   -3.10708846719900     -2.18157095083081     -0.86883212210417
  H   -4.87915476838160      0.47272872037236      1.33063496930661
  H   -2.60240566832755     -2.92136129846921     -1.49488285528953
  H   -3.56518403133693     -3.60675600932504      0.69889177522329
  C   -0.71249459386253      3.04205385366660     -0.95610732953985
  C   -0.21520404821211      3.49173481604660      0.25903513301366
  C   0.40397204784205      2.58580853428788      1.14235898777621
  C   0.51516994923415      1.23849843994144      0.78033192270112
  H   -1.19754979780569      3.75197569870229     -1.63044310542370
  H   -0.29197970701123      4.53979046221829      0.55355362654692
  H   0.99136897594044      0.49265148900574      1.41479817283452
  O   -4.76820791376960     -2.08872233561112      2.35079241078840
  O   0.86406520005142      3.10048144544509      2.30675024227754
  C   -5.42324770074696     -1.19513625101262      3.22513531260951
  H   -5.72489408279421     -1.78206044625465      4.10316975456924
  H   -6.32431115227639     -0.75367114353220      2.76221993609921
  H   -4.75556543847416     -0.37772459087008      3.55247341017626
  C   1.49813429163112      2.24914602131775      3.23705321466951
  H   1.78210387625320      2.87712981091747      4.09226265652596
  H   2.40785584157327      1.78499226099635      2.81510323770113
  H   0.82181915613078      1.44909171786041      3.58862298828083
