66
Coordinates from ORCA-job 15_0.0
  C   -2.15071154212230      2.79667734213964      0.72298292833012
  C   -1.89178178362026      1.27157516092127      0.90215758361784
  C   -1.30276102693608      2.69534730837194     -0.65291317525946
  C   -1.59239312993982      1.16576546665278     -0.62586416008621
  C   -3.63281119619631      3.03661294368289      0.48850756170258
  C   -4.57908170582386      2.02544365591005      0.70167617493816
  O   -4.25868988530750      0.76571519062489      1.16971231064539
  C   -2.97643227869347      0.37696245379615      1.43902430291439
  H   -0.98700715321371      1.07860528552394      1.49401864093861
  C   0.18460754749608      2.93449399432694     -0.45387611218134
  C   1.11094905726891      1.88738313463293     -0.54630093827854
  C   -0.52889738187779      0.18250599082619     -1.03575140424957
  H   -2.50270161137594      0.91244239427141     -1.18583199014690
  O   0.76336392201130      0.58407023324294     -0.84508547511007
  O   -2.78843598472305     -0.64248132423331      2.03915204294718
  O   -0.74211276552083     -0.91240970544606     -1.47265902858159
  C   -1.63506467734861      3.67731581816347      1.86363606019797
  H   -0.57894902269187      3.47437318656694      2.09143497965592
  H   -2.22681341857886      3.48326842563216      2.77320572987356
  H   -1.73448454989963      4.74937622506445      1.63238948727328
  C   -1.80227370934575      3.42628364173435     -1.90179343117172
  H   -2.86372891252208      3.21991463007068     -2.09954855781181
  H   -1.21861674388737      3.09769557829670     -2.77731981077869
  H   -1.67668384479834      4.51717357491348     -1.81727980883764
  C   -5.95108142675454      2.22209487601292      0.49101589478149
  C   -6.41298285787446      3.47322533307949      0.07459853291720
  C   -4.13805407566991      4.29226439403155      0.09428394360815
  C   -5.49131653536017      4.52072944363592     -0.11508093951829
  H   -6.61445233356222      1.37963560333533      0.68048643613722
  H   -3.43928615961867      5.11807253446464     -0.05942613196243
  H   -5.86351203732393      5.49837955358131     -0.42639179223013
  C   0.71548819413386      4.21983119800149     -0.22248219864221
  C   2.07449675658985      4.44756874458026     -0.05477345173218
  C   2.97641578338325      3.36850702797079     -0.12350746044306
  C   2.48873370044587      2.08388292544129     -0.37648370660059
  H   0.03300146351904      5.07126198601948     -0.16768034622692
  H   2.46675610955693      5.44933336284297      0.12910156584783
  H   3.13558985933278      1.21237669121761     -0.46466210570355
  O   -7.71657788705125      3.76269273792145     -0.15700303257564
  O   4.28707449219807      3.66185239691412      0.05698813860591
  C   -8.69311910753092      2.75144367012345      0.00280934818197
  C   -10.03474452764721      3.37083008313711     -0.34493177621032
  H   -8.70779206689170      2.37457816286914      1.04201018082290
  H   -8.48852202895590      1.89414698117800     -0.66457253607651
  O   -11.00543795018407      2.33442328178607     -0.18765978614299
  H   -10.03971366978655      3.75026732177061     -1.37934933794231
  H   -10.26465299181188      4.21903883373660      0.31977191469248
  C   -12.29109322136011      2.65964500278971     -0.46184263896133
  C   -13.20186982156542      1.47293368851586     -0.26710156174865
  H   -12.91218735404985      0.66312165142481     -0.95523460877232
  H   -14.23976909003191      1.77139224991526     -0.45735806415143
  H   -13.10049445332952      1.08089670247694      0.75666171992418
  C   5.25187121381803      2.63096241417699     -0.03241275430948
  C   6.60557789778162      3.26946558760627      0.22154879953797
  H   5.23644728260261      2.16030689282367     -1.03271072115064
  H   5.06010916668344      1.84027679361371      0.71605202638497
  O   -12.62600424718834      3.76046035503109     -0.81671104407775
  O   7.57042708873355      2.22257080781530      0.10447987470428
  H   6.64876581751240      3.72370066446803      1.22431475715333
  H   6.81043585422273      4.06630026162242     -0.51159438660121
  C   8.86250361031996      2.55986332553539      0.33000817086158
  C   9.76873260164955      1.36459143784033      0.16984665727837
  H   9.47163805788816      0.57052476171020      0.87260403661036
  H   10.80716072548171      1.66331367450037      0.35671236462052
  H   9.67136696661224      0.95180355932547     -0.84640464555594
  O   9.20604299873012      3.67721241946956      0.61885675412368
