48
Coordinates from ORCA-job 19_0.0
  C   2.44223186708680      0.97308671535657      0.49981974427968
  C   2.49479595801429     -0.42133499212323      0.23345886299006
  C   1.34574551005871     -1.20192330448340      0.10251141367116
  C   0.04823219532579     -0.59035765071401      0.23639172868718
  C   0.04426444635749      0.80354180893276      0.49568152775097
  C   1.21920435345929      1.59164748323780      0.63100385166817
  C   -1.13598429132962      1.57898231343395      0.65781476854550
  C   -2.35519333189358      0.94675513255060      0.56804042668358
  C   -2.39936182036284     -0.45073670256419      0.31388479080216
  C   -1.24611527554261     -1.21758221860658      0.14661938100087
  H   3.37870018005760      1.52936452139102      0.59976323885098
  H   3.47448876694446     -0.88821792887805      0.13387777394216
  H   -3.29429344351348      1.49456702200964      0.68726189546262
  H   -3.37610509564592     -0.92981439224463      0.24931258345454
  O   -1.27348893611049     -2.55011514792204     -0.09660186916588
  O   1.38146851954197     -2.53302944711066     -0.14631903882010
  C   -2.50884724819683     -3.21680368520280     -0.18465424902555
  H   -2.27896526016579     -4.27372514863317     -0.37883081435482
  H   -3.13143783218498     -2.82800337199961     -1.01201258778073
  H   -3.08693328239787     -3.14291636946358      0.75529250288333
  C   2.62093414694855     -3.18468515675332     -0.27872709751588
  H   2.39688046973548     -4.24348575720064     -0.46944238787744
  H   3.22972105267785     -3.10762511659510      0.64137176014244
  H   3.21028388549552     -2.78528651797830     -1.12511320911857
  C   -0.74125520573246      3.02057906607798      0.87028488633153
  C   0.82499243127781      3.02467743739361      0.91186793624939
  C   -0.71067065282367      3.94667462640034     -0.40437192294757
  H   -1.24817876426996      3.49398142447081      1.72608690934539
  C   0.86724841400093      4.04424639252383     -0.28521983396224
  H   1.29050103669106      3.41730118114199      1.83057658696023
  C   -1.52135020066180      5.20174683673195     -0.35180760738039
  H   -0.98685816273888      3.37581615362001     -1.30393535058578
  C   -2.42133759666981      5.57689082408232     -1.27157783430388
  C   -3.25113264232001      6.82580614553628     -1.22157200661075
  H   -3.04040742081297      7.42068862718518     -0.31881241647554
  H   -4.33091561109976      6.59120590572851     -1.23209464789753
  H   -3.06492418142179      7.46569230519062     -2.10296584933951
  H   -1.36711617523963      5.84874399276930      0.52261115811641
  H   -2.57571992702904      4.92715632194302     -2.14445601916189
  C   1.45551970696116      5.38283190713916      0.03483180081495
  H   1.36684132508488      3.63105174078100     -1.17493566558513
  C   2.38307624877272      6.01383113739987     -0.69818951640284
  C   2.98464293516664      7.35122025002616     -0.38075086328614
  H   2.80004344525794      8.07627153782380     -1.19390986012251
  H   4.08196743495244      7.28268975217198     -0.27033478562737
  H   2.57447736763332      7.77347478008014      0.55031602934754
  H   1.09704087749868      5.86844181210719      0.95349351670688
  H   2.74260978316245      5.52551775323581     -1.61479964133968
