42
Coordinates from ORCA-job 1_0.0
  C   -5.78969775809211      1.06665641329619     -1.61396413802694
  O   -7.01625835984104      1.04466859195087     -1.06026380215196
  C   -5.11349233552297     -0.28248704876903     -1.54623265675943
  C   -5.26485398480758     -1.19950579165198     -0.30737870432783
  C   -3.55928039989201     -0.30477429899361     -1.37683708019828
  H   -5.38575917221354     -0.81911278632903     -2.47138504745686
  C   -3.75323783811698     -1.52124860353292     -0.41313242405593
  H   -5.97072581755784     -2.03827642590302     -0.39559399463329
  H   -5.50178403176273     -0.62153554548255      0.59561844527090
  H   -3.55185608241378     -2.47209839520125     -0.92865106450632
  H   -3.17670440486782     -1.49234893949738      0.52250068771930
  C   -3.03852363509384      0.92243839790782     -0.66204586917776
  H   -2.97529385527824     -0.47736786477548     -2.28953766981992
  O   -5.30602567397540      2.04720574689933     -2.12503749998500
  O   -3.47790972085501      1.33797978584178      0.38554981367182
  O   -2.01282303774616      1.49389385764986     -1.32035569144697
  C   -7.73932225579775      2.28042373387416     -1.06684524960330
  C   -9.04647443412284      2.02832034188614     -0.34135797908193
  H   -7.91515894880104      2.61156704213131     -2.10304989037531
  H   -7.14872036369942      3.06300641438773     -0.56514341836457
  C   -1.48657909430291      2.71395366894384     -0.78506987993423
  C   -0.42218664870684      2.42268838812528      0.26246352426004
  H   -2.29913258011102      3.31364968939651     -0.35076619252501
  H   -1.04827810757094      3.25171001311479     -1.63744922411093
  O   -9.75332253406934      3.27101615018097     -0.34829578568810
  H   -8.87072464864974      1.69400520841726      0.69386928608169
  H   -9.64068099688788      1.24759057476894     -0.84336638909176
  O   0.11500125204501      3.69035805336519      0.65170547815185
  H   0.37509949923434      1.78156200716025     -0.14803279750409
  H   -0.85392240089437      1.91145171407474      1.13663488726541
  C   -10.96739435065146      3.28296521486896      0.24941082383674
  C   -11.59801562653985      4.65115648415896      0.16537143126378
  H   -10.93169959114528      5.40289314860457      0.61601505863659
  H   -12.56433024468600      4.64252097238307      0.68374765592029
  H   -11.74005635475324      4.93381530459777     -0.88959968914236
  C   1.08951454516824      3.67434019394992      1.58943856194549
  C   1.55350772996337      5.07387813307937      1.91108903328902
  H   1.98380066495565      5.54075089756242      1.01092745893138
  H   2.30607340371763      5.03719537980470      2.70792982583093
  H   0.69905649871055      5.69441750495218      2.22222783307235
  O   -11.45278596071967      2.31081507232716      0.76899821485885
  O   1.51186765635206      2.65889160047416      2.08103411796165
