71
Coordinates from ORCA-job 2003_0.0
  C   -2.07120227737041     -4.26104290754579      1.34642154382526
  C   -2.94535413309687     -3.33138661688534      0.76007455867622
  H   -3.08753643503618     -2.37000939615795      1.25781737804781
  C   -3.60199568353901     -3.65025517139549     -0.42261940770249
  C   -3.38782350818799     -4.89751465708220     -1.02875514923231
  H   -3.90049747852614     -5.15507533010896     -1.95827590787473
  C   -2.51862188399491     -5.80940959465313     -0.43695437367781
  H   -2.35362181845388     -6.78187173135322     -0.90764285500692
  C   -1.84435735998627     -5.51463696471532      0.76201677046238
  C   0.93914361781572     -4.91719920418068      5.01611339650658
  C   0.01114333325728     -4.16709263712569      4.29618919784503
  H   -0.28189340512925     -3.16443184931233      4.61738224760175
  C   -0.57809864370618     -4.68260354411182      3.13114631408930
  C   -0.26152638674853     -5.96250554286826      2.66080190004347
  C   0.66837023230378     -6.71170206590176      3.40440638450493
  H   0.92850012920841     -7.71596037183815      3.06036069726677
  C   1.26277523526199     -6.20834265592870      4.55569957481344
  H   1.97886703805593     -6.80942803834649      5.11896614723113
  C   0.12922955621138     -7.06906897502533      0.41854148497562
  C   -0.01123268755118     -8.44674608786915      0.25181962194313
  C   0.82610911097412     -9.17550846412833     -0.59349468898564
  H   0.69139706285065    -10.25459404191214     -0.70118886597349
  C   1.82521441317474     -8.48094015381284     -1.28159133977932
  H   2.50119738541932     -9.01761558403328     -1.95239439540285
  C   1.96951502928488     -7.09304559986819     -1.11759216818558
  H   2.75716961632731     -6.56687847092334     -1.66370024471180
  C   1.12329094508776     -6.37149668938862     -0.26585525090895
  H   1.24526980139525     -5.29217085567800     -0.14347668092398
  O   -1.46840845678818     -3.85947647897444      2.50394509257401
  C   -0.91755470619017     -6.54722301442728      1.40875274092688
  N   -1.64301479006942     -7.80298316611942      1.72743896679974
  C   -1.13775558283156     -8.92735548390814      1.10065372233104
  O   -1.55343770588114    -10.06254313017279      1.24423896868838
  C   -2.70994240530547     -7.90006486588719      2.70418511522590
  C   -4.09144859080126     -8.02255103232950      2.06471467243880
  H   -2.67909722414319     -7.01714546486696      3.36096583005826
  H   -2.53387146757209     -8.78973409601393      3.33011018305656
  O   -5.03091033374078     -8.12062247969441      3.14357324210604
  H   -4.14866862102742     -8.92515898654409      1.43656845146997
  H   -4.33439121231708     -7.15243569994505      1.43599330156074
  C   -6.33847189807974     -8.16857271342712      2.81202523535079
  O   -6.73503067647363     -8.12352257399622      1.67466298615386
  C   -7.20488507236759     -8.28577421721227      4.04333801951072
  C   1.62744110399686     -4.32237679418840      6.23173270825483
  N   1.87178811365944     -5.27622439202562      7.30721680246752
  C   4.31651747088544     -5.15377229805730      7.66178744360527
  C   0.63963128423161     -5.68123298816683      7.98921542725832
  C   2.92984587084111     -4.84080919729726      8.21151224465442
  H   -8.26194639489790     -8.28072177129187      3.75115767968871
  H   -6.99682055986722     -7.45338981126730      4.73329362460131
  H   -6.96818017559748     -9.21858356043843      4.57912393149956
  H   -4.28365848291766     -2.92638607957534     -0.87638234615823
  H   2.82353981263412     -5.36369149836664      9.17326852867193
  H   2.86711082440156     -3.75450219447717      8.44368595124579
  H   1.04753658335446     -3.43913104981633      6.58469505462309
  H   2.60208659982679     -3.92375490869536      5.90163536887194
  C   0.74326302541982     -7.02969550299114      8.69768948913052
  H   -0.15160195246617     -5.74759325968590      7.22609886501699
  H   0.30614595497423     -4.89738432199221      8.70787589371936
  H   0.99986519567116     -7.82630984053085      7.98169409617803
  H   -0.21757242587808     -7.28600572750523      9.17256058719312
  H   1.50865015837492     -7.02843149821803      9.49029624445531
  O   5.27104822407873     -4.65677117814859      8.60974904175532
  H   4.49924976334255     -4.68650955222738      6.68115203238770
  H   4.44863476023888     -6.24039817661298      7.53119294763995
  C   6.56756700878253     -4.65931956800577      8.23168938763832
  C   7.45272065428088     -4.11584730205427      9.32739945920606
  H   7.16369823528880     -3.07962821054676      9.56355382100676
  H   8.50017193391274     -4.14845027624855      9.00428426897890
  H   7.32103978578506     -4.70674230492456     10.24710832936158
  O   6.94078556592985     -5.04746013097416      7.15312069932870
