85
Coordinates from ORCA-job 2004_0.0
  C   -2.49126678214755     -4.17580881134051      1.74028555337808
  C   -3.46329965717152     -3.26244382621360      1.31505349371426
  H   -3.56564591511374     -2.35817644138806      1.90956229421010
  C   -4.25837637771189     -3.51713269678689      0.17720125730169
  C   -3.98551357183093     -4.72492809055910     -0.52939095741353
  H   -4.53990233441811     -4.98216224937654     -1.42962776255780
  C   -3.01259012561170     -5.60694843784100     -0.08639347467285
  H   -2.84331868767619     -6.52507499277831     -0.65519650463044
  C   -2.23603404667274     -5.37182891119528      1.06249330000939
  C   0.87359729256106     -4.86317076664935      5.08547732641652
  C   -0.15457725477247     -4.12979731349300      4.49654098018818
  H   -0.47877414253063     -3.17158685624373      4.91024683841760
  C   -0.81197814218532     -4.60525308843988      3.35011397182639
  C   -0.46092189512233     -5.82950697204740      2.76766926509954
  C   0.57358427682362     -6.56189069952716      3.37841369055160
  H   0.86205965609490     -7.52258675386353      2.94430659351168
  C   1.23307451219948     -6.09801245991065      4.51078439933638
  H   2.02733236981740     -6.68829595521864      4.97157026103520
  C   -0.20707014738225     -6.75510625619552      0.42524427315952
  C   -0.25784504328345     -8.12786611319825      0.18261155290426
  C   0.54601887795638     -8.73614770358944     -0.78202513929905
  H   0.48284308386602     -9.81458601360096     -0.94693716035296
  C   1.41701935714098     -7.92424943115578     -1.51436452710474
  H   2.06243916278095     -8.36469420352059     -2.27891155896374
  C   1.46980355215204     -6.54057732404465     -1.27553696289040
  H   2.15653644217832     -5.92086468323110     -1.85866292080914
  C   0.65852891169047     -5.94109415218749     -0.30370202534396
  H   0.70560750783068     -4.86373827282108     -0.12524803481789
  O   -1.80106132243916     -3.80286957227711      2.86194765881935
  C   -1.19105387336450     -6.37533352815348      1.53743201477181
  N   -1.79137115397295     -7.70516423926836      1.83109915048318
  C   -1.26341929736872     -8.74578781336074      1.09264626611925
  O   -1.57856850883930     -9.91815373307261      1.19514894897659
  C   -2.76821986695030     -7.94068473270632      2.87507485833847
  C   -4.17829058798145     -8.14897135124198      2.32735451045342
  H   -2.75741607184005     -7.09112983494451      3.57462644927472
  H   -2.47660938584516     -8.84298715640088      3.43687241445299
  O   -5.01715106037399     -8.42747655637273      3.45792664993669
  H   -4.19938434536269     -9.00075612225853      1.63009933274887
  H   -4.55097058679174     -7.26023264019885      1.79572710818822
  C   -6.33063887176886     -8.61034051676039      3.21263559404374
  O   -6.81661869067928     -8.53611194133255      2.11165687530006
  C   -7.08031982299354     -8.92664082556032      4.48546979599382
  C   1.62019414745275     -4.31217296295076      6.28701972516504
  N   1.94623055907653     -5.31301716074330      7.29710129702845
  C   4.39777020530957     -5.11264960176953      7.57488714229477
  C   0.76094665764094     -5.80676292131646      8.00272920029164
  C   3.01993106375407     -4.88270196357290      8.18468905540712
  H   -8.15594599073857     -8.97570877775713      4.27682688055396
  H   -6.87267020059811     -8.16410728665230      5.25160798590846
  H   -6.73560230445783     -9.89317678508403      4.88662258258279
  H   2.96927226015846     -5.45755119933675      9.12106492656371
  H   2.92394014885128     -3.81297106186202      8.47542062956281
  H   1.04193722224524     -3.46296638543765      6.71813438034453
  H   2.56582892284647     -3.87367638351619      5.92457052736009
  C   0.94776126427868     -7.18850373398974      8.62496637240186
  H   -0.05887468795839     -5.86224274811059      7.26975697452626
  H   0.42822978645639     -5.08049254063763      8.78005476695638
  H   1.20639349167015     -7.93023523931091      7.85293450664804
  H   0.01829046797257     -7.51290639007696      9.12033300369193
  H   1.74451160739610     -7.20135326226872      9.38614869447263
  O   5.36326750625138     -4.63626316723509      8.52299482076651
  H   4.53243982443143     -4.58154755190354      6.61914808996005
  H   4.56335248563727     -6.18393500367424      7.37564684811616
  C   6.65483791114186     -4.62941439102774      8.13003753747590
  C   7.55514828285215     -4.12694328630619      9.23331730485054
  H   7.20783326644349     -3.14610117593081      9.59253048378883
  H   8.58505345135561     -4.05463302401990      8.86339546186359
  H   7.51491913018535     -4.81925296462288     10.08941630282323
  O   7.01512108277999     -4.98747565101999      7.03677067737288
  N   -5.25633088028332     -2.63956334772171     -0.22376814925734
  C   -5.41205738849808     -1.38659349766766      0.51794654797856
  C   -6.65089221837578     -0.56288441584768      0.17948546013044
  H   -4.51016491406411     -0.75023691484034      0.39790295118881
  H   -5.46240430011737     -1.63471833070737      1.59127182331179
  H   -6.63969097677162     -0.16732544480940     -0.84777611011639
  H   -6.69199123352013      0.30229126635856      0.85970777432345
  H   -7.57852311707373     -1.14027186901157      0.32025567390153
  C   -5.88098744666821     -2.79009473131986     -1.53422167889266
  C   -5.04601095546150     -2.26644251678436     -2.70925136229621
  H   -6.85092921478037     -2.27626117410091     -1.51438016447580
  H   -6.13028724541317     -3.85059770105197     -1.69012568520389
  H   -4.84107521729097     -1.18835045976790     -2.60431084790054
  H   -5.58131734564748     -2.41690847385218     -3.66140194207171
  H   -4.07783254135851     -2.78668972841377     -2.77762611950403
