77
Coordinates from ORCA-job 2006_0.0
  C   -2.18177419077140     -4.19700058319932      1.45465947380729
  C   -3.10265792139735     -3.23799585217199      0.91504246749297
  C   -3.79239381758491     -3.56367636266215     -0.29586244198851
  C   -3.53723149014184     -4.82048989386575     -0.92038478415502
  H   -4.06275647936841     -5.07017963895446     -1.84546957475131
  C   -2.64612740661294     -5.70687023999821     -0.36798700155508
  H   -2.46228968528069     -6.66658196276220     -0.85648508785758
  C   -1.94606607500851     -5.41404964288457      0.83922591693454
  C   0.91937396802947     -4.88856223798945      5.04075561743295
  C   -0.03881861242068     -4.13712627866677      4.36301996138960
  H   -0.34600617995046     -3.15181396828720      4.72229331946770
  C   -0.64040840666340     -4.63195285376110      3.19559259544298
  C   -0.30806770628341     -5.88927369226763      2.68043674386255
  C   0.65474972135350     -6.63952023479596      3.37976677831599
  H   0.92882554465397     -7.62697888867244      2.99985962159360
  C   1.26178295221239     -6.15737343045146      4.53351047537609
  H   2.00200154801556     -6.75927010985405      5.06383791244964
  C   0.03265687434196     -6.93661608590387      0.40119117894610
  C   -0.09510194598738     -8.31250641211416      0.20966678446875
  C   0.72672663395554     -9.01235629777042     -0.67434114948605
  H   0.60294452302480    -10.09073782137054     -0.80057358309590
  C   1.69555988545380     -8.29000087876187     -1.37705977226392
  H   2.35821955834947     -8.80353799084885     -2.07857623792444
  C   1.82608893063260     -6.90379985803435     -1.18915560948247
  H   2.58958979139665     -6.35582945170213     -1.74794223766576
  C   0.99601834722586     -6.21143329393804     -0.29814093262288
  H   1.10605433963932     -5.13304576661485     -0.15750411655157
  O   -1.56294896476059     -3.81380317747430      2.60865010887154
  C   -0.99039184448345     -6.44912702444036      1.43242334197891
  N   -1.69474578532717     -7.72057992946860      1.74066622175359
  C   -1.19137730708433     -8.82548116336925      1.07889373387729
  O   -1.58740388651802     -9.96910935527501      1.21085634155241
  C   -2.73203117278144     -7.84958101365618      2.74517958278709
  C   -4.12736373323909     -7.99113341149666      2.14165597310765
  H   -2.70056462738474     -6.97212624795352      3.40903313386555
  H   -2.52206768785932     -8.74124345171309      3.35781328832587
  O   -5.03617558003225     -8.10309890920760      3.24507255235945
  H   -4.18878050927180     -8.89291375306463      1.51295807415553
  H   -4.39761055412678     -7.12295800604724      1.52102533602217
  C   -6.34932852545587     -8.19619936625557      2.94647892196511
  O   -6.77420929648792     -8.17958861405960      1.81869356363177
  C   -7.18173604954006     -8.32767553928232      4.19965837443504
  C   1.61544192416700     -4.32075978681446      6.26467407446745
  N   1.86937980184862     -5.30064401073340      7.31415401775233
  C   4.31349252058789     -5.16956424217842      7.67067199355680
  C   0.64223064227955     -5.73521695251721      7.98687296956046
  C   2.92481197613795     -4.88023315286276      8.22833147551307
  H   -8.24600787455654     -8.33502229054771      3.93497937660258
  H   -6.96533922571642     -7.49697207548090      4.88880324265254
  H   -6.92087330800636     -9.26097625087572      4.72358175838855
  H   2.82289976194867     -5.42713246660831      9.17707149758849
  H   2.85443198138445     -3.80046150329943      8.48728266957566
  H   1.03517291881302     -3.44843510662362      6.64338859009307
  H   2.58683888154751     -3.91127941410093      5.93839725341197
  C   0.75904717666998     -7.10249173174878      8.65613975593674
  H   -0.15038618924587     -5.78676580809665      7.22414140226067
  H   0.30374053853663     -4.97519504908158      8.72845019477342
  H   1.01977712865263     -7.87611678737552      7.91680782673075
  H   -0.19809360678022     -7.38032177719315      9.12635502045722
  H   1.52690527468882     -7.11769190238489      9.44621950947564
  O   5.26447643364282     -4.68558056642009      8.62877899670123
  H   4.49111351738498     -4.67919137371886      6.70040851875326
  H   4.45445955170095     -6.25187766799701      7.51595460011332
  C   6.56211769649700     -4.68150203404295      8.25448811524237
  C   7.44386848532760     -4.15452449583737      9.36090715568815
  H   7.14664404808986     -3.12629343405283      9.62041622988071
  H   8.49131844190106     -4.17213855522168      9.03667253109888
  H   7.31781643758935     -4.76676830825932     10.26741953084758
  O   6.93863077728468     -5.05404453050655      7.17158797434516
  C   -4.70934836223678     -2.61951370523699     -0.83282789401247
  C   -3.34931330091424     -1.98852411107011      1.54366059850610
  C   -4.24721793223522     -1.09392175122081      0.99390976030194
  C   -4.93335954908768     -1.41130622939358     -0.20319641483642
  H   -5.64271382439109     -0.69594322013396     -0.62770806404329
  H   -5.23802947204662     -2.86964887809213     -1.75683594995881
  H   -2.81934431897698     -1.74825060206303      2.46611431977301
  H   -4.42997612894762     -0.13467153714125      1.48530249653247
