118
Coordinates from ORCA-job 2007_0.0
  C   -2.69284959700907     -4.29860992721311      2.22481221373193
  C   -3.69216030217688     -3.38729500132421      1.62666858229445
  C   -3.73312882046282     -3.13809306875910      0.28262221584622
  C   -2.43326349649410     -5.54515385610809      1.78679235197960
  C   0.49330167527150     -4.43907966020052      5.79097690397717
  C   -0.49716869903656     -3.80207756302755      5.04410573408026
  H   -0.84479334473508     -2.79685032976692      5.29479612939432
  C   -1.08174906184203     -4.44176770446035      3.94187618512506
  C   -0.70856884424274     -5.73821182084513      3.56720740936134
  C   0.28364065335672     -6.37200412971816      4.33424685344005
  H   0.59458874153840     -7.38352247635410      4.05979329828172
  C   0.87755789950223     -5.74307103781156      5.42425084072818
  H   1.64386334430620     -6.25144123813878      6.01218815660177
  C   -0.25107934032903     -6.64480810311972      1.27163956934937
  C   -0.11123796794878     -8.00309791438181      1.00557729478227
  C   0.81187447104202     -8.48182971979342      0.07450975295405
  H   0.89621944222036     -9.55529302423062     -0.11149654117221
  C   1.60593844025931     -7.54815398635094     -0.59689620717986
  H   2.34015416544900     -7.88395046289646     -1.33397922685805
  C   1.46849835935467     -6.17474203142711     -0.33144112476149
  H   2.09920499118839     -5.45903461065185     -0.86619445453340
  C   0.53957334678475     -5.70779778746399      0.60668976169975
  H   0.44244102672107     -4.63826858458290      0.81116962662550
  O   -2.02499077850016     -3.71832999637047      3.26400761172623
  C   -1.32841232621475     -6.41392726073376      2.33960376676571
  N   -1.76536152698958     -7.81653224561927      2.60323305009122
  C   -1.07777459284724     -8.75979825810975      1.84052214771946
  O   -1.25880208831867     -9.96157488405049      1.86587563000601
  C   -2.89824723034879     -8.29244185018081      3.38526646306763
  C   -4.25048443381854     -8.27599753843475      2.66707959133125
  O   -4.14439953876355     -8.17236621808329      1.33142054604427
  C   1.18923965324651     -3.70640833250956      6.92580648428690
  N   1.60452555917759     -4.56116201498833      8.02765535203417
  C   4.07918659766794     -4.27679865872971      8.10713242749881
  C   0.47989636929827     -4.99015048742914      8.86140008182612
  C   2.72867684976859     -4.01358617894137      8.78389636780967
  H   2.74058822450787     -4.48930727128548      9.77398429974546
  H   2.59838676942244     -2.92063236744019      8.96639961238731
  H   0.54312729441659     -2.86576374631711      7.26904118207053
  H   2.09138178319610     -3.22952657911447      6.50503437274982
  C   0.74051343951752     -6.28780279095639      9.62360706956757
  H   -0.38575529853704     -5.14229965691520      8.19706239644643
  H   0.18035020080103     -4.18474250503301      9.57176612452184
  H   0.95464870298747     -7.11164222886285      8.92459804492313
  H   -0.14337256544022     -6.56221205858606     10.22228358020001
  H   1.59423687464564     -6.20632733165991     10.31532823398038
  C   5.27156842722034     -3.60747209461860      8.80761388497482
  H   4.05108691882025     -3.91212483664990      7.06685645534062
  H   4.23730892299980     -5.36338310200789      8.05420813498764
  C   -4.68211908442796     -2.23074442128257     -0.28396307567462
  C   -4.66883169946147     -2.74871358095200      2.52653200186696
  O   -5.54510205270518     -1.84547181195208      1.92623495297579
  C   -5.57566459107067     -1.57983840955942      0.59545589601467
  O   -5.30342279639741     -8.43704428527514      3.23571292054781
  C   -5.35946444304803     -8.31291432565488      0.59253008218847
  H   -5.81007167289710     -9.30061412400034      0.77302194986045
  H   -5.08793963822517     -8.20695654716738     -0.46535687003422
  H   -6.08620200500333     -7.53916655681088      0.88346455091866
  H   -3.02236708231153     -5.95659346280304      0.96907676445295
  H   -3.00481228269880     -3.62101369686915     -0.37578645729845
  C   -6.51131245258913     -0.65141732732390      0.14980558454906
  C   -4.77975789409503     -1.90267496179889     -1.65304396674979
  C   -5.70153706374020     -0.98277574953125     -2.11793788592304
  C   -6.59293967205873     -0.31035796041533     -1.22287322189397
  H   -4.10625840183297     -2.39222256295873     -2.36238590592568
  H   -5.73540767731684     -0.77906382030882     -3.18632439531913
  H   -7.16086741740009     -0.20839787214364      0.90106277572500
  O   -4.79147256875247     -2.94089060960534      3.70617583691252
  N   -7.48193647370624      0.64237483758796     -1.67457060377849
  C   -7.55645368479717      1.00252447122089     -3.08902888820947
  C   -8.41379607482309      0.07524952152375     -3.95817654248189
  H   -6.53575837694659      1.06497975120295     -3.50041643921313
  H   -7.95816389134860      2.02669467511381     -3.14236010129756
  H   -8.04699199505632     -0.96248682977544     -3.92682122397648
  H   -8.39264595905659      0.41184731766939     -5.00785178871901
  H   -9.46368314438898      0.07037022024532     -3.62658194787187
  C   -8.41309107667064      1.29739560104879     -0.75702810054933
  C   -9.68048222202307      0.49888261313674     -0.43027080252651
  H   -8.69458746254027      2.25987170443451     -1.21231060857396
  H   -7.88108457273999      1.55442565447624      0.17373035478709
  H   -10.28178275270636      0.31230137292726     -1.33358049359245
  H   -10.30685148030069      1.05843773423795      0.28359205405041
  H   -9.44099854588509     -0.47558039463163      0.02240220292262
  C   5.45246403861183     -4.15250332723300     10.22231256334034
  O   6.02686777937291     -3.25346952526013     11.04117747901195
  C   6.32395521539596     -3.70568545872935     12.36575758602137
  H   7.02738149575519     -4.55141660900134     12.33424997690477
  H   5.40749619238953     -4.02949149242076     12.88201687675962
  H   6.77463416600799     -2.85135196484688     12.88618855069001
  O   5.13633308824602     -5.26310043116060     10.57693087504423
  O   7.98918625715920     -5.49277770375699      8.92222398893561
  H   8.16500017636044     -7.43152821941869      7.12586988608114
  C   7.17734756735980     -5.14801097990211      8.09758655121273
  O   6.65996810186117     -5.98041142922226      7.17638377101723
  C   7.07523019251236     -7.34724496911753      7.25513257156321
  H   6.55223482090854     -7.87222959862738      6.44605872918825
  H   6.80332202145731     -7.77727464150086      8.23087145932760
  C   6.60283044554541     -3.73846644796532      7.98490831780112
  H   5.08122970511161     -2.52499433627475      8.90028225881287
  C   7.66199633225637     -2.70360905778186      8.37854491114448
  H   6.31927508286519     -3.58820322483968      6.93118513044183
  H   8.54166356461074     -2.77921718808171      7.72038932265903
  H   7.99990360326890     -2.85584421372552      9.41192139356007
  H   7.25509244507402     -1.68412696680833      8.29113591310038
  H   -5.11129209991901     -9.10158167803251      8.52854104324862
  O   -4.15463548831591     -8.57978304005455      6.81758821584004
  C   -4.63580676028124     -9.61015099124168      7.68017580901271
  H   -3.80888643947238    -10.24766548898642      8.02960249419243
  C   -3.53442117867028     -8.98549565361180      5.69799833461840
  H   -5.36635931653833    -10.24527509020191      7.15640409833852
  O   -3.36078343344723    -10.15116240347051      5.43290589572923
  C   -3.02229328019227     -7.80935819376768      4.85558912602266
  H   -2.69895929717023     -9.37855775118782      3.45872269719933
  C   -3.80297694851650     -6.51171572792807      5.10886408643190
  H   -1.98497707329377     -7.66962255851909      5.20693069206865
  H   -4.87459273624368     -6.65091618759766      4.91602814744142
  H   -3.44930188884113     -5.69185306447892      4.47351884268855
  H   -3.68614743283919     -6.19868601699608      6.15499555853364
