92
Coordinates from ORCA-job 2009_0.0
  C   -3.59691215697099     -3.80154414279382      1.90893735744853
  C   -4.85582631890427     -3.18563770213510      1.89601666433296
  H   -5.08261653710822     -2.44647045865441      2.66864313650966
  C   -5.80583517636554     -3.54694191279994      0.94269756688439
  C   -5.49575114856464     -4.51996334966756     -0.03827197784773
  C   -4.22493973101590     -5.10404227350520      0.00311579795619
  H   -3.99634125618415     -5.87282946186375     -0.73688622207359
  C   -3.25719780151846     -4.77421619178965      0.95965967833357
  C   0.34418457107956     -4.35609552897681      4.55874531625069
  C   -0.85766675374868     -3.72063793409829      4.24806359575864
  H   -1.27382267383432     -2.94406317917698      4.89456293947169
  C   -1.57593269433993     -4.07545519882086      3.09734240961350
  C   -1.11667140185970     -5.07023510565305      2.22660554814589
  C   0.09105037362486     -5.71029207691289      2.55834859410030
  H   0.46393959919810     -6.50203983497013      1.90410472674601
  C   0.81062507716729     -5.36719783450276      3.69755641175625
  H   1.73835951263908     -5.88584683881500      3.94571438677178
  C   -1.08223026481553     -5.10690922616501     -0.30477638777560
  C   -0.76086935301547     -6.27508430733024     -0.99737533721531
  C   -0.02783284415085     -6.24443055904888     -2.18364715974845
  H   0.20951222331607     -7.17606539098725     -2.70316797351989
  C   0.38200195505473     -4.99908090080969     -2.67027407549079
  H   0.95737397432070     -4.93747268248722     -3.59776741617602
  C   0.05929097661621     -3.82172725537291     -1.97608446374907
  H   0.38668519356649     -2.85674583830775     -2.37255558376836
  C   -0.67579549777882     -3.86325870065282     -0.78391719860589
  H   -0.92147112083220     -2.94174114968350     -0.24934362849456
  O   -2.74957073988968     -3.39648321646935      2.89411564883714
  C   -1.88570558736243     -5.44670928194413      0.95537230962047
  N   -1.98088073344461     -6.91987841226713      0.82288579282410
  C   -1.29539762383257     -7.45639919522355     -0.25955146907471
  O   -1.19536108465318     -8.63363229233725     -0.53460996427064
  N   -2.49727085003335     -7.73861004534026      1.81831641039141
  C   -3.83678804098568     -8.26331741160220      1.56114420109341
  O   -4.29755075752903     -8.72465388674932      2.79863471009979
  H   -3.75444891431127     -9.08585155755195      0.82177897282707
  H   -4.53346217857664     -7.50339066913221      1.14453752838570
  C   -5.57305686574833     -9.32852956973343      2.74723475985206
  C   -5.98139593713988     -9.73312389964542      4.15172493160233
  C   1.15100089074646     -3.93525900992810      5.77466709283680
  N   1.77459576471978     -5.04423513129663      6.48285728106862
  C   4.17287196378258     -4.31209097949532      6.51262399645771
  C   0.79574990522877     -5.85705147138152      7.20854694859705
  C   2.90638484709601     -4.62398877099645      7.30887392221875
  H   -6.97327896606200    -10.21226775444035      4.14203291817877
  H   -6.02628202001154     -8.85218699883213      4.81175709494321
  H   -5.25469370512777    -10.44299933154841      4.57724372709572
  H   3.13417118837765     -5.44238215566821      8.00819901409065
  H   2.63490964304380     -3.75010553418969      7.94675422149134
  H   0.50782683305114     -3.31911796131179      6.44522512187904
  H   1.94983783015074     -3.25918210299188      5.42624604349329
  C   1.25783317331533     -7.28707215498004      7.48190654166584
  H   -0.11812343201726     -5.90097624935635      6.59528121507591
  H   0.49870803977101     -5.36379311328496      8.16366395756315
  H   1.49786598341701     -7.80326767314954      6.53909230111395
  H   0.46211647633660     -7.85258975702720      7.99337048997283
  H   2.15109314627796     -7.32660215069954      8.12579892974842
  O   -7.05275110705798     -3.00512588630886      0.93892068055442
  H   4.03572571836759     -3.47114411532902      5.81387743464207
  H   4.48647304831815     -5.18973204574945      5.92561892064643
  H   4.99454308301528     -4.03720689330703      7.19392797737199
  H   -5.54825527282059    -10.21532288502516      2.07977481880749
  H   -6.31357826423577     -8.62534504168197      2.31201777552695
  H   -2.46198569201441     -7.26818879377268      2.72215122998516
  H   -7.15675241628971     -2.41946151668815      1.70100522306189
  C   -6.48949769155187     -5.07649998630020     -0.98272827418857
  N   -6.69227071031520     -6.37298121088735     -1.08465907274588
  N   -7.27963710750884     -4.33518484274956     -1.85227424637797
  C   -8.04127290199672     -5.25415678814574     -2.55709932261032
  C   -7.65840690446804     -6.52503638760736     -2.05598366123713
  C   -8.26212562516331     -7.68888466957458     -2.55990873244229
  C   -9.00879018591857     -5.10966368619354     -3.56031747353085
  C   -9.59461934455329     -6.27840868676855     -4.04772671553744
  C   -9.22736523370860     -7.54991070123252     -3.55455232122089
  H   -9.29800989850047     -4.13158518393081     -3.95185819209567
  H   -10.35451671601401     -6.20788404781673     -4.83050946937302
  H   -9.71142945331422     -8.43949088943723     -3.96600242950900
  H   -7.97010866154152     -8.66784352448547     -2.17339811595375
  C   -7.20083338950672     -2.91464456582729     -2.15990834369531
  C   -6.28940723812417     -2.60066698932528     -3.35179461871151
  H   -6.86738501662335     -2.38692281790787     -1.25810064916943
  H   -8.22703699376731     -2.56099894183300     -2.35858559101281
  C   -6.24377778648233     -1.11138082469173     -3.66605350255140
  H   -6.63471695544087     -3.13930607150979     -4.24940360609516
  H   -5.26603385841442     -2.95361407709082     -3.14261879988298
  O   -5.42104787678955     -0.90902337807923     -4.78617655153569
  H   -5.85895081832221     -0.54338053608724     -2.78972902426944
  H   -7.27000267073547     -0.72654184439331     -3.86090093474701
  C   -5.29359783085681      0.43466224392621     -5.16508915539864
  H   -6.27017553441440      0.88573780316536     -5.43889299799732
  H   -4.63175241408914      0.47608365824207     -6.04290755090735
  H   -4.84920925332571      1.05515689896032     -4.35909606309371
