74
Coordinates from ORCA-job 2010_0.0
  C   0.65943162752870     -5.15754182536179      3.69086662145624
  C   -0.64770379959987     -5.65781270784991      3.80907186994353
  H   -1.30297935610934     -5.23239900600699      4.57186664131703
  C   -1.09831025212978     -6.67669735511109      2.97735961136787
  C   -0.23685384385317     -7.21318774526660      2.00487006658259
  C   1.06839824043269     -6.71372308354909      1.86758473500285
  H   1.73256489936117     -7.11539144036251      1.10494510484463
  C   1.50847629979387     -5.69483040311677      2.71220780979261
  H   2.52142515199777     -5.30395189304269      2.60784376020113
  C   1.08511401605306     -4.06927677433307      4.61829096936132
  O   2.35296627423092     -3.66572770909898      4.39512774415154
  C   2.83950721814406     -2.62442029877389      5.23994069806924
  H   2.22756906541804     -1.71529358542858      5.13412793278805
  H   3.87108875938200     -2.42780409575320      4.92139556942898
  H   2.81800257761641     -2.93381565031295      6.29639476032232
  H   -2.11130502765065     -7.06905713659477      3.05904617236508
  O   0.38445667205473     -3.59061903986717      5.48065607007150
  N   -0.72211429684716     -8.25531809508020      1.16978939273870
  C   -0.04207054018477     -9.17706098070354      0.41384544666829
  N   -2.05649321967206     -8.47709820643427      1.08435655545986
  C   -2.20271814593451     -9.52193440342089      0.28893242600298
  C   -0.95712821519139    -10.02045181041846     -0.18644646861310
  O   1.30000192267261     -9.21553621012049      0.33000484221373
  C   1.81248031691824    -10.43898177971941     -0.26059875302087
  C   0.96589462666562    -10.88279547576250     -1.44858212998277
  C   -0.50221774376429    -11.17167562378150     -1.05802441822278
  H   1.42888417304427    -11.77710610751008     -1.88979599255375
  H   1.00208987614274    -10.08024959456825     -2.20208466259763
  C   -3.58554951285651    -10.03452130119565     -0.01053132732085
  F   -4.51958823046438     -9.38799758636125      0.68973302060989
  F   -3.88868732484087     -9.90006615472658     -1.31667321051943
  C   -1.34839049341805    -11.43573853178160     -2.27088730300896
  H   -0.52673992790600    -12.09644441659694     -0.45623122371505
  C   -1.45585670426084    -10.85479484694473     -3.50682257010580
  C   -2.48705371109620    -11.56931488125465     -4.20266093532993
  C   -2.92797693156502    -12.52826078131631     -3.33717682056953
  O   -2.24043498333491    -12.45878647920955     -2.17000513949736
  H   -0.88104919144588    -10.00942124075652     -3.88006408265270
  H   -2.85174244683829    -11.38773600132684     -5.21181692622749
  H   -3.68628850151309    -13.30434268421917     -3.40123711118457
  F   -3.68203036584004    -11.34587282164778      0.28122635393010
  O   1.84965269067237    -11.45692037654385      0.67529990606981
  H   2.83077531094885    -10.14958510041740     -0.57561222030085
  C   2.80351143432951    -11.31274877281041      1.71687260078383
  C   2.74996785251439    -12.58222100437986      2.54678180705234
  H   2.57927765052346    -10.42917941839645      2.33929932851676
  H   3.81854383710590    -11.18066125055402      1.29395282131093
  O   3.76254008331552    -12.46533795099914      3.55040604973277
  H   2.93510007209287    -13.46831941338555      1.91984301093160
  H   1.76119456604549    -12.70980568976290      3.01585139155333
  C   3.97791263824725    -13.55777143863916      4.31885110573139
  C   5.11192364011568    -13.33023367938537      5.33422557391861
  C   4.74621314575523    -12.12119907892278      6.22389042954353
  H   5.57272345713877    -11.88374070754145      6.91265132481758
  H   3.84901706463894    -12.32118386717627      6.82839909333895
  H   4.56399245036926    -11.23029524837543      5.60636401758087
  C   6.40328342547580    -13.02256752971520      4.54126514301186
  H   6.66932541708724    -13.85446609996611      3.86905045262012
  H   7.25145069838454    -12.85482629773957      5.22345678090368
  H   6.27980648828332    -12.11512229094793      3.93312646325912
  C   5.24961808255274    -14.65092820489975      6.14109918085295
  O   3.34640743314684    -14.57506407168761      4.18426414370539
  C   6.26275821503985    -14.61450331068678      7.28020372014718
  H   5.53094435691871    -15.44914091673184      5.44040062732464
  H   4.27275292548331    -14.93382574866711      6.55834142024328
  C   5.73409431787759    -13.98017389084902      8.56059558585032
  O   6.71676503351595    -13.34785512633083      9.22222259723973
  C   6.36280105352357    -12.77227471354346     10.48300936381745
  H   5.57061929734917    -12.01822056703521     10.35946824644239
  H   7.27675622833783    -12.30782097856876     10.87322725059255
  H   6.00274601120767    -13.54884935454393     11.17486557997269
  O   4.59053646787232    -14.03089126855350      8.93655170317873
  Br  6.78270791947153    -16.47031181556747      7.79199638479149
  H   7.21784178351826    -14.15055905198592      7.01126401589676
