44
Coordinates from ORCA-job 2013-2_0.0
  C   -0.47783324011499      2.33396239931383     -1.09280320559299
  C   -0.11624283129532      1.29218756069526     -2.18817584107069
  C   0.28170649944510     -0.06046167596748     -1.54245353364362
  C   0.93764128997697      2.69002605476542     -0.54409180422910
  C   1.82814402293599      1.76216266982217     -1.40123156923064
  C   1.66247929498860      0.30496229354705     -0.90561467921377
  N   -0.85655016341118      3.63978067019336     -1.62161505429851
  H   -1.21382210030650      1.95862032182918     -0.36888311780090
  N   0.12202211812365      4.55825349275124     -1.47427462404472
  N   1.12963259248979      4.11906261754928     -0.88145217449837
  H   1.09358209613977      2.54905407103028      0.53634695810857
  O   1.14460538498929      1.76053082832945     -2.65893492440554
  C   -2.10922431758972      4.00277290177378     -2.23461511730426
  C   -3.13382092280432      4.67532742326927     -1.32826346670655
  H   -2.55588758790863      3.08131651467378     -2.64621406375926
  H   -1.90157059244827      4.65728739697101     -3.09792986391734
  C   -2.93697524652158      4.81502521619549      0.05165830475598
  C   -3.91066244783675      5.41555815812149      0.85071693589865
  C   -5.10101941435387      5.89208875595790      0.28382361077206
  C   -5.30083769640685      5.76218541238279     -1.10106940636560
  C   -4.32474886261833      5.16149761934775     -1.89304364029385
  H   -3.76357000894161      5.52804521491090      1.92687404622313
  H   -2.00746449573933      4.46327539708952      0.50351026465411
  H   -6.22253386003309      6.13750569183319     -1.54797361711036
  H   -4.48928206348773      5.06851924429394     -2.97134442750860
  C   -6.10741934312296      6.52451236548852      1.18638071614563
  O   -7.20641681774132      6.94193975337254      0.52455337232598
  C   -8.21769570100472      7.56455760020051      1.31393771706372
  H   -8.59761226660399      6.87337295930358      2.08230938363690
  H   -9.02166820651296      7.84112606294581      0.62002956583936
  H   -7.82478979143268      8.46020913280259      1.81967789544037
  O   -5.97133695577690      6.65646706481408      2.38146917015325
  C   -0.75151848525551     -0.70226025540410     -0.64201147107148
  O   -0.22930195657956     -1.72832230237173      0.05140434296112
  C   -1.12672781703421     -2.44804939511856      0.90173478864425
  H   -1.53344352153249     -1.79051474086156      1.68533304482779
  H   -0.53782868806051     -3.25700887929246      1.35143436730346
  H   -1.96690402014415     -2.86029571233796      0.32280022608062
  O   -1.91357990333683     -0.37581995865415     -0.56885973531008
  H   -0.83268653293053      1.21930514733992     -3.01638592640798
  H   2.85750209856909      2.11918716677989     -1.52920609543656
  H   2.46415155242308     -0.34071328168598     -1.28875606759311
  H   1.66210558029161      0.22469706378063      0.19096434713116
  H   0.44967332851469     -0.78017604178170     -2.36089563115219
