98
Coordinates from ORCA-job 2017_0.0
  C   1.08251927878841      2.19865133495162      0.27243020059368
  C   1.87580569162390      1.40699454715884     -0.84472599957051
  C   1.78669752428377      2.21760832012450     -2.13108313374913
  C   2.01684704447928      3.40090247615351      0.49596633806208
  C   3.17966810268439      3.08738290646864     -0.53835123781010
  C   2.59249733110438      3.27008453204487     -1.94101014145919
  H   1.11816718200930      2.01090206478486     -2.96761470786736
  H   2.77266709839644      4.13486444144635     -2.57856409506987
  C   -0.25449805764473      2.80018247347854     -0.13368991814384
  H   0.95236223495979      1.56011109248650      1.15782456326488
  N   -0.11649513554959      4.19679780092585     -0.11261425185018
  C   1.17067426001978      4.63125666375031      0.21747715594420
  H   2.43944934392077      3.45752214306361      1.50967446306105
  O   -1.26531306526755      2.21657422814767     -0.44142776977276
  O   1.51689287417210      5.78883916581008      0.25571727972262
  O   3.21477356758564      1.66023988044197     -0.41806715991589
  C   -1.18763318047646      5.10136182764061     -0.50183594332738
  H   1.66455745128878      0.33273678171323     -0.89078829446682
  C   4.51189579823814      3.73890360062002     -0.20288871526646
  N   5.61296137514108      3.24935784657125     -1.01332445052184
  H   4.77010909916269      3.52006857250239      0.84302410037087
  H   4.41496275850201      4.82637234161273     -0.33848679401294
  C   5.93581611838675      3.75079174179728     -2.27171105263207
  C   7.20624198250674      3.03789424776171     -2.76402311618556
  C   6.49849777380666      2.26447197380930     -0.55750577190401
  C   7.43212516377503      1.93650459968780     -1.70895191370013
  H   7.14643421845580      0.93690547329503     -2.07537633773976
  H   8.46486029748991      1.85863739353442     -1.34184605429408
  O   6.48737650165448      1.79266376541062      0.55167286835883
  O   5.31028298742199      4.63370997667906     -2.81819296239799
  C   7.19215977145260      2.59723003196692     -4.26600142605338
  H   8.00761570837259      3.79314618783325     -2.66356752239510
  C   5.94395222212221      1.74312884744971     -4.56398146503768
  H   5.89576661375388      0.84001497905802     -3.93308599352033
  H   5.93813880755225      1.40817704763140     -5.61249646402703
  H   5.01967272797840      2.31904577398639     -4.40222562264210
  C   8.49312240533388      1.78235700035808     -4.52237163530089
  C   7.17868433489759      3.85808175517589     -5.15555572914140
  H   6.32985304975821      4.50724779528070     -4.90479292551081
  H   7.10444609499614      3.58783138975333     -6.21998946563555
  H   8.10473107298166      4.44319775641693     -5.02129465853460
  C   8.78341167113204      1.38465793450705     -5.97312370257518
  H   8.46809150794753      0.86367019462354     -3.91154650521893
  H   9.34728772656415      2.37258693318457     -4.14200841395639
  H   7.96996478341383      0.78487785541351     -6.41208307496445
  H   9.69917203313640      0.77385021502294     -6.02265486410092
  H   8.94064659694687      2.25997404175348     -6.62201738240834
  O   -4.60549911704680      5.13629569913371      1.18966373904443
  C   -1.83149509595678      5.79040987584042      0.71380157360504
  H   -5.93612879397411      6.79802407656177     -0.65974988781855
  C   -4.31304061986256      6.15762581363522      0.61268590695063
  N   -3.00083286960226      6.56821798307539      0.33641557811338
  H   -4.50207636142237      8.59539737984326     -1.50277157459206
  C   -5.25163592939651      7.22627873662009      0.08532757871422
  C   -2.92021980260413      7.83740333468832     -0.24853426371302
  O   -1.88534900020528      8.39531168495433     -0.52741520307297
  C   -4.34074757876303      8.34575729840462     -0.44435089524563
  H   -7.43057309888077      6.31785711002845      1.44507748601514
  O   -8.13186125746119      6.77571635952645     -1.20241115838633
  H   -7.72717781265244      7.67707916308722      2.57509916873113
  C   -7.47357876208766      7.41326456135617      1.53937505024107
  C   -6.10369860266545      8.00199022517267      1.17763689228387
  H   -10.67644624534204      7.18077192629860     -3.55718504595904
  C   -4.80383860889432      9.55816796464517      0.45873748171517
  O   -6.20528733180338      9.28063547082753      0.53766636371213
  H   -8.91352642506896      7.21681271209307     -3.32892438513897
  C   -8.80664777245715      7.57675258698667     -0.58977439449354
  C   -9.79072545523024      7.83909933774606     -3.54632850092356
  N   -8.56103523970297      7.93456655422755      0.72995691598288
  H   -4.61560166912451     10.55194134442245      0.03702010901074
  C   -5.14897547819906      8.31297983693243      2.33263356750803
  H   -9.67430868486197      8.26013861606028     -4.55661079135319
  C   -4.34357783818878      9.28361005594750      1.88380825391388
  H   -11.45466755158908      9.61590349586854     -4.94991862741786
  H   -10.64593429258316     11.09246543591263     -4.37609455600128
  H   -5.10485777828823      7.76873985907506      3.27695123206407
  C   -11.44390779709922     10.36822805375453     -4.14624393649785
  C   -10.06142085164698      8.32129989307192     -1.07323335892258
  C   -9.95046101342083      8.96075855830630     -2.49945074378341
  H   -3.47951077980496      9.73526411550209      2.37254902142233
  C   -9.45906981196229      8.88597052086738      1.22952766631419
  H   -10.84730061031508      7.54633552525947     -1.13277209800513
  C   -11.27330481771130      9.73854467198289     -2.76002880664933
  H   -12.40016815965697     10.91328090514187     -4.19861601579389
  O   -9.46109645785264      9.29522918948632      2.36384240421145
  H   -7.80006550896835      9.37647738576306     -2.33037749907094
  C   -10.38415043604890      9.27777700043263      0.09261221514848
  H   -12.11723839575621      9.04708282507961     -2.58027026490426
  C   -8.73500951445078      9.90786163343531     -2.56623546004442
  H   -8.62407080234127     10.33412562086423     -3.57489106114887
  H   -10.16816146163759     10.33086054253254     -0.14710751362281
  H   -11.37545974020908     10.53828410984709     -2.00670708554183
  H   -11.42762791353787      9.23993794126188      0.43669844193026
  H   -8.82672825134734     10.75190507804124     -1.86329619616509
  H   -1.93564563677435      4.49528588178821     -1.03233020194784
  H   -0.77441305019905      5.86377871096989     -1.17861556610057
  H   -2.17234004584424      5.03770413281697      1.43885948617053
  H   -1.09803461875915      6.46106325153298      1.18554866281475
