40
Coordinates from ORCA-job 2024_0.0
  C   -1.04847936682781      1.79569813661087     -1.69824761724182
  C   -0.13506853649942      0.61231668019171     -2.14272546044375
  C   0.70365159411823      1.15381818711970     -3.30110445320482
  C   -0.07959431140411      2.87721413381356     -1.16249938302333
  C   1.34945934484199      2.27032093504103     -1.33745728591263
  C   1.54122653935359      2.09456890896298     -2.83755008041636
  H   2.20805434185330      2.71886708433788     -3.43680401128664
  C   -1.95752741120127      1.45977401535969     -0.52027209169505
  H   -1.66980154603979      2.12244376892327     -2.54610118435470
  N   -1.60000796909442      2.28283958250809      0.55113670868831
  C   -0.48828583008280      3.08743680884917      0.29361599883197
  H   -0.15140094775296      3.84315630242975     -1.68729008494916
  O   -2.83423892169091      0.63051755411446     -0.48849638704603
  O   0.03691192589251      3.81319835279341      1.10305797825789
  S   1.10165152312707      0.51744279968393     -0.75274738836800
  H   2.13330895808962      2.80483524598090     -0.78841687376991
  C   -2.22893190357339      2.19728065627074      1.85901429029240
  C   -3.32239230708957      3.24764320247785      2.02535270361367
  H   -1.45241830828105      2.34304291487935      2.62386421682756
  H   -2.65745693015699      1.18988943510623      1.95765898214438
  O   -3.87190317064038      3.06223698905082      3.33236351141920
  H   -4.11235734045499      3.12744099528962      1.26620980113758
  H   -2.91567527693424      4.26735046590357      1.93181558535174
  C   -4.86674395961988      3.90347180049979      3.69129760893548
  C   -5.36843555602131      3.61557093515638      5.08628179734779
  O   -5.28923430363421      4.76815710593731      2.96566054110507
  H   -4.79142234901893      2.82204564996959      5.57709181029034
  H   -6.42848646969443      3.32285875646677      5.02822047839738
  H   -5.32012295803417      4.54122191285073      5.67951307020486
  O   -0.62243596243570     -0.18926537544833     -6.95606777587058
  C   0.48988169740074      0.71486146254226     -4.71038609192013
  C   -1.32525024560345      0.46036648453280     -6.22510756885561
  H   -3.39340309371917      0.45400716865704     -5.63016690269050
  O   -0.88490892285220      0.98064019316746     -5.05283403689117
  C   -2.77228274658970      0.81182079099520     -6.46590849476348
  H   -3.10772947821518      0.35951742274919     -7.40683500734904
  H   -2.88873860671239      1.90606076863491     -6.51301824327191
  H   -0.67355027830420     -0.32677161156386     -2.31631667997399
  H   1.15804294521468      1.24745200050285     -5.40622021740964
  H   0.68249613828737     -0.36501862134878     -4.83175176213733
