26
Coordinates from ORCA-job 2025_0.0
  C   -0.02178082601148      0.43473545388336     -0.17613746563316
  C   0.11312078722100      0.18228863555974     -1.73148900753572
  C   -0.14692670482560      1.53891596687474     -2.40865168270818
  C   1.20034314461020      1.32416369014708      0.12650469587125
  C   1.85838934014796      1.45522043580058     -1.29640048564542
  C   0.92000208005415      2.30999453800149     -2.15075017650025
  H   -1.07883447946691      1.82488924034025     -2.90088076073098
  H   1.05810690036186      3.36775310851002     -2.38296270563810
  C   -1.22964909072134      1.24074316723673      0.27015101320456
  H   -0.00765034572636     -0.53289760860733      0.34610851266833
  N   -0.76146055051314      2.44817554116661      0.79720987605037
  C   0.62693821593418      2.59669781634978      0.73263264144031
  H   1.91774179810117      0.87071249030751      0.82507695162198
  O   -2.39657189270832      0.92928268671884      0.19381272956449
  O   1.22135302629604      3.58204713618023      1.10298141183516
  N   1.59565446062514      0.07930583920203     -1.76942462862710
  H   2.91822505755943      1.73870635155681     -1.27610243704867
  C   -0.64432047543978     -1.01970668727287     -2.25754894786399
  C   -1.63483855433804      3.48794311213404      1.30650090540277
  H   -0.49545990627577     -1.13877490700624     -3.34333128343707
  H   -1.72212119846319     -0.90261097086745     -2.06650547872054
  H   -0.30050319561073     -1.93870362709076     -1.75775922093083
  H   -2.65031853885186      3.07571640450623      1.36795512744057
  H   -1.63186273073444      4.36281095791273      0.63686557833806
  H   -1.29181091125955      3.81455328303150      2.29909843106539
  H   1.90050459003537     -0.00913205457565     -2.74291359348324
