39
Coordinates from ORCA-job 2026_0.0
  C   -0.39888731269008      0.29726669087744     -0.37895168763125
  C   0.06962364367297      0.08625530828100     -1.88175254597566
  C   -0.00462882094926      1.46307343772468     -2.53927079385668
  C   0.74716653914006      1.14323819664290      0.23363253021579
  C   1.71275465776102      1.38088359645766     -0.98500371352349
  C   0.96452539952625      2.22599107766376     -2.00747669933166
  H   -0.78854490853188      1.76749766578352     -3.23543175099428
  H   1.14100992288184      3.28881713458020     -2.18530471944305
  C   -1.65708563846412      1.13179430364241     -0.16034009990728
  H   -0.54799688323901     -0.67959911771791      0.10652033322944
  N   -1.28761292659911      2.29107734321863      0.53705630446409
  C   0.08795396609638      2.38815268615440      0.80042564674512
  H   1.28601479543231      0.63288764173861      1.04655373965362
  O   -2.79021497030774      0.88879691274553     -0.50022423028145
  O   0.61142585893980      3.31876044519329      1.36060004073256
  C   1.60385574559471     -0.00864262144254     -1.64752499397790
  H   2.70996919450619      1.73351302169273     -0.69320400226867
  C   -0.53015858516941     -1.09180624807263     -2.63317808980192
  O   -1.93430985335580     -0.94780281601510     -2.85686113980259
  H   -0.34206072997515     -2.02838237518460     -2.08774441721763
  H   -0.06810058119406     -1.15613995726149     -3.63086527140069
  C   -2.22910508155944      3.29352663151974      0.93906333419911
  O   -2.71438529727146      2.94840844182436      2.24066869113842
  C   -2.77693276242944     -1.66261300587193     -2.06615302112373
  C   -4.21299713708320     -1.36421080983902     -2.39950489692341
  H   -4.47453900556935     -0.41535722792216     -1.90569284469307
  H   -4.85549951177396     -2.16377346955398     -2.00968429216102
  H   -4.35139527523779     -1.23961851119048     -3.48265676968947
  O   -2.39578543350485     -2.42354471278883     -1.21115521416193
  C   -3.62108094789531      3.80063806802586      2.77321100777368
  C   -4.06888737077289      3.33617780340968      4.13596561552595
  O   -4.00164211091043      4.79002609652399      2.19898446986320
  H   -3.19710451937147      3.18318842461460      4.79026845636399
  H   -4.58440505779443      2.36684825560257      4.04590713685442
  H   -4.74732041741024      4.07948265725705      4.57165608284761
  H   2.16558932738601     -0.07699026672695     -2.59155929126093
  H   1.89205741662072     -0.84150278532624     -0.98470730137757
  H   -3.06309220268447      3.31812014066918      0.22437202631278
  H   -1.72302312581386      4.26795194306998      0.97688237088557
