41
Coordinates from ORCA-job 2027_0.0
  C   -0.24040590883339      0.07291429877560     -1.16645648231839
  C   0.51259597016098      0.22274748069290     -2.54422220221177
  C   0.62766092210512      1.72052952110823     -2.88227288140881
  C   0.78188195386047      0.68548768246578     -0.18223901457759
  C   1.97436138778979      1.04535206282988     -1.13866475573924
  C   1.52207284135329      2.21851073570719     -2.00941629139292
  C   -1.51873443437639      0.86512765415759     -0.95537869675941
  H   -0.44043118148818     -0.99319459678066     -0.99208204060963
  N   -1.25100011695491      1.87088939543856     -0.02438330966450
  C   0.06222855689094      1.85807929165910      0.46585167752003
  H   1.12097875753669     -0.01405014442276      0.59529793779875
  O   -2.60146548719415      0.68454241590689     -1.46563729276149
  O   0.50059819329211      2.65780685360361      1.25766296914958
  N   1.86615606296752     -0.11874725897521     -2.04724424952334
  H   2.94334226368804      1.14414973921065     -0.63356248061201
  C   -2.23201697449657      2.86899953667686      0.36696260549302
  C   -3.12245012937557      2.37479224121075      1.50248521845472
  H   -2.84617672950905      3.11089680443701     -0.51246041690913
  H   -1.68387749000462      3.76647872726686      0.68708075121754
  O   -4.02808177886392      3.44014400299508      1.80179928691214
  H   -2.52819561704950      2.12517281053733      2.39632378177606
  H   -3.68521855779207      1.47540814521840      1.20556117035716
  C   -4.90628737855484      3.22352389983659      2.80809021300472
  C   -5.79189751118069      4.42651498381515      3.02128430772686
  O   -4.94892066996911      2.19358792241205      3.43160843891541
  H   -5.17667676115315      5.31278487008945      3.24151441831280
  H   -6.48340997082795      4.23153181189511      3.84971959951258
  H   -6.35723602175837      4.64372439440776      2.10143820314250
  O   -1.61335911902936      0.54209830728309     -5.10693479618517
  C   -0.08569504876716      2.44739697860711     -3.98147765538796
  C   -2.17935713933475      1.42759343497971     -4.51297007155616
  H   -3.94207916485107      1.26490372306122     -3.35122164375259
  O   -1.51872012529040      2.42113527993059     -3.86428915577062
  C   -3.66898774595568      1.58018192107526     -4.37019188893440
  H   -4.17432982965628      0.93827987979338     -5.10237724091060
  H   -3.96904962497771      2.63046211604006     -4.49612556894911
  H   0.12970369908166     -0.42530607113496     -3.34093251000306
  H   0.19290044077929      3.51083063636398     -3.97044162915847
  H   0.19071119789160      2.00904283337640     -4.95425683815474
  H   2.54375850882603     -0.02451839122882     -2.80801412090911
  H   1.81817976102144      3.26156406967709     -1.88129734513358
