90
Coordinates from ORCA-job 2030_0.0
  C   1.76640870284337      1.06928290161159      2.22105929360494
  C   2.80295687496347      1.71071322563505      1.64377879240289
  C   4.67989321497981     -1.43104452091445      4.89389290480587
  C   3.34463795531275     -0.90547915828501      4.72987117598249
  C   3.18859050543021      0.26459778927447      4.01717188267086
  C   4.29668060109735      0.94153757034161      3.42577000156175
  C   5.58682840098872      0.47013004085755      3.55291550168400
  C   5.80005021342001     -0.73880298955834      4.31549893326898
  C   3.84836457407213      2.19758161029676      2.65870203224316
  C   1.86547426144479      1.00242616723830      3.74859462887336
  C   2.07209385574083      2.43323622499658      4.25586118121195
  C   3.10785178858089      3.05667051465606      3.68881308157461
  H   4.67917184495931      2.71523901420691      2.17444071641778
  C   7.10425185537969     -1.26952460697932      4.52307918566284
  C   7.30467890048927     -2.43293965893807      5.24069611357646
  C   6.20204151776267     -3.12692939797736      5.78500127286882
  C   4.92279906464056     -2.63422087367361      5.61398984265180
  H   7.96141636313542     -0.73843618619823      4.10655908161299
  H   8.31832684841674     -2.81606984226250      5.38584007011822
  H   6.35978050461225     -4.05324405233149      6.34387282423334
  H   4.07466937799477     -3.17358717197945      6.03852029992042
  C   2.16467876608309     -1.62255707826996      5.30907611369506
  C   1.88942625299649     -1.57319534489104      6.68710085939218
  C   0.78095233818988     -2.23881353179641      7.21888899366489
  C   -0.07017375018921     -2.96777268972030      6.38215262658600
  C   0.19288503265969     -3.02528343792323      5.01021346492523
  C   1.30139134053953     -2.35889931936081      4.47854052820204
  H   2.55170007084747     -1.00400978034731      7.34499960405421
  H   -0.46740339284319     -3.59364412506858      4.34944251829538
  H   1.50573680400188     -2.40673303204665      3.40522807448215
  H   0.58047265811100     -2.18647250441633      8.29257285654378
  H   -0.93682431912461     -3.48857683648528      6.79793188482045
  C   6.73914653429276      1.18088023867062      2.91391445516389
  C   7.20350316227615      2.40661957307876      3.42198597485584
  C   8.27311486239120      3.07512834321419      2.81724024955681
  C   8.90000737025245      2.52700700991479      1.69435825168742
  C   8.44983164433020      1.30606036402970      1.18043396685830
  C   7.37892453512835      0.64049991550473      1.78396325847082
  H   7.02859222698068     -0.31153389849746      1.37658650792305
  H   9.73836214053274      3.04679131363186      1.22283241990205
  H   8.93711302398043      0.86798103732048      0.30479293982830
  H   6.72300503546826      2.83458171658358      4.30617263486724
  H   8.62088359455345      4.02628550515443      3.22971705115136
  H   0.99891744895546      0.50715699828420      4.19626327643774
  C   0.55397625844846      0.51214884188973      1.54861568454772
  C   2.90790169896540      1.97438011826043      0.18598042581042
  O   4.15487256698227      2.34786164984989     -0.16689604748850
  C   4.37641144319223      2.61916853053722     -1.55754024010120
  C   5.83475246819662      3.00558729257352     -1.73535032038970
  H   3.69360419627544      3.42173983830109     -1.88417142935961
  H   4.11694231039154      1.72196043288601     -2.14477619110844
  C   6.18851266454807      3.27800531221489     -3.19989247385927
  H   6.46695803294407      2.19590830388839     -1.33216361460717
  H   6.04662223164748      3.89662076277196     -1.11889667080073
  C   7.65342670417282      3.63921714123516     -3.37904257151398
  H   5.56703298085639      4.09897540319626     -3.59867908115997
  H   5.96506183716945      2.39075459639784     -3.81815431243891
  O   1.99664177085303      1.88586135606815     -0.60616662357073
  O   7.88968386167347      3.86324800798987     -4.77566169366183
  H   8.31781533265782      2.83448505866461     -3.02148116440145
  H   7.92227304554783      4.54785171078872     -2.81372799390358
  C   9.15397074780650      4.16952775507686     -5.13601110551996
  C   9.25754869767150      4.37968753515323     -6.62760586509594
  H   8.93103867452078      3.47220581141945     -7.15921592132588
  H   10.29362554459620      4.62049105514493     -6.89449235644543
  H   8.58776543140487      5.19628873407576     -6.93968940932222
  O   10.06225096791815      4.25682237129454     -4.34744706844172
  O   -0.56568591444432      0.86486197899228      1.83483257297602
  O   0.85154847461637     -0.43786295713680      0.65201620026397
  C   -0.21228611509979     -0.90250147144836     -0.19535202679422
  C   -0.97154801045228     -2.07064822843125      0.42334137225811
  H   0.28352577769358     -1.20206737937044     -1.13077311567123
  H   -0.89250165933861     -0.06388749894674     -0.40699226882963
  C   -2.05288538631255     -2.61259141066572     -0.51686037125597
  H   -1.42875116723891     -1.73310572297468      1.36832084074101
  H   -0.25249458699173     -2.86994933936152      0.67689860008548
  C   -2.82554868064092     -3.76665005922056      0.09900416195779
  H   -1.60182110742207     -2.94987622183336     -1.46692921722385
  H   -2.76530201689738     -1.81031244305932     -0.77713676635436
  O   -3.82340986774485     -4.18924887880991     -0.84105051172990
  H   -3.31521966259777     -3.47139361007536      1.04184235942306
  H   -2.16546745806472     -4.61921381726907      0.33487110008564
  C   -4.69153877165819     -5.13400088284849     -0.42216803938663
  O   -4.64997568101241     -5.63000450654470      0.67635963823145
  C   -5.69740321525050     -5.46227073217285     -1.49941076454308
  H   -6.28366083895320     -4.56369184668266     -1.74855882708521
  H   -6.36528479313200     -6.25854473383868     -1.14931376241361
  H   -5.17961197435157     -5.77706348411773     -2.41859190294514
  H   3.44114777264748      4.06985647572414      3.92340731094229
  H   1.41795480752622      2.85326211383225      5.02231213311410
