90
Coordinates from ORCA-job 2030-_0.0
  C   1.88190146565621      0.64036330199850      0.73934018065713
  C   2.90830406171374      0.81927904174778     -0.09284686718853
  C   4.55616838347843     -1.57517229466293      3.85227396372110
  C   3.40600119756271     -0.73502892010280      3.65643320777568
  C   3.39531156043686      0.12390908648310      2.57953925745862
  C   4.50148645779455      0.25675510553891      1.67415259090759
  C   5.59986174542311     -0.58088397695988      1.79920811302587
  C   5.63271268148353     -1.52309756490098      2.90597368667818
  C   4.18586579339820      1.34899610813327      0.58278895278340
  C   2.19631059907678      0.99784359041770      2.19691909960806
  C   2.73872740309757      2.41099467134924      2.21524438884065
  C   3.76262825754783      2.61760394854990      1.37354972253230
  C   6.71580728521626     -2.43227854738343      3.08501649833146
  C   6.75969044606267     -3.30974117054025      4.15142663472669
  C   5.71559860893366     -3.32757039192967      5.10088559451209
  C   4.63643812583657     -2.48059577665937      4.94707217388687
  H   7.53001672669828     -2.43850427044244      2.36145892668841
  H   7.60730693823807     -3.99213430082985      4.25705666541522
  H   5.75664842577953     -4.01494548646444      5.95008420048458
  H   3.82068584327493     -2.50061871256183      5.67146401178388
  C   2.23837798603769     -0.81759927690431      4.59268868210611
  C   2.08430562264446      0.11845658312345      5.63014867782274
  C   0.99053062069923      0.05055194349744      6.49915384568012
  C   0.03280221156580     -0.95655136926506      6.34578288459798
  C   0.17683465996195     -1.89646670501061      5.32010741687011
  C   1.27120235368763     -1.82849428722585      4.45251970420886
  H   2.83326331267999      0.90535547080185      5.75531341076791
  H   -0.56742147324846     -2.68753062534242      5.19319800142720
  H   1.38019528250400     -2.56561662354054      3.65228320842316
  H   0.88737926261339      0.78754798900258      7.30041512898681
  H   -0.82323838854315     -1.00946907328070      7.02382824435922
  C   6.74719484255971     -0.64764354215593      0.83550185803708
  C   8.02754224114277     -0.19431863518550      1.20322023279387
  C   9.12196273371277     -0.37579705735217      0.35490842877596
  C   8.95563198033410     -1.01125528580534     -0.88199887648241
  C   7.68739977755558     -1.45452498576253     -1.26350634396309
  C   6.59311105547591     -1.27832098635922     -0.40905992356096
  H   5.60733699884646     -1.64231375095218     -0.70815282126666
  H   9.81264228629193     -1.15804843931664     -1.54491954826869
  H   7.54502467810469     -1.94758403621572     -2.22873283888495
  H   8.16137466321458      0.29801999232003      2.16973851874008
  H   10.11071253997263     -0.02330541937198      0.66198982759381
  H   1.34673372747021      0.85583312121638      2.87127537374278
  H   2.29969842212653      3.19564119513414      2.83346263040517
  H   7.54948893625133      8.13581340063659      4.41599239541187
  H   5.73748897573279      6.24418248321930      3.86108592185516
  H   11.49612871627873      9.90064887721134      1.80749517300582
  O   10.11917057912896      7.62505863124481      1.93761510922231
  H   5.95471164988173      8.51391901034869      2.59037869199287
  C   7.86449233042245      7.89196969261833      3.38928991689544
  C   9.74218630164950      8.74505089447836      2.19450870275734
  C   5.95878768295855      6.33652882311461      2.78291200163804
  O   8.64476920453762      9.00863929459187      2.94071135167563
  C   10.40602557304688     10.00631558603922      1.71033105807746
  C   6.65584997919768      7.66721296731554      2.48363518322584
  C   4.67109135570102      6.14790561086176      1.98701440303087
  O   4.21037399997857      4.79467839008845      2.13572343446537
  H   8.50262013837441      6.99636314396624      3.41436844399888
  H   10.05088220445693     10.89163374765362      2.25273754704003
  H   6.64145651127677      5.50610326319836      2.53418761931873
  H   10.17602229875079     10.10471238895028      0.63662468072069
  H   6.99708432473552      7.67427531201500      1.43429906252541
  C   4.23476189973609      3.98750810454877      1.05282295451995
  O   4.54534549186107      4.35547512407073     -0.05804286183284
  H   0.90351327645567      0.24864635819555      0.45418328215466
  H   4.82414219944669      6.36025458954966      0.91929959805661
  H   3.86719868297277      6.80099796584074      2.36358797763743
  H   7.02598594767880      2.63626281380121     -1.83012230531438
  O   6.34574616127151      2.23568462858736      0.08774048859768
  C   5.28061721666282      1.63340208533075     -0.45569264348714
  H   6.86150165141957      4.74762384500580     -0.49455039328929
  C   7.38860287630612      2.70033122587771     -0.79491841831052
  H   8.57587301857428      4.58422311477809     -2.38783772510740
  O   5.17075556020136      1.35420702386046     -1.62389849988763
  C   7.76753828648794      4.12624967096916     -0.42216245074814
  H   8.19022361736957      6.76297533644644     -1.19528802802872
  C   8.86410871243887      4.69734430554143     -1.32774252288038
  H   8.23949918792372      2.01060725467386     -0.68355415929381
  H   11.34693972646220      7.79567999359848     -3.88131741426247
  C   9.10743333581710      6.17032869206456     -1.04300398161794
  O   10.12323361656569      6.64530500497390     -1.94681748192183
  C   10.35409816127124      7.96672526710003     -1.97231430029646
  H   8.09533618867536      4.15455513303027      0.63217681410238
  O   9.73503120768637      8.76810267561052     -1.31018681389916
  H   9.80857978813832      4.13997558474148     -1.19908508494624
  C   11.48290875426130      8.30679623197814     -2.91671082368774
  H   9.44546022321552      6.34506611296815     -0.00870377687776
  H   11.53107114279525      9.39325143935960     -3.05992007621489
  H   12.43453845924983      7.95116931325587     -2.48919544729261
  H   2.93093544257322      0.61214994985843     -1.16266332827100
