38
Coordinates from ORCA-job 2031-_0.0
  C   4.11684533372519     -1.20002677771030      4.35254661408195
  C   2.85302258691702     -0.73515540675161      3.92554897700616
  C   2.76674664703427      0.38386833059287      3.11292109434222
  C   3.93518893711380      1.05617283384932      2.70005109775152
  C   5.18609346315661      0.60651385967827      3.11001080412881
  C   5.27328085809270     -0.52182563764471      3.93910864231710
  C   3.63572087579281      2.25495135206895      1.79514118426781
  C   1.49219480337058      1.02558074748447      2.55549448814803
  C   1.53942704074607      2.50379819071882      2.98053971480426
  C   2.66217110218006      3.12844418224238      2.57736357704890
  H   1.96612295190608     -1.28065052204524      4.25621745363935
  H   6.09492461763377      1.12475770395384      2.79195265336769
  H   -0.07965462200358     -0.10041773728960      0.41644121888344
  C   0.82405331039386      0.42593305300094      0.09575138896617
  C   1.66759887431947      1.01513675693601      1.03303041733589
  C   1.14514513341285      0.51431960619211     -1.26877746092077
  C   2.83390308674845      1.68344785562404      0.61791474267184
  C   2.30204810309696      1.17949082921181     -1.67982406842585
  C   3.15719740263711      1.76691136416868     -0.73303286808655
  H   4.06470949493473      2.28537429844426     -1.05573889667717
  H   0.58740231556374      0.49707464643941      2.87643066149793
  H   4.54198655406290      2.78501256004450      1.47612295151925
  C   0.47799530761464      3.22287758875853      3.75345119370318
  C   -0.75310318715905      2.44272622695976      4.17552026600399
  H   -1.28127387889486      2.03549489367633      3.29681127570663
  H   -1.42670545794990      3.10901642491568      4.72979902169920
  H   -0.47703834938825      1.58625151664535      4.81376335580288
  O   0.60475723891368      4.40006009406427      4.03235853683021
  H   2.85533203056548      4.18114782175167      2.79397767480531
  H   6.25916353219007     -0.86540113490501      4.25847350629080
  H   2.54527075898512      1.24464597172288     -2.74362818178301
  H   0.48455636760176      0.05918442656358     -2.01143923256353
  C   4.15119626510214     -2.41356377387816      5.23877624732356
  C   5.49603579610825     -2.93107948166431      5.71968196841386
  H   6.13787124446998     -3.21662243514063      4.87007263707555
  H   5.32695024045616     -3.80789739434049      6.35785872167496
  H   6.03599634339890     -2.15965871164693      6.29276573444863
  O   3.11950687715038     -2.97012412269178      5.56484288689976
