38
Coordinates from ORCA-job 2031_0.0
  C   4.39098593541413     -1.79689541503241      3.75249070717351
  C   3.08959376044659     -1.34971397530240      3.47331199151564
  C   2.91504866383602     -0.10062837702473      2.88547550919836
  C   4.02382564714614      0.70693589640733      2.58021586107871
  C   5.31471931333446      0.26218348741184      2.85056866214261
  C   5.49437220420052     -0.99897174978004      3.44200144175663
  C   3.61567891945786      2.04193331879281      1.94979447605234
  C   1.58710820422198      0.55153425389981      2.49071048165143
  C   1.55356577523066      1.91160580003560      3.20423659165126
  C   2.62655367400440      2.69409489969132      2.93588735739434
  H   2.22509822600766     -1.97237812581776      3.71883586550374
  H   6.18021600473758      0.88574033019806      2.60784961450846
  H   -0.01635195646770     -0.19174544140887      0.21382277222553
  C   0.84582276649683      0.44101339254683     -0.01561266942206
  C   1.69751258613999      0.86954176930348      0.99858196259446
  C   1.10730381989397      0.82957105173392     -1.33969475382202
  C   2.80704487583957      1.68182651079534      0.70223412954839
  C   2.21011743814575      1.63399633563668     -1.63451656248730
  C   3.06973169009167      2.06373362829449     -0.61029803406138
  H   3.93507150740263      2.69102228105425     -0.84371413123888
  H   0.72036819896235     -0.07153888339300      2.74138222471134
  H   4.48118924432978      2.67292408593274      1.71836637916836
  C   2.84120305448818      4.01416268164018      3.59079505887706
  C   4.01131273466972      4.86839589612371      3.14157502729442
  H   4.96610582624673      4.36524649310016      3.37055809087869
  H   3.97550075032681      5.82819707167292      3.67282535495771
  H   3.98651454406644      5.04320349400903      2.05332549856266
  C   0.43115234990454      2.16074020226648      4.18159895875584
  C   -0.55995862240167      3.27319081470908      3.91437702561660
  H   -0.15922955043840      4.06651144278399      3.27235818303962
  H   -0.89582017801429      3.69597328408512      4.87168567932916
  H   -1.43809974832151      2.82159995768109      3.41839858503542
  O   2.08935244910174      4.39833191449081      4.47106243033787
  O   0.28290973357335      1.36733490988990      5.08759398465557
  H   2.40709758747817      1.93165979517310     -2.66787940094577
  H   0.44320586374869      0.49893232741207     -2.14265132138091
  H   4.53896118678848     -2.77505526066569      4.21765895777542
  H   6.50421551991006     -1.35490009834732      3.66275801036702
