38
Coordinates from ORCA-job 2031--_0.0
  C   3.87430533875215     -1.82505616573089      4.14485341574462
  C   2.67283114085159     -1.19179272669246      3.79063196077471
  C   2.70446679143428     -0.06423293844378      2.97678571643204
  C   3.92731361526425      0.44061654966103      2.48632246884779
  C   5.11935388696628     -0.18148612358959      2.85842623763132
  C   5.08832744726295     -1.31582032741684      3.68732845597188
  C   3.73261871090457      1.71351936691701      1.62290361053789
  C   1.49312757188339      0.76633396617146      2.55333400768756
  C   1.79605135645340      2.19785401463812      2.98820426670639
  C   2.95748040525989      2.69902508829826      2.53784471529885
  H   1.71717993255184     -1.57346590564075      4.16133547027791
  H   6.08536016072958      0.19998179330978      2.52772044798729
  H   -0.43793706060292     -0.02581166263810      0.59878221410315
  C   0.48955624812815      0.37861361018291      0.18362767953081
  C   1.51560112777712      0.78611510682174      1.03155851410815
  C   0.65175336506421      0.50217247863942     -1.20388507291726
  C   2.71287894102100      1.30893997479989      0.51370973598182
  C   1.82989447263595      1.03943837165111     -1.72293859572032
  C   2.86434452781485      1.44783430352345     -0.86636769705149
  H   3.76594252574354      1.88468205129816     -1.29932022148672
  H   0.55162159782333      0.37605956152208      2.96021479898204
  C   3.44273441205431      4.02730559599533      3.05747098620284
  C   4.82999097993364      4.10136563064083      3.68106114779166
  H   5.35070533484529      3.13365781301051      3.71243483869179
  H   4.71374102337375      4.48337120776584      4.70778473211731
  H   5.44443441138561      4.81995473272257      3.11936702505057
  O   2.68848386694592      4.97505383635922      3.11069096045416
  H   1.95138597058947      1.15197345741133     -2.80336528475634
  H   -0.15035110669166      0.18721873535648     -1.87643870047629
  H   3.85622648132904     -2.70828627508462      4.78865251509677
  H   6.02758478735227     -1.79559163678395      3.97457976577573
  O   5.09050629571069      3.53090803402672      0.88169237833227
  H   6.25035381866812      1.90035128001459     -0.71687939881393
  C   4.96091333006204      2.32778818499757      0.93428983808140
  C   5.95868341629703      1.42303941383056      0.23012037342977
  H   6.87156224284854      1.35845214991376      0.84548781439428
  H   5.58495636282836      0.40672668714396      0.05115202028634
  H   1.13488626874805      2.74812076539723      3.66070685891318
