49
Coordinates from ORCA-job 2032_0.0
  C   1.47832909702141     -0.16133695149060      2.96912407553149
  C   0.89722126175475      1.11772201539662      2.95447403439179
  C   1.20867191512425      1.93055081289634      1.86930332972828
  C   2.04125392616618      1.49640404026711      0.83614743684241
  C   2.63776236309836      0.23987794009467      0.83790058421718
  C   2.32966538484887     -0.58355565216750      1.93544405845443
  H   3.30486946148677     -0.10687595075821      0.04499571172840
  H   1.26538358202626     -0.82013828761219      3.81435969551471
  H   2.76384224531708     -1.58553878945410      1.99420777162177
  C   1.92692573161873      2.80938436362466      0.07200831573800
  C   1.06413813601173      3.31992262850227      1.28865437007702
  H   1.34752927753435      2.74928195812812     -0.86252618101549
  H   2.85656048527022      3.36928564052911     -0.11489156532055
  O   0.13158942926188      1.54086233834943      4.01778575064066
  C   -1.24267298899487      1.66171602601035      3.96765381089242
  C   -1.92543166988956      1.14709464288660      2.72218329378199
  H   -1.66911035748954      1.78656965567854      1.86357312827528
  H   -3.00874127171543      1.17317386321936      2.89111543324187
  H   -1.60359628921276      0.12269385360762      2.48102687116898
  O   -1.80033325651305      2.15166623918024      4.90571638769023
  O   -0.28752575991114      3.69163906303721      1.00807355786485
  H   1.54988816317188      4.12561042769698      1.85995490191485
  C   -0.48617215840189      4.95213853580124      0.53770148592388
  O   0.43089058207433      5.70958742091443      0.33686442321820
  C   -1.96593742931437      5.18831330623491      0.31064195189028
  C   -2.42250210672063      6.60984731217157     -0.11041670797107
  H   -2.47967826459724      4.87952204388800      1.23838066682194
  H   -2.26911401121650      4.45338172480721     -0.45299264630713
  C   -1.96518322448661      7.62911405667855      0.95617595802739
  H   -2.37313004173723      7.37910618486355      1.95066075861410
  H   -2.29424519274738      8.64915321180558      0.70666280482192
  H   -0.86927594490198      7.64408932116593      1.02807089016544
  C   -1.82336331360399      6.98410208881392     -1.48201506088590
  H   -0.72637149177833      6.93757841021999     -1.43926782425795
  H   -2.09911404715901      8.01188572873072     -1.76560043168769
  H   -2.18041654356932      6.30313975907658     -2.26761630958333
  C   -3.99282502093539      6.60485442870223     -0.13582915566835
  C   -4.63986173135538      7.90066668850509     -0.67228416705844
  H   -4.26572205016666      8.78474506386658     -0.13661577186546
  H   -5.73051724380242      7.86091694179042     -0.53213612391257
  H   -4.44038530843199      8.03771901862418     -1.74565587364357
  C   -4.61455338156838      5.44570312133698     -0.90877143589714
  H   -4.33390141772530      6.48017443932146      0.90555601646933
  O   -4.16731903221586      4.90345069267453     -1.89317317959723
  O   -5.80510058709686      5.10410657723529     -0.37451792244358
  C   -6.53797547530530      4.08140673713125     -1.05091384445359
  H   -6.76879790417269      4.38196949542614     -2.08467460115369
  H   -7.46400137256283      3.93978803616437     -0.47955740778740
  H   -5.96249515248701      3.14355977642638     -1.08403126475900
