132
Coordinates from ORCA-job 2033_0.0
  C   4.14180192410686      3.74639686722847      6.01192146672301
  C   5.43666814373847      4.10390243901773      5.19363307312905
  C   4.65360719936381      5.40145616474344      4.69494277741281
  C   3.58187959026787      5.23162503451762      5.82377401701028
  C   3.43750227741467      2.71808383955917      5.08409031929516
  N   4.35308383161059      2.29080196858395      4.12870388280217
  C   5.55177107989118      2.99877972174137      4.12490965055096
  C   2.21911606956941      5.32633817876085      5.12634952542234
  N   2.46778823316227      5.28038959006626      3.74753589648314
  C   3.81394009586735      5.20366137717004      3.41028597052503
  O   2.29832896951264      2.33341077557734      5.17102528209157
  O   6.48103871487442      2.76416969889557      3.39613707473780
  O   4.22951401874011      5.02583664185524      2.28811993345481
  O   1.12450428048667      5.41902872375855      5.61377909260538
  C   4.06097973385931      1.24485683402599      3.15884318071630
  C   4.71527625614646     -0.07758941933564      3.54859420460891
  H   4.43250444352672      1.57252083539221      2.17666837892326
  H   2.96861839113245      1.13334389231086      3.11717913341043
  C   1.39744267642254      5.23658140179758      2.76219811776726
  C   0.92881022695443      6.64092257673341      2.39334555036980
  H   0.56537775567087      4.65974358308718      3.19083299261383
  H   1.78206256034577      4.72023955834190      1.87156704933572
  O   4.33399906455128     -1.02497022803700      2.54816462869672
  H   4.37216652453165     -0.41822826149325      4.53937598841582
  H   5.81147919419016      0.01461344722408      3.58137254890803
  O   -0.10998203572047      6.48803325493309      1.42283125817102
  H   1.75163073792252      7.23918713391053      1.97038451259796
  H   0.54058323614239      7.17418228457634      3.27555482656338
  C   4.87778494263865     -2.26015158702607      2.63992295024995
  C   -0.63207185946993      7.62581464630995      0.91278684788250
  C   -1.78136678227646      7.34171749943977     -0.08006180844788
  C   -1.37360805208936      6.16803597045606     -0.99691598910514
  H   -0.47246509800839      6.41589817888131     -1.58087895888994
  H   -2.17545595029647      5.93050707319989     -1.70854530488057
  H   -1.15967784457959      5.26399781923207     -0.41037858086657
  C   -3.00260564350756      6.94380756013987      0.78309833401480
  H   -2.76208929830528      6.07874397043042      1.41926350260604
  H   -3.85590917854139      6.66447272180187      0.14658026088517
  H   -3.31927898225026      7.77281993092801      1.43615493954968
  C   -2.02815578555309      8.65688386227866     -0.87303321835975
  C   4.38509972105132     -3.18474420203025      1.50577312857474
  C   5.12963609244627     -4.54038035413129      1.67132063965343
  C   2.85529872844824     -3.33732396244311      1.66218697105640
  H   2.59574988406234     -3.83812083378221      2.60919815466242
  H   2.43691142546418     -3.93325755557920      0.83707699541826
  H   2.36428270266047     -2.35381359747777      1.65041985042884
  C   4.71565955701967     -2.48789068505944      0.16472024825031
  H   4.22724699053857     -1.50516951931438      0.10270552282707
  H   4.37446908257026     -3.09250703369446     -0.68635537581273
  H   5.80201390137270     -2.33844503004267      0.05498572420230
  O   5.64406652790707     -2.55767683827067      3.52218116747660
  O   -0.23981281424758      8.71512943993919      1.25225191475919
  C   4.50687387772056     -5.82650818998548      1.06489031080988
  H   5.23817404921996     -4.71430397171042      2.75127773692180
  H   6.15795632048494     -4.43045644532152      1.28640048055705
  C   4.46832034441183     -5.90341290290141     -0.46968674519266
  C   3.80185254215528     -7.17086189146167     -1.01207222777331
  H   5.50102182121528     -5.83352775539984     -0.85059005944164
  H   3.92766580483973     -5.02726885000825     -0.85854191675051
  H   4.35591324197293     -8.07550347008404     -0.71783877476422
  H   3.76110270127679     -7.15311616854539     -2.11303086981681
  H   2.76594918039831     -7.27042767213222     -0.64420808580236
  C   5.31796457350461     -6.98889468228786      1.63140864728838
  H   3.48684468853275     -5.94227534254169      1.46552913759109
  O   4.87040993010655     -7.35538219537326      2.84932884339021
  C   5.60617845906853     -8.38386033574352      3.51282515643720
  H   6.65050569208580     -8.07580611741203      3.67636046724478
  H   5.60744875118419     -9.31052216136116      2.91843392855658
  H   5.10381502566362     -8.54886772887556      4.47444466778000
  O   6.26780763590299     -7.50810265988973      1.09643305086655
  C   -3.41742057135133      8.91168930311697     -1.51670335372875
  H   -1.25849375081021      8.74547820351269     -1.65923174414324
  H   -1.83999427786928      9.48560062498318     -0.17533298689563
  C   -3.80462349401609      7.98725951777327     -2.68281606846461
  C   -5.18385071934818      8.28270448916072     -3.27897274182428
  H   -3.78817385793734      6.94411533832648     -2.33186233919924
  H   -3.03381196387003      8.07079571123778     -3.46732705859778
  H   -5.97657817955842      8.21615565877312     -2.51399131652929
  H   -5.43080512792821      7.56140772856925     -4.07441986752002
  H   -5.22458338822153      9.28910110712826     -3.72414043577262
  C   -3.38954391050669     10.36358613901787     -1.98544086642240
  H   -4.18569743427286      8.85497051579931     -0.72914030995456
  O   -3.82072613825347     11.20456537743819     -1.02433838673911
  C   -3.75872791269452     12.59905167350473     -1.32684877507735
  H   -2.72233040004557     12.91043474242734     -1.52982875071090
  H   -4.14651534130358     13.12201646321035     -0.44342586027596
  H   -4.37091543219022     12.83592197659927     -2.21062435492028
  O   -2.99580477565865     10.74113264896538     -3.06281029874901
  S   3.99439110180334      2.84057827122483      7.60781484178837
  S   3.61831272153842      6.09257737678993      7.42984365783620
  S   7.14361798583471      4.23280778887907      5.84427337994262
  S   5.51188572199570      7.00300173488740      4.51055088987483
  C   5.39578959300208      3.25473309033917      8.72186266700260
  C   5.28667838253186      2.33264614041718      9.94111638208572
  H   5.32506289063917      4.30810274202930      9.02642977417748
  H   6.34084830791921      3.09150033010033      8.18788399785548
  C   6.39290652322898      2.60111233087989     10.96522366731268
  H   5.33089546790818      1.28107295547697      9.60890938770910
  H   4.29897125166906      2.46568925964786     10.41664139642995
  H   7.39309527401377      2.44150709534007     10.52892696437248
  H   6.29685855411088      1.92899622182305     11.83271491951100
  H   6.35295597922276      3.63737090464014     11.34043436875017
  C   3.48338239140481      7.89727709078035      7.08953537591802
  C   2.25906202995504      8.39456618958798      6.32152736089690
  H   4.41489762178395      8.25452128258432      6.62719411990648
  H   3.46649011939886      8.29037931513601      8.12120510024528
  C   2.14258283726592      9.92108287268082      6.37065754487911
  H   1.35042982820227      7.92226265869569      6.72696071330129
  H   2.33449928265315      8.07566976143841      5.26844751660392
  H   2.01380905094537     10.28160101932941      7.40530474217161
  H   1.27638352780219     10.26925082018958      5.78607111771464
  H   3.04086714341090     10.40938573767744      5.95662832565918
  C   7.25862917034340      5.59681999099730      7.08056292060092
  C   8.48999056279263      5.34047642873294      7.95388910993797
  H   6.33773595025670      5.65281715638702      7.67484098164984
  H   7.35626711582526      6.54599250579044      6.53849353496528
  C   8.75863758045316      6.49645005212178      8.92155026205459
  H   9.37376135907147      5.18819821692125      7.30849341848482
  H   8.35981798520922      4.40113533941018      8.51792339107340
  H   8.93717909739941      7.44106676180175      8.38127277287586
  H   9.64618528422087      6.29424378967624      9.54206738446125
  H   7.90559645113828      6.65858713761472      9.60149720032181
  C   6.65743564371454      6.67450741122313      3.10093441032468
  C   7.66372768265504      7.82201311245033      2.99642949483039
  H   6.06700757227796      6.57299981156027      2.18026561837755
  H   7.16483516332507      5.71781308482260      3.29472316880461
  C   8.63340530660364      7.62024018026777      1.82849477094345
  H   8.22974443237903      7.90542571579123      3.94060485122507
  H   7.12452212738612      8.77821082750431      2.87155962884000
  H   9.20955391236344      6.68758907321476      1.94505013526550
  H   9.35121673714717      8.45338405202663      1.76288429030992
  H   8.09742385194931      7.56213229346958      0.86675796085136
