49
Coordinates from ORCA-job 2036_0.0
  C   -2.06825512625759      0.63399283322700      2.07784203484319
  C   -2.58604660429225      2.10030034748541      2.19431309432295
  C   -0.63468583988195      1.23152659719845      1.66735569934316
  C   -1.34050263601255      2.65082720501792      1.44434222285153
  H   -2.63081015993648      2.47157169521618      3.22748140467769
  H   -3.56363647136741      2.29926179843858      1.72396949061750
  C   -0.68962289085238      3.87383270228423      2.10477857890794
  H   -0.49967352602195      3.73146943870192      3.17815008187074
  H   -1.35264297819435      4.75039805754126      2.00457001804666
  H   0.26931320658328      4.13224431967500      1.62472441306281
  C   -1.64280432770707      3.01799939566197     -0.01746486100576
  H   -0.72487250057945      3.27890192623646     -0.56858753982423
  H   -2.30352100581744      3.90127969569397     -0.04598192482969
  H   -2.14953916944985      2.21951066114929     -0.57577829584641
  C   0.05152883412914      0.56920211727733      0.45525815266650
  C   1.40508870363569      1.16770086099244      0.03736707865964
  H   -0.62009617526141      0.59004635899695     -0.41659077442004
  H   0.19033656620348     -0.50026018851957      0.69372583592458
  C   1.94192104800930      0.67368062265447     -1.32124365667805
  H   2.16755147129958      0.95721048710370      0.80868660504720
  H   1.32125772164150      2.26790212095873     -0.00745548559756
  C   2.18721973891515     -0.84150572930516     -1.34767683330189
  H   2.92096080191081     -1.13444301825678     -0.57582124803027
  H   2.58893448897780     -1.16042550097304     -2.32370906452005
  H   1.26581844853205     -1.41704246421411     -1.16767748225370
  C   3.21815452938511      1.43546441156554     -1.70464227445084
  H   1.17315731442960      0.90340787697533     -2.08491983869663
  H   3.58884606729241      1.12782487597153     -2.69643473177076
  H   4.02561714966390      1.24621987238429     -0.97550754685814
  H   3.04653460536042      2.52433197436893     -1.73295281134131
  C   -2.80769157895561     -0.12142826601724      0.95396790913142
  H   -2.88381413908216      0.45984705775154      0.02421099047500
  H   -3.83626639045381     -0.34891563963018      1.28112522163220
  H   -2.31946851200369     -1.07932075922291      0.72179662815772
  C   0.33327657933987      1.25304349869874      2.85954798490377
  H   -0.15636529027157      1.57584315261436      3.79015317535295
  H   1.17773501576401      1.93441886942638      2.67715066484626
  H   0.74341758711947      0.25032158976071      3.05005361176288
  C   -2.14184169750379     -0.25911665320851      3.32619163170910
  C   -1.44889625958947     -1.40652416547221      3.39226047158534
  C   -3.09264592882587      0.17193600747622      4.42615995901312
  C   -3.34164618231205     -0.82650011084076      5.55511743946685
  H   -4.05744445126420      0.44463791966002      3.95789491823503
  H   -2.72399766373542      1.11939661576010      4.86151802670177
  H   -3.75034011814699     -1.77648745202371      5.17403763796509
  H   -4.06298179935643     -0.41736060469944      6.28035072762932
  H   -2.41605223700055     -1.05875818686890      6.10623213801257
  H   -0.78092769868769     -1.71987318361837      2.58495090470223
  H   -1.51374051937111     -2.08239104105408      4.24789961730055
