78
Coordinates from ORCA-job 2038_0.0
  C   -2.09344626417079      1.69543807081903     -0.89184216106419
  C   -1.65506122648805      0.20470862484440     -1.00186414216682
  C   -0.94275889897566      0.36187375623846      0.43352519200635
  C   -1.11529482556059      1.90361985889798      0.29459737048269
  C   -3.53994503765388      1.98480436482905     -0.54797781176320
  O   -4.45324588767631      0.99770895740249     -0.78039475056077
  C   -4.12109825499227     -0.31485719312736     -1.06328826099322
  C   -2.79986838028529     -0.76897582532445     -1.14569676774932
  C   0.10831368674793      2.72400474788222     -0.05891441821598
  C   0.48929802322086     -0.09011347145689      0.58990373194477
  C   1.53224667027879      0.83800270150037      0.49345652743387
  O   1.33125885143143      2.17282599797898      0.19128108019976
  O   -3.92042853992077      3.03785491905691     -0.12293686679284
  O   0.05359745066307      3.83321520568764     -0.50722595893954
  C   -5.22143828983678     -1.16440864548537     -1.22881897027811
  C   -5.00878836845073     -2.52534960573764     -1.47749898133833
  C   -3.68976851757513     -3.01401171535771     -1.55214114278170
  C   -2.61971738791479     -2.14402398449715     -1.39209995069790
  H   -6.21520105957356     -0.72694567301276     -1.14680024514225
  H   -1.60583286330232     -2.54504140114711     -1.46626697208994
  H   -3.53602690597575     -4.07761269336792     -1.74241571774849
  C   0.85428132087922     -1.42347522178728      0.85964958615713
  C   2.17742916177841     -1.81011876101945      1.02475151526932
  C   3.20540333837079     -0.85155483578397      0.93154535021852
  C   2.87541536411997      0.48195902686510      0.66331239702644
  H   0.07340908290617     -2.18300211223538      0.94679719531070
  H   2.44668378254115     -2.84737386121832      1.23124396102913
  H   3.62290286609763      1.26809000501407      0.56858265675641
  O   -5.99724792144308     -3.43014350283940     -1.65425085253781
  O   4.46719295903213     -1.30188150907855      1.11036790574160
  C   -7.34387839488192     -3.00895900565049     -1.58655896412099
  H   -7.95896802253049     -3.90253626012162     -1.75758502948376
  H   -7.57689902234860     -2.25847787957025     -2.36322446817025
  H   -7.59070232335339     -2.58633754149541     -0.59613651980120
  C   5.54772927751126     -0.39792833556719      1.00602191237400
  H   6.46117146284886     -0.98280570427515      1.17808193669279
  H   5.48622826295994      0.40306734276855      1.76464390612557
  H   5.59908920634061      0.06307913072367      0.00336206823684
  H   -1.86915183113832      2.31115551642696     -1.77705174170163
  H   -1.56395884854703      2.40011499977847      1.16935007862428
  C   -0.62110672709933      0.02952085165568     -2.11617337877130
  C   -1.83338912484281     -0.18284496895000      1.55192451500734
  O   -1.28168057709138      0.28074515878063     -3.35576031993366
  H   -0.18240633197378     -0.97860443080261     -2.11632516226716
  H   0.21857676514526      0.73388774784406     -2.00411423589895
  O   -1.33284784044284      0.32531997668851      2.78826922503500
  H   -1.84346869290071     -1.28212694770584      1.56965503450140
  H   -2.88124032461070      0.13483486485538      1.42901640856345
  C   -0.58323615054481     -0.02900188532184     -4.48422354073629
  C   -1.04113536178371      0.12264318368989     -6.93894769161636
  C   -1.89115016345648     -0.19307768016596      3.91819297985481
  N   -1.32433667002633      0.41231725219323      5.00670028411107
  C   0.18003594957201     -0.40265942340718     -7.39723576957038
  C   0.40516846359062     -0.51889027059453     -8.77157078905564
  C   -0.56017454222589     -0.12324185797786     -9.70175169085575
  C   -1.77357117432580      0.39819828408085     -9.24213909483531
  C   -2.01406321295702      0.52117432758090     -7.87396522535409
  H   -2.96583933071244      0.93146698463701     -7.52202289434776
  H   0.93512861520233     -0.71146780334855     -6.67714257751483
  H   1.35874025673347     -0.92839013101534     -9.11631791136166
  H   -0.37017003846392     -0.21959603741345    -10.77348590170711
  H   -2.54255193662077      0.71407289470587     -9.95221474104684
  C   -1.59776432224847      0.19616646642127      6.37138011871847
  N   -1.35252742424836      0.27653859903512     -5.57408283859052
  C   -2.54481890868394     -0.73672957817751      6.82970584390394
  C   -2.75348321726433     -0.88545856549245      8.20352237522938
  C   -2.03863800975293     -0.12499990707307      9.13312702269492
  C   -1.09756853016440      0.80168095034436      8.67354133316438
  C   -0.87728785480942      0.96263163004983      7.30584995575083
  H   -0.13976571428625      1.69102066853767      6.95432954390581
  H   -3.10483950603884     -1.33091268011800      6.11039497690032
  H   -3.49297272280122     -1.61359530397222      8.54812870767833
  H   -2.21284574590148     -0.25187282836990     10.20434749616257
  H   -0.52789821936838      1.40777377043882      9.38313134277316
  O   0.53191605986355     -0.49747711492784     -4.47557904113339
  O   -2.74629415146155     -1.04850725323294      3.91132714216016
  H   -2.26710149746285      0.65733584746785     -5.35859941558913
  H   -0.61759578066867      1.10633672150268      4.79052423657880
