42
Coordinates from ORCA-job 2039_0.0
  C   -2.49929380729664      2.18869219405008      0.77988170182479
  C   -2.05040793794000      0.86327894871345      1.45644347933812
  C   -0.55548865289001      1.29167331533241      1.14876200875654
  C   -1.10376320232050      2.26323661880980      0.07796434074254
  C   -3.76734755737885      2.21218392072128     -0.04490676467163
  O   -4.19209577685898      1.01544334151561     -0.54425688577261
  C   -3.59254802210218     -0.19222258237311     -0.24656652650137
  C   -2.57886389142713     -0.33348593313583      0.71061790225898
  C   -1.07370075571733      1.73079676707786     -1.34576534692441
  C   0.48210252106785      0.32995440728849      0.66663634861959
  C   0.62971349338302      0.12168497032364     -0.70793400597741
  O   -0.15823395347643      0.76416503428848     -1.64490858270701
  O   -4.41449373665804      3.19779201743646     -0.25384580097093
  O   -1.77692347580999      2.15219184780370     -2.22040897026163
  C   -4.10910174962512     -1.28599101015874     -0.95416524369933
  C   -3.61506326745803     -2.56900242840068     -0.69647276960698
  C   -2.61033372799479     -2.74189748976090      0.27622110646968
  C   -2.11166544207404     -1.63987558934370      0.95601620066883
  H   -4.89250112158535     -1.08915315717781     -1.68426694243121
  H   -1.33236638402693     -1.78764186999734      1.70729314552948
  H   -2.24149558346708     -3.74996737875675      0.47362003174401
  C   1.34816350128375     -0.37796587337080      1.51868871841319
  C   2.29783552451052     -1.26511824896387      1.02742881706858
  C   2.41640985171131     -1.46565115914397     -0.36241532149408
  C   1.57982190704209     -0.75922068143554     -1.23590090965668
  H   1.26928233677736     -0.22256991284240      2.59895512309414
  H   2.96618024668745     -1.81487744707400      1.69257805698808
  H   1.63058797100526     -0.86570720118467     -2.31839002713782
  O   -4.04405518601277     -3.69021018132909     -1.32187061322376
  O   3.36131811707047     -2.34749975108293     -0.76326913082705
  C   -5.04796614106555     -3.58927791497370     -2.30980185067108
  H   -5.22930128295771     -4.60884362334341     -2.67606211958022
  H   -4.72722553867222     -2.95526493606004     -3.15593414543403
  H   -5.98932428615312     -3.18321067948351     -1.89755029004393
  C   3.53727490112911     -2.59586905550773     -2.14209270353418
  H   4.34126911113152     -3.33956378160218     -2.22521758096959
  H   3.83568833149278     -1.68266710187841     -2.68797207608294
  H   2.62086723560995     -3.00407217548296     -2.60496372274927
  H   -2.58159078403824      3.01737437831324      1.49489377552075
  H   -0.65851775031182      3.27064219104467      0.03657561318334
  H   -0.18046234548336      1.85507265422444      2.01707383354950
  H   -2.27372368910018      0.78099455692049      2.53302812715900
