50
Coordinates from ORCA-job 2040_0.0
  C   -2.58392845341136      2.05195080074699      0.79688480652647
  C   -2.14763666410183      0.70240733092490      1.45451770999759
  C   -0.63634034752382      1.14406261844465      1.21178417506354
  C   -1.17346230746387      2.12353184481455      0.13002795307475
  C   -3.82267746232761      2.11136444558102     -0.06001200434059
  O   -4.18875895696287      0.94320297608211     -0.67030744713622
  C   -3.58398005712237     -0.26650275889434     -0.40898811904979
  C   -2.61320483923193     -0.44842499619477      0.58509087429185
  C   -1.07509329882978      1.65960381627796     -1.31088231478571
  C   0.37642433729712      0.15509844536238      0.70935166982505
  C   0.58566145038473      0.01143140548807     -0.66398020660391
  O   -0.12518267099634      0.72600139595751     -1.60989548189265
  O   -4.49743242490843      3.08832922488643     -0.21637323594756
  O   -1.73729303613320      2.11737938865235     -2.19879056891968
  C   -4.04835080252883     -1.32851067057413     -1.19827518251839
  C   -3.55771718022785     -2.61835099972167     -0.97372750242931
  C   -2.61078861145857     -2.83417262174211      0.04977042919083
  C   -2.15871256573490     -1.76466541961205      0.80599957082601
  H   -4.79631857623500     -1.10311281675873     -1.95665482107241
  H   -1.43416994677431     -1.93912032006328      1.60323999141419
  H   -2.25188535314458     -3.85017924992885      0.22334651609219
  C   1.14578552069462     -0.64620476194135      1.57180355625218
  C   2.07889974935331     -1.55165040611026      1.08525366912754
  C   2.27192782945640     -1.68080135514019     -0.30573035599798
  C   1.51916730409602     -0.89214272102729     -1.18483195055009
  H   0.99389556991976     -0.53905209289723      2.64874568916316
  H   2.67633588572520     -2.17393839232642      1.75408583050262
  H   1.62223823772449     -0.95106876183648     -2.26718490564122
  O   -3.94017119226428     -3.70953391541851     -1.67441745468227
  O   3.19873991080019     -2.58305531366177     -0.70133094533311
  C   -4.88970700147116     -3.56910301883504     -2.71106427812506
  H   -5.03765772206117     -4.57086910754847     -3.13638024022444
  H   -4.53035265023361     -2.89033165594907     -3.50508442897445
  H   -5.85681242669958     -3.19315648315668     -2.33154232639894
  C   3.44221643800485     -2.76855610267320     -2.07991739655162
  H   4.21977894122357     -3.54027996270837     -2.15848049637909
  H   3.80602152341932     -1.84216707683923     -2.55979376711889
  H   2.53785563447421     -3.11402263786839     -2.61229516130361
  H   -2.65596969193057      2.84647321467680      1.54829956629612
  H   -0.73026936109535      3.13091014677840      0.15002941826700
  O   -2.41076547394143      0.50236365487011      2.81008224541282
  O   -0.22503106085727      1.81772427256312      2.37872533381742
  C   -3.77138672176904      0.40180309088338      3.17210115212872
  C   0.94628066315726      2.60228953429356      2.29375904335930
  H   1.84130947129666      2.00067792754825      2.05504488651312
  H   1.08303106521447      3.06664881698991      3.28099052128323
  H   0.86341175772413      3.40999081763570      1.54166414426783
  H   -3.80337622309543      0.28245810746136      4.26455313685857
  H   -4.26871575931677     -0.46792134133208      2.70453317721939
  H   -4.33926245011314      1.31475168384050      2.90642552520550
