54
Coordinates from ORCA-job 2042-2_0.0
  C   -3.30619898307157      1.09068334602569     -2.15075618761933
  C   -2.87562355419595     -0.40825205585397     -2.15761355216249
  C   -1.35937060067651      0.10853620344881     -2.32846047199646
  C   -1.84324353577613      1.48131924652770     -1.78153749551570
  C   -4.46623440878324      1.53980691900981     -1.29129157712953
  O   -4.76163018700477      0.75800375685344     -0.21743528384311
  C   -4.08186986746572     -0.40613319185908      0.07811075278542
  C   -3.16846681067021     -1.01605533350175     -0.79578731329500
  C   -1.59791741504932      1.74656681304122     -0.30830692190596
  C   -0.24343727990098     -0.51400932051595     -1.52600739104133
  C   0.11053259726522      0.03275694843453     -0.28865686570392
  O   -0.55943923217545      1.09804099440856      0.28356972393589
  O   -5.14054388225216      2.50008419392491     -1.52926057542680
  O   -2.23192493156749      2.54007996634915      0.32907659391287
  C   -4.40783038978876     -0.95382409713630      1.32531862595570
  C   -3.82219624992092     -2.15887317709064      1.72519735536190
  C   -2.91324122382803     -2.80197493226422      0.86230698158361
  C   -2.60189780418870     -2.23456347136720     -0.36460068067791
  H   -5.12099098765827     -0.40829762026465      1.94105031152114
  H   -1.90173087334489     -2.74848605390877     -1.02135403913514
  H   -2.46458753735399     -3.74411152195643      1.18216278722842
  C   0.50804753058452     -1.62098590590220     -1.96449958968186
  C   1.55038441928281     -2.15094326980591     -1.21672808534285
  C   1.88922805286565     -1.57362111594018      0.02276862625102
  C   1.16002369779117     -0.47313141800302      0.48718471799790
  H   0.25913810099910     -2.08876595752076     -2.91931391515239
  H   2.12358090644442     -3.01117851380149     -1.56681516737612
  H   1.36635523413525      0.01370572341515      1.43908233780555
  O   -4.07018386936586     -2.77101894104062      2.90416847951757
  O   2.91976649887176     -2.14130685204731      0.68871815463704
  C   -4.97683869959951     -2.18238913344946      3.81423366545231
  H   -5.01779546889787     -2.84735888386887      4.68737199051428
  H   -5.98977010997389     -2.09372479264410      3.38228608958278
  H   -4.63905658870096     -1.18206633666111      4.13928840897124
  C   3.30825908159817     -1.61729792094628      1.94166088434437
  H   4.14896291944884     -2.23218895459598      2.28992269667173
  H   2.48911459776140     -1.67565138132095      2.68074766649284
  H   3.64106466749986     -0.56691159915105      1.86008763803408
  H   -3.53249445192424      1.46255977688081     -3.15832878485272
  H   -1.45403219083085      2.36421579066291     -2.31324172893352
  C   -3.48191015825871     -1.24017060881371     -3.28930163500874
  C   -0.97670260355882      0.23255477592183     -3.80700714646120
  O   -2.73827953191369     -2.46306217840118     -3.42536363708545
  H   -3.46042918147098     -0.70854601424810     -4.25371295017802
  H   -4.53610737072863     -1.47442931947585     -3.07276755006184
  C   -3.27050306841101     -3.40700266607668     -4.22323925042457
  O   0.19280305664763      1.05982848648882     -3.89214692196807
  H   -1.77507615991545      0.70544463195426     -4.39962725539784
  H   -0.77371712341610     -0.74550017686704     -4.26350099343895
  C   0.86955319636091      1.03693722761024     -5.05108825661870
  O   -4.29726410835002     -3.30130044322718     -4.83158886340522
  H   -2.60534254814085     -4.29617052528494     -4.22725639362734
  O   0.57691569795982      0.38788653626736     -6.01677942868240
  H   1.74610873261409      1.71380234758780     -4.97153857940713
