50
Coordinates from ORCA-job 2043_0.0
  C   -2.63417094637118      1.25772808786040     -0.05711079861158
  C   -2.18573556381275     -0.20136633175611      0.21740696457493
  C   -1.07430317393117     -0.00380722301881     -0.89253066676690
  C   -1.25781427978155      1.52592752818997     -0.72018585384053
  C   -3.77697067799862      1.39980582663981     -1.05016515833159
  O   -4.62184080861387      0.33911167885653     -1.20225758962536
  C   -4.42134643186955     -0.90416470994509     -0.62434042667284
  C   -3.25306083875008     -1.23666978107242      0.06538759974893
  C   -0.27968942179520      2.18150958150648      0.24168056610496
  C   0.31935234775199     -0.50620977965763     -0.69358647770455
  C   1.25412460554024      0.32372104837881     -0.06999128590512
  O   0.93422308266825      1.58250953285282      0.41388239421092
  O   -3.97970961590498      2.39498105842746     -1.68685042578955
  O   -0.51057416718916      3.19954648287128      0.83075403190787
  C   -5.46504861614938     -1.81962791158279     -0.79694151071580
  C   -5.35429950763539     -3.11174684905445     -0.27236240243789
  C   -4.18402918851295     -3.47111347886002      0.44910917892140
  C   -3.16615831179369     -2.53201534254707      0.60182688698048
  H   -6.34318223727526     -1.49369279480826     -1.35241285838388
  H   -2.27712447108900     -2.83868253779248      1.15822644107985
  C   0.76141519512872     -1.76778734124081     -1.12615631352432
  C   2.07163518604762     -2.20108276049511     -0.93738579930482
  C   3.00003818324459     -1.34018605542259     -0.29230944650626
  C   2.58032365077293     -0.07500167755634      0.13135648639396
  H   0.07027718337326     -2.45201439884298     -1.62455222934538
  H   3.25238827302510      0.62160532275744      0.63054189699765
  O   -6.30055529218961     -4.07208194932307     -0.41109402298224
  O   4.25465149307055     -1.82328127284857     -0.12256285556893
  C   -7.47035936568653     -3.78711615864065     -1.14995153408358
  H   -8.07418950073721     -4.70445796572323     -1.14401416631108
  H   -7.23565688085200     -3.51786385943341     -2.19519088310633
  H   -8.05542802814679     -2.96868353741257     -0.69304700732424
  C   5.21311265428162     -1.03515288375949      0.55174083319915
  H   6.13621393242042     -1.62921087420074      0.58630220357844
  H   4.89560483838298     -0.80293673209177      1.58392728686873
  H   5.41542092396321     -0.08859916026377      0.01864776615058
  H   -2.87309905011848      1.89575404794300      0.80875004523428
  H   -1.28336461759621      2.14684401386032     -1.63025837021641
  H   -1.70045550814678     -0.28172713924963      1.20277560227144
  H   -1.47392418623793     -0.33692153461079     -1.86335806700791
  O   -4.00366085780823     -4.72889802726472      0.94624646572931
  O   2.41654928978486     -3.46387611966962     -1.32182485130828
  C   -4.86336272152195     -5.14785308144723      1.99738941425706
  H   -4.51450796853768     -6.14218784405674      2.31068392678720
  H   -5.91185905380478     -5.21941257570812      1.66729048608316
  H   -4.80022917699607     -4.46017111990240      2.86108228308203
  C   3.34758041630525     -3.59195154548212     -2.38740772016751
  H   3.45825056387123     -4.66870500472992     -2.57963939527211
  H   4.33092462257509     -3.16924097174160     -2.12634346449742
  H   2.97235402464627     -3.10238587893111     -3.30530717884988
