62
Coordinates from ORCA-job 2044b_0.0
  C   -2.48207420007228      1.28259291052109      0.27245622844995
  C   -2.05261254798450     -0.21416516762417      0.22371354831401
  C   -1.04427522502480      0.16654160925819     -0.96992642250214
  C   -1.26888227116212      1.66656333699313     -0.61489672676879
  C   -3.82363824826974      1.65294547535673     -0.32787743757387
  O   -4.75340051964863      0.66308051197315     -0.44979569661904
  C   -4.46310537896638     -0.68512215572493     -0.33005059381577
  C   -3.18406873820842     -1.17401933702367     -0.05338228091999
  C   -0.16608823266660      2.38724131421740      0.13517932885682
  C   0.39401643871714     -0.28298250259470     -0.87867362850769
  C   1.37370085078865      0.59816417253208     -0.41533023870060
  O   1.09265523571874      1.86981801956170      0.05501934449690
  O   -4.11354597371187      2.76679541070260     -0.65939556749777
  O   -0.34183370477892      3.39609360389853      0.75672161869235
  C   -5.55094174166023     -1.53779682399991     -0.55208899880239
  C   -5.37827983838923     -2.92405516615256     -0.51338659487265
  C   -4.08699618805855     -3.45136651760384     -0.24110323029311
  C   -3.03150952924862     -2.57232184819977     -0.01501558720478
  H   -6.51468881831404     -1.08067391404684     -0.77111457724885
  H   -2.05798053643965     -3.02229137111364      0.19088923344879
  C   0.82187604139141     -1.56689924294500     -1.26316536199500
  C   2.15567254814227     -1.96172993428174     -1.21202201672903
  C   3.13398892680602     -1.03330227947531     -0.76430609361627
  C   2.72612799520543      0.24057261168439     -0.35959699782782
  H   0.10758624705441     -2.30465637454728     -1.63478055554305
  H   3.43195599635525      0.98657857751449      0.00245286479380
  O   -6.36554159808194     -3.82137386850691     -0.73790087720682
  O   4.41897117904730     -1.45686074268579     -0.77137916898449
  C   -7.66143177958764     -3.35826066933530     -1.06105795944331
  H   -8.28285637017223     -4.25144260568337     -1.20881988167490
  H   -7.65922006446150     -2.76313148926157     -1.99128771436227
  H   -8.09310185880913     -2.74950413061783     -0.24653705513904
  C   5.44244155191036     -0.56828969179374     -0.37062858154787
  H   6.38835498027105     -1.11643041591954     -0.47388473248759
  H   5.32193088309253     -0.25296894709910      0.68124091559099
  H   5.47480086759623      0.32992776705050     -1.01249357264876
  H   -2.47065950360953      1.73600671089907      1.27613756595468
  H   -1.51799188278281      2.31314499568886     -1.47101952192417
  O   -3.83711200355034     -4.79159190728374     -0.25651269628275
  O   2.49448663497356     -3.20268220669750     -1.66204641824889
  C   -4.44413682563982     -5.58733185464440      0.75358944478611
  H   -4.07835030421415     -6.61318172587718      0.60528757863483
  H   -5.54273141485434     -5.57976865059589      0.67706668139561
  H   -4.14605340996266     -5.24466118073547      1.76178574153063
  C   3.02315244866349     -4.12266566126135     -0.71480410486533
  H   3.16631874031573     -5.07303997203871     -1.24801740539148
  H   2.31534898328294     -4.28401138170394      0.11910488054714
  H   3.98987330715507     -3.78418455942543     -0.30998867046100
  C   -1.28797602461396     -0.59953451748939      1.49070800590191
  C   -1.64861873813172     -0.16406909706077     -2.33499175589849
  O   -2.20604605844376     -0.52524752134277      2.59119834581719
  H   -0.45180118588210      0.09009730922241      1.68606491892918
  H   -0.85867034208172     -1.60880554671199      1.42675506100011
  C   -1.86710457538145     -1.16586322716032      3.72014022255924
  O   -0.88478252659341      0.54048489756117     -3.32381817228188
  H   -2.70151102063161      0.15161611273191     -2.40824840416734
  H   -1.63070750478872     -1.24320698991642     -2.54527931829581
  C   -1.14699917372989      0.25334680212044     -4.60851848424988
  O   -0.86452996544593     -1.80240941661755      3.89029410246208
  O   -1.96353549847863     -0.53680969586632     -4.99231869930096
  H   -2.66825518152367     -1.01472032316381      4.47429379901167
  H   -0.48552335243021      0.86449848234173     -5.25822762927231
