75
Coordinates from ORCA-job 2048_0.0
  C   -2.93121972094335      0.68023283126321      2.93511271789336
  C   -3.04521295450227      1.16313067127922      1.47612125968649
  C   -2.15842298524618      0.30060266500803      0.56567768119349
  C   -1.46636951013544      0.72703359152864      3.40353010235820
  C   -0.60028317620459     -0.17013113363129      2.49502364044922
  H   -1.40107005246450      0.40553114699165      4.45511810100021
  H   -1.08104226825855      1.75841554392320      3.36403871879480
  C   -0.69401111760611      0.34364068399638      1.04076046022747
  C   -3.42710216614585     -0.77631575297485      3.00739260881995
  H   -3.56309718960474      1.32176008302898      3.56953954861992
  C   -2.56925180343461     -1.67103203923859      2.08864665918089
  H   -4.48355142610048     -0.84429943430404      2.69693553130978
  H   -3.38421744969828     -1.12901278960124      4.05093357796611
  C   -2.66302969630463     -1.15273590750062      0.63620766952206
  C   -1.09612665400044     -1.63015443957798      2.52689343849988
  H   -2.93099964979144     -2.70743452255786      2.12532389413890
  H   0.44849510725392     -0.13843821680718      2.82152519732608
  H   -3.70998939047935     -1.22068811222091      0.29445582298314
  H   -2.06378684772442     -1.79241005575742     -0.03112302265916
  C   -0.62077683975008     -2.55824750730103      3.72985086330994
  O   -0.27267979952345     -2.46095843168448      1.65314082179224
  O   0.30331387571544     -3.17817138247503      2.79985870371904
  H   -3.69987171517460      5.02261465556462     -0.76646565533897
  C   -1.97610036336080      6.33513416183601     -0.64443303927360
  C   -2.72095336765220      5.05701025176354     -0.25452363413345
  C   -2.95506130766847      4.88962431443952      1.26789219064271
  C   -3.54342810382129      3.50891721996907      1.53537014087849
  O   -2.62203915072547      2.53870878993737      1.34616076000836
  H   -2.15228060078506      4.18354597064524     -0.61290634480514
  H   -4.09790773759735      1.10878080494450      1.15869865252522
  H   -2.23462926355842      0.67897882694922     -0.46742926326804
  O   -4.68769602741058      3.28750105626117      1.85212568839812
  C   -3.84535687519445      5.97555269577648      1.87610452389484
  H   -1.96378429987830      4.90259218395754      1.75607286700514
  H   -4.84223844536840      5.96925065130361      1.40866624813089
  H   -3.40125205028646      6.97299900411138      1.74168967017076
  H   -3.98966704331024      5.81211656166336      2.95491771162223
  H   -1.00100139225211      6.40213206496550     -0.13259000508994
  H   -2.54646044548560      7.24405039116366     -0.39626750347146
  H   -1.78334659577660      6.35657279508406     -1.72914585871244
  C   -1.63322666136697     -3.55244789215236      4.25214737987561
  C   0.09534065558095     -1.92923850396271      4.90057469472027
  C   -0.58039749844032     -1.79049395396317      6.12453232194010
  O   -1.84315117665896     -2.29601328576064      6.30753826419370
  C   -2.22811862245332     -3.33798802746231      5.50454785536552
  C   -2.02390103517314     -4.68728984657357      3.52921549200516
  C   -3.00744720724179     -5.56149599745233      3.99477106115065
  C   -3.61824252981685     -5.28850412868292      5.22995123426836
  C   -3.22368962137789     -4.18508440482405      5.99158209820389
  C   0.01361912717146     -1.14469978948194      7.21404087814348
  C   1.42124622795807     -1.47484692348605      4.81918932931128
  C   2.03071544185216     -0.84489127810852      5.90461932605095
  C   1.31690674858465     -0.66360721721279      7.09657283860794
  H   -0.55324631749488     -1.05374806724924      8.14276763928949
  H   1.96769233915401     -1.63681949305427      3.88818147717566
  H   3.06242887587504     -0.49472246062849      5.82295666266447
  H   1.78644651393190     -0.16467025675264      7.94833097557835
  H   -3.66967237012337     -3.99944779167853      6.96912815116487
  H   -1.53698465211948     -4.88408793985239      2.57202708568010
  H   -3.30380341918751     -6.42924551154635      3.41330011563851
  O   -4.60059251772901     -6.05531315096947      5.83289025335634
  C   -5.25599134853002     -7.11615944771722      5.27950700934359
  C   -6.28162474130329     -7.65982066795328      6.26665861201830
  C   -7.38486950815969     -6.61580552023092      6.52605173649379
  H   -6.96531114669425     -5.67209303369529      6.90378483888156
  H   -8.09995329030945     -6.99744133899598      7.27165566686436
  H   -7.94567493004657     -6.40043975687101      5.60149345659603
  C   -6.84543246113907     -8.99527220623422      5.77939303586396
  H   -5.73508450905932     -7.81111216538896      7.21502812932922
  H   -7.55243337861488     -9.40290559977300      6.51877374259853
  H   -6.04787814528583     -9.73587297018814      5.61755629028518
  H   -7.37754417846275     -8.87024927479590      4.82355461231967
  O   -5.05235065998694     -7.54589941958225      4.17468839164964
  H   -0.30379840064209      1.37231501372450      0.99199207028706
  H   -0.06740910243439     -0.27837758316603      0.38237612776803
