48
Coordinates from ORCA-job 2051_0.0
  C   -6.61504048899105      0.43774798839779     -1.26848211416523
  O   -7.87112365361113      0.72494441052774     -0.90046517865121
  C   -5.76277891890196      0.09434767245608     -0.06771644715120
  C   -6.00204965046320     -1.27588223735814      0.67247410253035
  C   -4.29855695561677     -0.28483971721525     -0.34216044218510
  C   -4.42951977999022     -1.41779737342336      0.72344663341336
  C   -3.26061035225371      0.78020844673551     -0.06787686644677
  O   -6.22517894164271      0.44606585060405     -2.41217549635987
  O   -3.38119853894934      1.65501383751661      0.75756059078193
  O   -2.16405914796300      0.61814238743751     -0.82666094947492
  C   -8.80782274133249      1.03292223352912     -1.95232620348162
  C   -1.08271502118572      1.54986430701239     -0.62319521774167
  H   -5.82457866194679      0.91832978232559      0.65878109828513
  H   -4.17030323895841     -0.67660965759327     -1.35940828264775
  C   0.03777778158205      1.18587878971779     -1.57481317189552
  H   -0.76570733484115      1.50047756735816      0.43145288838404
  H   -1.46058558429338      2.57023709051105     -0.79814753052674
  H   0.41074924451000      0.16849272557324     -1.37828128346451
  H   0.87648048453743      1.88901049172294     -1.45134880126720
  H   -0.30156832340213      1.23407404264331     -2.62122938817623
  C   -10.15118683681238      1.31749820044560     -1.31392821117344
  H   -8.85103143374179      0.17892511847122     -2.64761121476732
  H   -8.42785291981157      1.89615168432903     -2.52267057155012
  H   -10.51412411513441      0.44207577861652     -0.75320585222530
  H   -10.89221409676172      1.56081203325538     -2.09158705682727
  H   -10.08590393262655      2.17024332507766     -0.62015114980250
  C   -6.79791571699326     -2.33232943871688     -0.05596612715195
  H   -6.44762124586620     -1.14057101405150      1.66721399194416
  C   -3.74231160261392     -2.74407802590180      0.51669981510647
  H   -4.10856073040178     -1.01525634318633      1.69949422486267
  C   -4.12349086466219     -3.87683384854394      1.25347503604110
  C   -3.43457768839778     -5.07741642797241      1.06776048297664
  N   -2.41151752017102     -5.22140446750513      0.21968020552779
  C   -2.04427248262469     -4.14553946397072     -0.47833479969854
  C   -2.66867447266016     -2.89726383201844     -0.37099574227313
  C   -7.90553454667544     -2.92549301397468      0.56874440600403
  C   -8.64025255477087     -3.90555283948525     -0.10559971968250
  N   -8.35063248249999     -4.32504822878786     -1.33892431863474
  C   -7.29895912058220     -3.76321568817308     -1.94121708622289
  C   -6.49948686193336     -2.77742255116117     -1.35507574351694
  H   -2.30559038204808     -2.05528279407635     -0.96444157435388
  H   -4.95251442249671     -3.83256242303614      1.96456280053243
  H   -3.72843085614912     -5.96849274323054      1.63614248299566
  H   -1.20140575138314     -4.27404220418208     -1.16899715385896
  H   -8.19822400498491     -2.62504138174394      1.57883594296045
  H   -9.50610747805177     -4.37140000593321      0.38135754801974
  H   -7.06948068204811     -4.11528870947796     -2.95431374356259
  H   -5.66048537338292     -2.36964933354479     -1.92068481142830
