24
Coordinates from ORCA-job 2053_0.0
  C   -5.77217127142646      1.12671918019570     -1.43541065392017
  O   -7.09415618835157      1.01485166008414     -1.28680909408032
  C   -5.11127055478045     -0.24836956161731     -1.41029871691162
  C   -5.18004232560647     -1.13443910273011     -0.15135644387779
  C   -3.54970136873076     -0.35626598438597     -1.35610805973791
  C   -3.72638758050061     -1.59327433574997     -0.43791503965436
  H   -5.97690561979918     -1.89031998985381     -0.18875160605424
  H   -5.25595311196855     -0.53945050082204      0.76816902647008
  H   -3.69070107563054     -2.50341992105176     -1.05227964800703
  H   -3.03977766234399     -1.67625066214572      0.41457501185001
  C   -2.90365557752481      0.82464744516284     -0.62847133822887
  O   -5.18116190678480      2.16954126926147     -1.56940911218296
  O   -3.12954084119423      1.07126750595091      0.53335167057756
  O   -2.07519076571570      1.50864751743242     -1.40865027724069
  C   -7.84621397217757      2.23314106314726     -1.31301374962372
  C   -1.50055103934608      2.68679321265857     -0.83742563543087
  H   -8.89465438014022      1.94682761595169     -1.16625442195230
  H   -7.71997564926768      2.74504153736276     -2.27887946090358
  H   -7.51570183250433      2.90930270653479     -0.51003164366385
  H   -0.82954232964947      3.09757157181561     -1.60163157448010
  H   -0.94030430037198      2.44539833339213      0.07837632488631
  H   -2.29183684005657      3.41093282620287     -0.59185655569300
  F   -5.56120554961318     -0.95096383286595     -2.51093058735690
  F   -2.96283825651468     -0.58045955393053     -2.56368841478366
