24
Coordinates from ORCA-job 2054-2_0.0
  C   -5.68383682709896      0.85667256433472     -2.17630366551833
  O   -6.34846799483219      1.27281566192536     -1.09359538965516
  C   -4.88694919697168     -0.41003175401484     -1.88001113674240
  C   -5.33452068174119     -1.41158474257979     -0.77880649591743
  C   -3.55249569126637     -0.23320058336680     -1.05968585287441
  C   -3.86925072461997     -1.59166353635181     -0.38728601005281
  C   -2.27935374693940     -0.13514298630777     -1.89565755607438
  O   -5.68577399711099      1.40121240645075     -3.24672800712780
  O   -1.62739173376736     -1.09319993853077     -2.22280553914565
  O   -2.02207605795233      1.12846633794446     -2.22248116489356
  C   -7.06684489622474      2.50596584603764     -1.22152048964519
  C   -0.86712394296726      1.35614734069196     -3.03991313927214
  H   -7.53710493744571      2.68594493335025     -0.24748343483358
  H   -7.82932953757315      2.42855456796497     -2.01071710323714
  H   -6.37764364405907      3.32588281298524     -1.47323196415257
  H   -0.82237092078983      2.43914564096381     -3.20478849053454
  H   -0.96321866178975      0.82320128882798     -3.99752650879436
  H   0.04160712300727      1.00603906624607     -2.52784402472331
  F   -4.61742685773767     -1.05395138062571     -3.05373586355954
  F   -3.65554268551193      0.80930682471351     -0.17950784882596
  F   -3.58132188638155     -1.70048345309608      0.93736885760640
  H   -3.39117226364621     -2.40410990120591     -0.95756763331644
  F   -6.02553882338827     -2.50705476923809     -1.19049690337766
  H   -5.88813141319162     -0.88011224711915      0.01069536466802
