24
Coordinates from ORCA-job 2054_0.0
  C   -5.81385948412239      1.03110743141015     -0.99579799136421
  O   -6.81380999735131      1.25714535353856     -1.83779574243624
  C   -5.18739403408836     -0.34378271918501     -1.16840232866176
  C   -5.01305695308884     -1.23179807345952      0.09795255940134
  C   -3.61386388064687     -0.44538910171954     -1.32765069899537
  C   -3.64107287408458     -1.71801316201207     -0.42610603412590
  F   -5.96695065065625     -2.17403170368332      0.29259802389755
  H   -4.89216370441844     -0.60138041726952      0.99390421667136
  F   -3.75635391467485     -2.84571787716532     -1.18345749607884
  H   -2.82463630659270     -1.83014560774383      0.30110549511140
  C   -2.83607114460634      0.70232698863715     -0.67759781449558
  O   -5.41673643540406      1.80749355617159     -0.15769044275290
  O   -2.44312423717075      0.66867359426812      0.46242522120946
  O   -2.65996201525883      1.70609305869676     -1.52899037977267
  C   -7.46094987224519      2.53113363211364     -1.73366515003530
  C   -2.00197819949581      2.86962399151686     -1.01125846637864
  H   -8.25428415585076      2.52883008151590     -2.49028468090709
  H   -6.74477790467804      3.34351445225560     -1.92801601591808
  H   -7.88599831705050      2.66680481851221     -0.72801331678391
  H   -1.89468286460378      3.55813188305125     -1.85785471192723
  H   -1.01641932414086      2.60645006036374     -0.60020857713937
  H   -2.61422835484538      3.32285631964168     -0.21751117563426
  F   -5.77394367267331     -1.04790021215059     -2.17322398613136
  F   -3.22312170225168     -0.64455634730453     -2.60917050675237
