72
Coordinates from ORCA-job 2055_0.0
  C   -1.37923635385411     -1.70733672772742     -0.32783449283772
  N   -1.83423792859188     -0.89474202893689      0.70509559742445
  C   -3.00079798324333     -0.11096465401517      0.66515379995228
  N   -3.68061588991953      0.00982263729863     -0.53128899075696
  C   -3.26055672606218     -0.59861830565100     -1.77931642248983
  C   -1.92659346110509     -1.39889550633018     -1.71278783571277
  C   -1.19214648029738     -0.19295722694727     -2.46384249475062
  C   -2.58383811076424      0.31749283050633     -2.88240823118670
  H   -4.10234948190337     -1.18987183749091     -2.17652683159779
  C   -0.49666633276732      0.76049322379845     -1.48648694991689
  N   -1.00881627151286      2.04477977123682     -1.36368432151003
  C   -2.03955678653629      2.61039901062777     -2.15920253849872
  N   -2.76468067710488      1.73999827407718     -2.93918296381304
  H   -2.85155746761090     -0.09421850960191     -3.86710261486016
  O   -0.56380844315991     -2.58441228882365     -0.13848276172344
  O   0.49471018573026      0.41107556837303     -0.87569297811891
  C   -1.13631492098727     -0.99290221681351      2.00354098926816
  C   -1.69038887243844     -2.08655063351412      2.91265575122821
  H   -1.22715524155775     -0.01104172788779      2.48441635104150
  H   -0.08087869965354     -1.17968860539338      1.76726675112508
  H   -2.74745849992894     -1.89854292246419      3.15526170655543
  H   -1.12433293788017     -2.10567480077672      3.85804312748315
  H   -1.59530690110665     -3.07615941213011      2.44074121825334
  C   -5.06298895345184      0.50620976319890     -0.42231720134272
  C   -5.20435582130756      2.04787346741854     -0.45200337670103
  H   -5.48954484687006      0.12829624912809      0.51668095269147
  H   -5.63449677342568      0.04521170612357     -1.23974891661196
  N   -6.53279358208367      2.56453930632440     -0.12357902331762
  H   -4.92599716195665      2.43703489857408     -1.44062319354435
  H   -4.48891279217345      2.47298098586874      0.26444979318190
  C   -3.69849336425772      2.28626717427709     -3.91589759170688
  H   -4.71042788905755      1.87483617411144     -3.77545514383831
  H   -3.36798252915051      2.05281469286934     -4.94365307237502
  H   -3.74229795416959      3.37376947859960     -3.78858950800476
  C   -0.30345048135518      2.97117441732786     -0.45246803055708
  C   0.87271426869543      3.68597639666139     -1.11232952091875
  H   0.04152445495815      2.36869992281109      0.39749542874855
  H   -1.04627909227145      3.69723068198050     -0.10090016368441
  H   1.62661105848337      2.96480144956062     -1.46345165981650
  H   1.35850739720242      4.35393303727371     -0.38277217835944
  H   0.53235626628810      4.30014545546940     -1.95973500098989
  O   -3.41161096551445      0.42063910505372      1.68491623943030
  O   -2.24093252372686      3.80965804835739     -2.13533801599343
  C   -7.51047875443952      2.64764312097606     -1.13914682058282
  C   -6.84901745221380      2.81518900656232      1.23855489766589
  C   -7.91484792856418      3.67229906742605      1.59553112656749
  C   -6.10777551698494      2.22977396604233      2.28348022065306
  C   -6.42177206123469      2.48398296985087      3.62283651774646
  C   -7.49787755087509      3.30313978002341      3.96079640442379
  C   -8.24637631369976      3.88861144099960      2.93669265924996
  H   -5.26066489172599      1.57791627592994      2.07292888521273
  H   -5.81252960135230      2.01961452245168      4.40242529475359
  H   -7.75352972176794      3.49290544746412      5.00601391201387
  H   -9.08918461178954      4.54435134787558      3.17105279873720
  C   -8.64056947385762      3.49169911405145     -1.00820670549912
  C   -9.61924768486474      3.54602855935295     -2.00551890090900
  C   -9.48695315554675      2.81106574189842     -3.18682195131647
  C   -8.36626480149247      1.99908759541840     -3.34764755970502
  C   -7.40516692853678      1.90875314767874     -2.33519039500621
  H   -8.23440374975986      1.41198325006552     -4.26033934503524
  H   -6.56085668952322      1.24083800949809     -2.48981665659056
  H   -10.48472034518388      4.19654893716980     -1.85393670425461
  H   -10.25044314635812      2.87704314885738     -3.96535287877232
  S   -8.77635367923194      4.61386526552433      0.35916829753216
  C   -1.98370092371725     -2.69317430841646     -2.52630668885970
  H   -2.66183856652801     -3.40972024001856     -2.03635890863550
  H   -0.99033539502690     -3.15798378341057     -2.57693066752821
  H   -2.35480825761980     -2.52132292608583     -3.54763822656526
  C   -0.18146725618278     -0.53276217632286     -3.56061827293580
  H   -0.61199889574605     -1.20147922628503     -4.31927412748001
  H   0.70311057563079     -1.01403882393510     -3.11886681226920
  H   0.15214834559468      0.38572544695363     -4.07102507345909
