39
Coordinates from ORCA-job 2057-2_0.0
  C   -1.62492355144114     -1.60118654890576     -1.53614502611761
  N   -2.02336537860787     -1.79198957180056     -0.22914250461231
  C   -2.96871488492403     -1.07551497422839      0.52122103635493
  N   -3.52045226837416      0.03503308769990     -0.07788258779662
  C   -3.27229833558459      0.44759818692876     -1.44491223194991
  C   -2.08027590283754     -0.27912378743195     -2.14781485035851
  C   -1.17560936117662      0.97321805026895     -1.83438051278876
  C   -2.45776920356942      1.79801058869281     -1.59967505477295
  H   -4.21569104694667      0.42171572293493     -2.01842502399359
  C   -0.26942997453716      0.85082019687829     -0.61862814878060
  N   -0.54665808769270      1.73220158385968      0.40810355826375
  C   -1.52071527136337      2.74655781214135      0.48064834678057
  N   -2.42815882205778      2.78301008304415     -0.54966126095779
  H   -2.76928572794756      2.29352809920957     -2.53089765551892
  O   -0.96768020005258     -2.42081663360944     -2.13653811954316
  O   0.64887605188180      0.06390240543093     -0.56106406362304
  C   -4.65568999009648      0.65381508037711      0.62308869147502
  C   -3.37207276128550      3.90562231591700     -0.58431150514439
  O   -3.26783877228954     -1.45011568253125      1.63859035563804
  O   -1.51524166185043      3.53320968432870      1.40692965986757
  C   -2.29591852060602     -0.46452071967805     -3.65018668249989
  H   -3.10562741972121     -1.18678494476891     -3.83948404548827
  H   -1.37801581463443     -0.86025677631854     -4.10677639251029
  H   -2.56029302972015      0.48476998547800     -4.14128365894824
  H   -0.53182998458735      1.28241770629350     -2.67284155643511
  H   0.08572455873073      1.70875798058849      1.20532378423945
  H   -1.67511504326325     -2.62821550724703      0.23410459204444
  C   -5.97191667855751     -0.10281764325080      0.43940509306631
  H   -4.74760847985220      1.68525770829193      0.25662089053417
  H   -4.39978588984509      0.70657133461835      1.69028430932627
  H   -6.25392820238193     -0.18701604635820     -0.62354676296060
  H   -6.78772657886500      0.42378542738816      0.96063766672582
  H   -5.89686967446010     -1.11510631189861      0.86368172384539
  C   -2.80523237690252      5.15395532786195     -1.26050819169331
  H   -3.65307706234902      4.13733864557722      0.45276362281792
  H   -4.28047601234353      3.56202976852379     -1.10520319713330
  H   -1.93099524634448      5.52584491153926     -0.70497864564993
  H   -3.56158157134477      5.95521892566192     -1.28098972679942
  H   -2.49886182219879      4.95163452849272     -2.30029592490311
