45
Coordinates from ORCA-job 2057_0.0
  C   -1.77478252856904     -1.72733459632076     -1.54841117526167
  N   -2.04313878907201     -1.73252418383438     -0.18794828341105
  C   -2.87926457555645     -0.81344714211854      0.48626202588277
  N   -3.44090648027197      0.20829783156208     -0.24772136238052
  C   -3.21749100123765      0.46051443377522     -1.65323699367691
  C   -2.13440683398870     -0.45073033304829     -2.29868020132665
  C   -1.10183861827509      0.74043255481606     -2.16804732055755
  C   -2.28794723686228      1.69872693152297     -1.98356397745220
  H   -4.18632475264574      0.46765856536538     -2.18423512511037
  C   -0.15768763443092      0.65698103049753     -0.98132438125583
  N   -0.33918427417742      1.58131049286060      0.04033872665214
  C   -1.23348692899158      2.68283126609075      0.02030660613349
  N   -2.10278860023121      2.76734237326825     -1.04426771202233
  H   -2.59936880920303      2.13346935456256     -2.94518916837951
  O   -1.25112869685802     -2.67064663406201     -2.10377442921539
  O   0.71857199158329     -0.18303030679965     -0.94137077899325
  C   -1.51090700649846     -2.85560846238484      0.60827634219884
  C   -2.45098105887144     -4.05687318179612      0.66203586045901
  H   -1.32689282721020     -2.46706599142200      1.61732211183924
  H   -0.55360777141687     -3.13219580751492      0.14799693083248
  H   -3.41033216559762     -3.78462374874644      1.12886745585101
  H   -1.99711892637341     -4.85945361497771      1.26587341702082
  H   -2.63841007856673     -4.45629243425402     -0.34643009035178
  C   -4.41009190135374      1.04880416020059      0.45310374447034
  H   -3.92915969381907      1.86089228518188      1.02299078070404
  H   -4.98453079437545      0.43871027001099      1.16261576090697
  C   -2.97372751326103      3.93010383522440     -1.14105615916735
  H   -2.92964874224741      4.34906785439718     -2.16038196648587
  H   -2.63648551222886      4.68272883655192     -0.41947994907678
  H   -4.02403390748958      3.67669616437841     -0.91467908754396
  C   0.56073889540405      1.49082903801690      1.20886858504294
  C   1.83447038205515      2.31752152487483      1.05497188730152
  H   0.80517367215092      0.42795763271754      1.32841754774543
  H   -0.01380617060650      1.82766797578633      2.08041135850185
  H   2.42066804950168      1.98463865546876      0.18429294872489
  H   2.46476075467493      2.19912062594474      1.95117915989210
  H   1.59657277307884      3.38642875838790      0.94562938936989
  O   -3.10646353451545     -0.94661497086352      1.67521331113423
  O   -1.19873561178009      3.51300639771726      0.90963276354011
  C   -2.43070418689346     -0.78169016860449     -3.76186369725076
  H   -3.31120740474848     -1.43865843730388     -3.83994714877417
  H   -1.57462034828791     -1.31274656775081     -4.19998024984826
  H   -2.62780954600940      0.12888616008741     -4.34878689085206
  H   -0.47464837224760      0.88572065360874     -3.06075085531267
  H   -5.09637768367886      1.49022091892518     -0.28504971049720
