39
Coordinates from ORCA-job 2057-3_0.0
  C   -1.69436839994692     -1.63184476379150     -1.65951777275510
  N   -2.14916630590728     -1.94929340641200     -0.39470209473334
  C   -3.00235182306774     -1.21717038828651      0.44573174228707
  N   -3.47719094039278     -0.01269934341882     -0.03849843744473
  C   -3.30207075981844      0.43672782189857     -1.40746071668693
  C   -2.11715232950641     -0.25715621655271     -2.12367989242374
  C   -1.20419702570665      0.98290529506637     -1.81752152742387
  C   -2.50406094154569      1.79193100982368     -1.58589988921960
  H   -4.26503388893132      0.40382952235315     -1.94712065354993
  C   -0.39263835584493      0.82191648378620     -0.52928800702532
  N   -0.63072714574677      1.77543896940529      0.43954300551672
  C   -1.58759109507097      2.80743878919114      0.46610065635615
  N   -2.48358058012892      2.81648393753453     -0.57423295010056
  H   -2.82284911865328      2.24638689153362     -2.53730514916976
  O   -1.03175023959834     -2.39150613771019     -2.32856861910854
  O   0.45053384266915     -0.03699758957573     -0.38983603678399
  C   -4.54740919001567      0.61843488639180      0.75098819574275
  C   -3.43369797169618      3.93173833808113     -0.64871197422401
  O   -3.29338974112214     -1.65164428885256      1.54328513182190
  O   -1.58256109103412      3.62390846058416      1.36619481606031
  C   -0.25414064396309      1.42731964786771     -2.92960537229215
  H   -0.03638545045917      1.73872611621316      1.26496855494507
  H   -1.83616262579988     -2.83340536234111     -0.00070731271008
  C   -5.91275284937369     -0.05085312949320      0.58201646512378
  H   -4.59383838630341      1.67465239070842      0.45413679618424
  H   -4.24439955680322      0.58810010788189      1.80658057351859
  H   -6.24154184673283     -0.05643794170627     -0.47075112297281
  H   -6.67386614470282      0.49117309078081      1.16625878339210
  H   -5.88112261801970     -1.08840012834207      0.94569638562863
  C   -2.87521881736047      5.15569976061347     -1.37427474718657
  H   -3.71201436332404      4.20140642833008      0.37999964176889
  H   -4.34205636631135      3.56267400648041     -1.15211924616331
  H   -2.00150913079158      5.55361069703689     -0.83613813190413
  H   -3.63575924890652      5.95157008096430     -1.42490479146717
  H   -2.56985364578851      4.91371459804912     -2.40583948763793
  H   -0.79665882534370      1.53442899417914     -3.88244092457143
  H   0.54215518573427      0.67956395729948     -3.06019007091264
  H   0.21461206924477      2.39495551991195     -2.68689484897124
  H   -2.28337363392956     -0.32024710548380     -3.20757097090730
