34
Coordinates from ORCA-job 2061_0.0
  C   3.85330767444676     -6.43995676192624     -0.41711452155805
  C   4.49375925669226     -5.18043628002971     -1.06483549130931
  C   2.52505050722739     -5.62144576198806     -0.26529074662616
  C   3.31969826147466     -4.32010415704044     -0.52952622755457
  H   3.56780406332570     -3.80206831877777      0.40610213626237
  H   2.86455282527575     -3.59845924990907     -1.22459427587292
  H   4.51630651938652     -5.24358597262394     -2.16436898242558
  H   5.50156600391229     -4.93829221028124     -0.69676419069363
  O   4.40255246546954     -6.75710314258297      0.83392554138980
  H   3.77428853321630     -7.33218265515396     -1.06425384918179
  C   1.76091035899364     -5.85549439211105      1.01511143938540
  H   1.84335378243558     -5.87125748300352     -1.09405834516892
  O   1.20350280760445     -6.89403844930334      1.28526097147391
  O   1.76171892956508     -4.78863745412950      1.83315750352756
  C   1.07812800262458     -4.94527258331883      3.07616255483965
  H   1.15240669105328     -3.97923293554511      3.59157535563190
  H   1.54601406901519     -5.73737499551774      3.68094829773761
  H   0.02275244947592     -5.21271541425548      2.91291453417748
  Si  5.34134270228987     -8.10688001637184      1.24504330277997
  C   5.61048101463224     -7.93156903199450      3.09585017451174
  H   6.12351990618647     -6.98332896137004      3.32605727237302
  H   6.22850512905261     -8.75635520417220      3.48870671895823
  H   4.65156369365628     -7.93578724559515      3.63853741083724
  C   6.98635219116096     -8.03865797573070      0.32004498640679
  H   7.51901094407220     -7.09653978278069      0.53224426697178
  H   6.84247792295451     -8.10500648075264     -0.77161567167063
  H   7.64561213711737     -8.87188765548407      0.61769455049898
  C   4.43309516112911     -9.70669286480397      0.79774624887176
  C   3.08321929419214     -9.93730298957228      1.49652536168292
  H   5.12866167860360    -10.54049392114301      1.01419365111924
  H   4.30084665555689     -9.72752981500525     -0.30068660507044
  H   3.20192244870845     -9.99827423653154      2.59157605745882
  H   2.61483605372122    -10.88103199351490      1.16960830461473
  H   2.37303986577108     -9.12057360767900      1.29251226562106
