34
Coordinates from ORCA-job 2061-2_0.0
  C   2.94757904020843     -6.84397598825032      0.34757784635997
  C   3.41437049409957     -6.79922079536636     -1.12848435841453
  C   3.16513504417755     -5.29546664631918      0.42522730270307
  C   3.06268153665638     -5.29079586500036     -1.12391296568985
  H   3.73514617875326     -4.60751574041311     -1.66247156900397
  H   2.02580538142568     -5.10344908921527     -1.43952715928144
  H   2.90572055465941     -7.46062680317909     -1.84667002044755
  H   4.50188416578616     -6.95092074013504     -1.21409961397189
  O   3.53746525550419     -7.66567173728633      1.29935040639993
  H   1.85948665149503     -7.02877291859354      0.37406949830017
  C   2.14780955222913     -4.50835105634806      1.20706245155947
  H   4.18131174777021     -5.06686584676828      0.77417872850568
  O   0.96829919326496     -4.46059444590144      0.94464421583538
  O   2.69563605553781     -3.87232062207660      2.26144123163850
  C   1.79825605146103     -3.13118360966361      3.08803203877120
  H   2.40819213721613     -2.69350205813225      3.88852097856882
  H   1.02400515336131     -3.78817714016755      3.51372227353459
  H   1.29794108378387     -2.33771545549559      2.51142046699980
  Si  5.07949335019175     -8.30364289949119      1.54083287936623
  C   4.99497217323002     -9.04664390886624      3.26495650383383
  H   4.78254133996419     -8.26723091329094      4.01502161682019
  H   5.94686750486997     -9.53253726652572      3.53802232429735
  H   4.19473384049341     -9.80132577969417      3.33292419377366
  C   6.40688679251103     -6.95907665309288      1.47534864320813
  H   6.19107908169102     -6.15419418149917      2.19767786366813
  H   6.49833441387073     -6.50197090267432      0.47608824634081
  H   7.39309228851843     -7.38241909555777      1.73304276648794
  C   5.45976409932864     -9.63451306460673      0.24454453335541
  C   4.42715457385280    -10.76687800075387      0.13327920331426
  H   6.45636145641189    -10.05063032129948      0.48728007247727
  H   5.58498812142655     -9.13987381254048     -0.73611690500011
  H   4.33293411163613    -11.32667342145915      1.07878731285529
  H   4.69958525841020    -11.49448996754147     -0.64961164634876
  H   3.42553631620295    -10.37685325279415     -0.11089936081701
