51
Coordinates from ORCA-job 2062_0.0
  C   -1.93916933611885      1.28032772789120     -1.11980069608312
  C   -1.36086324289984     -0.16152315705115     -1.17782270706358
  C   -0.43018948393156      0.21464132857837      0.03205717504669
  C   -0.73996913091966      1.72503566043117     -0.23058437094764
  C   0.32724329061864      2.45016169405091     -1.05219440420704
  C   1.02434904682266     -0.13375599728696      0.08000097853573
  C   1.96316817137025      0.76706165175918     -0.43251209528408
  O   1.59683746607119      1.95228546319504     -1.04052660938442
  O   0.09325902727938      3.42293314275646     -1.70967218850138
  C   1.51912630864444     -1.32122253223781      0.64826964176891
  C   2.87913981343125     -1.60229365816359      0.69307235387345
  C   3.80345227622273     -0.67592424868866      0.17157155317538
  C   3.33993538180047      0.51926887222171     -0.39274079952533
  H   0.80974213020124     -2.03984176617482      1.06944177893327
  H   4.00543909419524      1.27453608963953     -0.80789547429102
  O   5.11075024070538     -1.01758883677362      0.26011604717612
  C   6.09148671382115     -0.13314196966635     -0.23879614140409
  C   -0.65180624567601     -0.53134080195265     -2.47473587712141
  C   -1.62708612203811     -0.82415734045406     -3.60016922371751
  H   0.04438061947169      0.25087869918272     -2.82081441309846
  H   -0.02768687716548     -1.43216409390526     -2.33713308938643
  O   -0.98580299118397     -0.97525894063103     -4.77153984264413
  H   -2.09308443007077     -0.94680003578811     -0.94192070703728
  H   -0.92608118485925     -0.10429636498963      0.96087545138607
  O   -2.82410520622017     -0.92641702498470     -3.47569405461849
  C   -1.79180208014194     -1.28635834273507     -5.92045669552145
  C   -0.88377899339116     -1.35680800656919     -7.13652701709427
  H   -2.57071801057655     -0.51366286934523     -6.03504743441284
  H   -2.31408233608209     -2.24273900390398     -5.74521261907520
  C   -1.65303021458472     -1.69663365583958     -8.41433510439785
  H   -0.09883281649871     -2.10998089383746     -6.95007618919420
  H   -0.36513461535795     -0.38905171561371     -7.24757635910903
  H   -2.16075110550525     -2.67263162708598     -8.33378696405744
  H   -0.97727694990115     -1.74537057870177     -9.28227230341215
  H   -2.42387854088355     -0.93945776841843     -8.63613690741544
  H   -2.04461607510675      1.82383529552443     -2.06901733763242
  H   -2.88538038743360      1.33358196637822     -0.56841349712052
  H   3.25855124480145     -2.52592563308497      1.13390517989027
  C   -0.98238869534925      2.55054731181095      1.02556031547332
  O   -2.17565941710738      2.28529761636913      1.57795558314053
  C   -2.48610374194387      2.96468669461572      2.81101430058815
  C   -3.87264035929448      2.53859570478177      3.24527346750837
  H   -2.41848425533588      4.05122692312697      2.64067095088887
  H   -1.71836259982905      2.70730009841865      3.55907513586530
  O   -0.17456197424658      3.31041449718213      1.50227316712280
  H   -4.62488828404163      2.80627695405823      2.48696234666264
  H   -4.13984958220640      3.04146423932711      4.18807465061186
  H   -3.91965102242220      1.45065262947797      3.40966933824266
  H   7.06371234478179     -0.61271238110349     -0.06199556621261
  H   6.07091405328366      0.83985474673948      0.28453111365816
  H   5.97077908480126      0.04350423747020     -1.32298384057762
