46
Coordinates from ORCA-job 2063_0.0
  C   -5.59889259901694      3.82471832194133      3.22216744445603
  C   -4.16584787556808      4.44226158169824      3.21908871669794
  C   -5.06335070126170      2.60350900576540      2.39209073629670
  C   -3.75117947900334      3.41038974831861      2.14984573368910
  C   -6.29614107359773      3.60023543274300      4.56015816765127
  H   -6.26101535556630      4.43337859271713      2.58101247111525
  C   -4.85867682930864      1.28094856479169      3.13241061547475
  C   -6.69912512605226      4.90144403292637      5.26553681105494
  H   -5.64606082257294      3.01027919612986      5.23068309367180
  H   -7.19898797704304      2.98387809575020      4.39539309623163
  C   -7.43014338021148      4.68316436534444      6.59417338818257
  H   -7.34059094056441      5.49797998806976      4.59002317979082
  H   -5.79856050487730      5.51851472898839      5.44497921847785
  C   -7.82272991351717      5.98098156662409      7.30846173425838
  H   -6.79507309683647      4.07509978319109      7.26596393250866
  H   -8.33814831231489      4.07737567465165      6.41381525887077
  C   -4.27699409538375      0.17535591002605      2.24293723253651
  H   -5.82727547882374      0.94208167313869      3.54148139364052
  H   -4.19858992045141      1.43498731270193      4.00606476547629
  C   -4.01882279186441     -1.14076228753725      2.98282145851680
  H   -3.33523604464370      0.52604585675694      1.78227996625780
  H   -4.96720351710184     -0.00625548630590      1.39855144476651
  C   -3.45824221811977     -2.25327385123432      2.09002524123751
  H   -4.95936058014594     -1.48883657367152      3.45063174334269
  H   -3.31889610435112     -0.95907401877153      3.82059359469529
  C   -8.56555919788460      5.75380553842895      8.62633227991318
  H   -8.44937825350745      6.59147421773847      6.63232207806158
  H   -6.91322756551367      6.58133300421449      7.49556385093028
  H   -9.49982651923562      5.18886547389330      8.46751065549139
  H   -8.83223999881089      6.70693068990294      9.11095574000357
  H   -7.95132907284976      5.17836523432398      9.33976841346004
  C   -3.20052575791670     -3.56427684074998      2.83473654963934
  H   -2.52010760120577     -1.90319811550234      1.62140465952703
  H   -4.15931369743879     -2.43421482065597      1.25464956558857
  H   -2.47479254609427     -3.42503591316987      3.65422621400756
  H   -2.79799767760689     -4.33962342173564      2.16294815139836
  H   -4.12797443288581     -3.96114780521005      3.28179768904950
  C   -3.96517231358032      5.79865146413619      2.53949257574292
  H   -3.65361064224837      4.37373355302853      4.19012385431216
  H   -5.63666292716244      2.40967175538554      1.46989370567978
  C   -3.75017476665866      4.21121081824105      0.85284076073890
  H   -2.80327472513012      2.85862392354968      2.24841644166227
  O   -3.93370312002562      5.53302208823825      1.12969826193534
  H   -3.01029966545349      6.27179547406715      2.82790956503826
  H   -4.78068737091424      6.51299029686844      2.73429014970516
  O   -3.63395740967792      3.80087617025247     -0.26696160078369
