50
Coordinates from ORCA-job 2064_0.0
  C   -5.09516617815676      3.64781100453236      4.01721456257111
  C   -3.96814033943822      4.64348305985639      3.60014565294765
  C   -4.11723117242617      2.45820970342240      3.77923870040209
  C   -3.15106648145424      3.44615399381533      3.05130916059299
  C   -5.73150519220156      3.79428893807370      5.39537077244730
  H   -5.88858130666953      3.63788991559007      3.24722052902587
  C   -4.63147881138183      1.20319596628592      3.08129796693220
  C   -6.63647182293882      5.02281553370830      5.54444815064986
  H   -4.93257213149733      3.83000931503236      6.16028137409009
  H   -6.31769454704429      2.88229378816274      5.61515267702502
  C   -7.27295344476812      5.15836559244565      6.93155105708822
  H   -7.43445360762274      4.97979409692205      4.77951917128296
  H   -6.05589861022167      5.93776348411838      5.32086289409294
  C   -8.18842786106237      6.37842959826140      7.08031786595718
  H   -6.47533428974039      5.20577055316914      7.69693837001105
  H   -7.84907717182442      4.24130765100648      7.15828140696833
  C   -3.55691625911052      0.14021121043319      2.82201307432075
  H   -5.10410340417305      1.48012654979559      2.12208478493281
  H   -5.43681243397631      0.77055210651662      3.70553086855012
  C   -4.10941294293953     -1.14260317646576      2.19306483512462
  H   -3.05162890310812     -0.10966434718589      3.77459126972874
  H   -2.78857100365983      0.57116784739481      2.15804909691807
  C   -3.04458060300512     -2.21112666803915      1.92408477096796
  H   -4.61763933749488     -0.89016443522233      1.24347576075377
  H   -4.89309923507988     -1.56746558036909      2.84982758020570
  C   -8.82290688763203      6.50273056369218      8.46687347890567
  H   -8.98346560116317      6.32973367311672      6.31344983203346
  H   -7.61155366393282      7.29450383738877      6.85483834581704
  H   -9.43858558063870      5.61914844434355      8.70707902226149
  H   -9.47314036764367      7.38974113730927      8.53769535899346
  H   -8.05427453784803      6.59037670041224      9.25359822700643
  C   -3.60584360919896     -3.49069933983828      1.30086554168070
  H   -2.53024279710232     -2.45764063214862      2.87167086101684
  H   -2.26680011867137     -1.78712956066382      1.26310754101359
  H   -4.35987589431950     -3.95931302758236      1.95650041048589
  H   -2.81443252174620     -4.23627329791840      1.11948640068223
  H   -4.09567322698138     -3.28387460251074      0.33395603984180
  C   -4.23600682474558      5.56839984486561      2.40461270044637
  H   -3.52371798850726      5.17241301256186      4.45611160824736
  H   -3.65292929449474      2.17318840599099      4.74029297543131
  C   -3.30970679299679      3.54733161450308      1.53677009958976
  H   -2.08130641771463      3.35687324744248      3.29680070930341
  N   -3.95559560811024      4.72815440813466      1.25096238180897
  H   -3.58006445768920      6.46212538207126      2.40944873684905
  H   -5.28023533282785      5.93219391251180      2.38230630849656
  O   -2.92890905763111      2.73771140481533      0.70883970622557
  C   -4.20315693653994      5.16860463246970     -0.10006771717326
  H   -3.88740539107370      4.36565865784133     -0.78078416450178
  H   -3.63206275385527      6.08541539955758     -0.33792528699732
  H   -5.27470124593966      5.38266048037303     -0.26154147105215
