70
Coordinates from ORCA-job 2068_0.0
  C   -7.22310761248061     -1.52365943657773      1.93761317725907
  C   -5.68507118595861     -1.24974594557682      1.83172024960118
  C   -7.74845068758328     -2.30461486577212      0.75224172572716
  C   -7.45663134592238      0.01608136522001      1.81417804901842
  C   -5.98911428369333      0.20646551088195      1.35104081477745
  C   -8.63327339903581      0.45470322639261      0.96476534363068
  H   -7.55873014294857     -1.99090950983248      2.87139770602083
  H   -7.61715009851659      0.44693306895882      2.81771356035583
  C   -5.14991870907184      1.33892570389829      1.91292731236836
  H   -5.95205883230470      0.24173383541210      0.25331949858460
  C   -4.95894540908542     -1.38558233818675      3.15807596775529
  H   -5.17153509426528     -1.86641296581198      1.07915795770919
  O   -5.66021489046723      2.58890592981568      1.42859524970924
  H   -4.09501046102673      1.23994226696452      1.61419143308659
  H   -5.18293584611551      1.36685857525893      3.01589958813980
  O   -4.95858061123757     -2.77943161932467      3.50185310328626
  C   -4.78473021533555      3.58656828002405      1.19814764866082
  C   -5.50353200751202      4.82623193814141      0.70713522966656
  C   -4.53815230089654      5.96895871869642      0.36390244486653
  H   -6.22107700522186      5.13440843627537      1.48627383704805
  H   -6.11903584702016      4.54521063170927     -0.16284651083519
  C   -5.22591788749927      7.17514414820989     -0.09721399939645
  H   -3.82602998910866      5.62905913533418     -0.40737065860877
  H   -3.92071441591443      6.20487203969502      1.24711142436399
  C   -4.50654481643851     -3.10556980706036      4.72935878549414
  C   -4.58430748080314     -4.60026552259858      4.96023198649320
  C   -4.03479652001478     -5.00851845286557      6.33430401755542
  H   -4.04186083934851     -5.10686661236378      4.14485813424457
  H   -5.63741673770730     -4.90851020221095      4.84684117338846
  C   -4.12981879308647     -6.44720596716583      6.58161214780790
  H   -4.57589748258396     -4.45766618808208      7.12220030985946
  H   -2.98378513637530     -4.68387636672738      6.42090084366453
  C   -5.80658539763198      8.16812968970733     -0.47848148230790
  C   -4.21536795364906     -7.64005388148457      6.77639540843309
  O   -3.59301198138501      3.49388394296352      1.36478990138352
  H   -6.31288090987589      9.05288304798889     -0.81612390336368
  H   -4.28860660215405     -8.69603696459252      6.95725080704513
  O   -8.35951909653372      1.52244337984165      0.20736876595330
  C   -9.41949696290016      2.00563990475424     -0.63765445063423
  C   -8.91113815904505      3.22201154368204     -1.39107406441131
  H   -10.29619541284426      2.24516395549571     -0.01288341742205
  H   -9.72294129062632      1.19587446373048     -1.32192231665081
  C   -9.95795933648385      3.81048523649764     -2.34314168427888
  H   -8.00602480536310      2.93701052064734     -1.95614378322696
  H   -8.59613628630464      3.98848075910038     -0.66121091805345
  C   -9.44911475388466      5.02808545031732     -3.11721277766214
  H   -10.85974415300989      4.08960053170135     -1.76794246435727
  H   -10.28454330112347      3.03040686669215     -3.05489254528506
  H   -9.13444736903181      5.83504529656968     -2.43421062244964
  H   -10.22728091515917      5.43671060957896     -3.78148848731105
  H   -8.57872767508566      4.76958559284087     -3.74354314242873
  O   -8.45061959502610     -3.38052442654970      1.12341455335056
  C   -9.02148324724064     -4.17932824471216      0.07097362278208
  C   -9.72759787355129     -5.36482535394187      0.70458497418903
  H   -8.21806529888669     -4.49688200569964     -0.61445764846667
  H   -9.71447585281698     -3.54968686464640     -0.51157990535467
  C   -10.37420468515143     -6.28873896874793     -0.33304174140692
  H   -10.49313102993793     -4.99096559389920      1.40700525729395
  H   -8.99858336750063     -5.93072620847816      1.31170637185335
  C   -11.08288095042398     -7.49283097379708      0.28966836570592
  H   -9.60157077189792     -6.64143759750943     -1.04070169719227
  H   -11.09498657762665     -5.70999953187891     -0.93935649672657
  H   -10.38113567766437     -8.11445319469729      0.87112545908711
  H   -11.53726837336880     -8.13545310228280     -0.48136561689924
  H   -11.88657848832494     -7.17425442124083      0.97464054744322
  O   -9.70880127006964     -0.09614482796839      0.99525925894104
  O   -7.53407086765605     -2.00246327426274     -0.40077405565189
  H   -5.44166377091183     -0.81744700828499      3.96964251026977
  H   -3.91680781937011     -1.03069763781496      3.08947194913152
  O   -4.10317603590160     -2.29382772035137      5.52574791737554
