44
Coordinates from ORCA-job 2069_0.0
  C   -5.91331406339729     -1.01786637031245      1.80774531995763
  C   -4.36041658962706     -1.02580038568452      1.68903660325277
  C   -6.69852563540513     -1.75473647489128      0.74952529472052
  C   -7.94852826385967     -2.31052277649766      1.07637076405085
  C   -8.73149884496666     -2.95765410817407      0.12087814495219
  C   -8.27603709382080     -3.07047700495292     -1.20147211415355
  C   -7.02463670421326     -2.53269540931496     -1.53917940184077
  C   -6.25031836576353     -1.88563349836079     -0.57863259279418
  H   -8.31482326158373     -2.23328166575641      2.10419205978937
  H   -9.70009019420270     -3.37902168693969      0.39364792498569
  H   -6.67680260492251     -2.63037651350972     -2.56966356102303
  H   -5.28161091164894     -1.47638340542889     -0.87342406504683
  H   -5.65170855357183      1.85428153690391     -0.80634724030327
  C   -6.65146098414095      1.89842231098932     -0.36953245405577
  H   -7.45781475126766      3.00869885839234     -2.04133869883263
  C   -5.84082005349677      0.56973384534218      1.66138240213148
  C   -4.38152895312144      0.43002978879027      1.16317346402125
  C   -7.66593637697620      2.55379034209222     -1.07180664199763
  C   -6.89900521664665      1.30460855641196      0.87738497176791
  C   -8.95997523038356      2.62937086411398     -0.53848719354483
  C   -8.20032445477076      1.40111081448869      1.40875377494451
  C   -9.21705354751216      2.04848623512812      0.71481115381581
  H   -8.41539536847466      0.95672994605785      2.38521137464185
  H   -10.22660718282069      2.11818841997797      1.12520338735097
  H   -6.29179927271578     -1.32695437916928      2.79353700356778
  H   -5.83392617730468      0.98044438591537      2.68519681884973
  C   -9.07046117611402     -3.73562069168921     -2.27491853425833
  C   -10.08757797792699      3.30057922560185     -1.24793085728255
  H   -3.64918292058766      1.13429009795989      1.58707676037103
  H   -4.29745648511589      0.47151137002754      0.06697018959086
  H   -3.88061297059144     -1.11329647043807      2.67566315300274
  H   -3.92543719968088     -1.79012218371878      1.02786538593789
  O   -9.72315987145214      3.79786721788181     -2.44816359783396
  C   -10.74799553333981      4.44829758423210     -3.19637431365648
  H   -11.57809301967865      3.75649992818145     -3.40791688188020
  H   -10.28115180377412      4.77968370056806     -4.13266942366011
  H   -11.15062266028952      5.31157561661176     -2.64392714927463
  O   -10.26234137403415     -4.18711223321793     -1.83246151136761
  C   -11.09563217878984     -4.81878312150514     -2.80179775376111
  H   -11.33016693769926     -4.12808842884212     -3.62664372667397
  H   -12.01412642175566     -5.10768341119113     -2.27517311412179
  H   -10.60275550102624     -5.70768264223815     -3.22543476943657
  O   -11.21321504005231      3.39473877243434     -0.81298877358258
  O   -8.70579227147591     -3.86021655626981     -3.42234158132042
