68
Coordinates from ORCA-job 2070_0.0
  C   -7.75071926156204     -1.11412069209959      1.89194577928835
  C   -6.25951374138109     -1.07485293974181      2.32408890132881
  C   -8.12121373340790     -1.90034805545768      0.65608333755316
  C   -9.47721702999780     -2.21404331186271      0.44384626813682
  C   -9.89274199033622     -2.93031319540674     -0.67664325891417
  C   -8.95190713117537     -3.36128020890718     -1.62593086653608
  C   -7.59743849599346     -3.05900345415989     -1.42684754236384
  C   -7.19090808891314     -2.33949766355410     -0.30292087445603
  H   -10.21919822668937     -1.89266293628825      1.18004031386596
  H   -10.94796235250997     -3.16713496133659     -0.82031712896226
  H   -6.87203249668064     -3.40237215721148     -2.16742116641609
  H   -6.12679096203033     -2.12614324496782     -0.17795937484425
  H   -7.40919371530866      0.40285851613793     -0.97847965163514
  C   -8.18777842807486      1.09261705508898     -0.64669893919606
  H   -8.66638282538568      1.69555211431830     -2.66564808153219
  C   -7.72673998555500      0.46989622923867      1.79053588477422
  C   -6.16055284649868      0.39952378990838      1.80120111562792
  C   -8.89566735393637      1.81624503160456     -1.60595101839061
  C   -8.47052526472610      1.23049524072087      0.72560248250576
  C   -9.90994383973431      2.70507633152321     -1.21536977946675
  C   -9.49389315805964      2.12004932488312      1.10068924389484
  C   -10.20445213042453      2.84859451155708      0.14848936751451
  H   -9.73073492185151      2.24533176734957      2.16101746826140
  H   -10.99422144329499      3.54279926416456      0.44291556233358
  H   -8.40154057882777     -1.42698681833490      2.71960000055829
  H   -8.04826053925466      0.83900408294104      2.77512822639748
  C   -9.32836691794554     -4.13915138532039     -2.84284121473949
  C   -10.69398754707093      3.51531595427731     -2.19436102368060
  O   -10.32713636835683      3.28268742717798     -3.47112317067350
  C   -11.03035954929351      4.01674949259336     -4.47188924968261
  H   -12.10846768603250      3.79628351194186     -4.43502709427391
  H   -10.61014231269660      3.70177026171617     -5.43547566048645
  H   -10.89481045638039      5.10045056290605     -4.33173851273798
  O   -10.65321197569958     -4.37874846017345     -2.91561560052699
  C   -11.09761570468615     -5.12210620022001     -4.04902257299855
  H   -10.85620021062070     -4.59350160260021     -4.98429234789410
  H   -12.18461882880070     -5.22620292023533     -3.94052770541825
  H   -10.61990379481401     -6.11359727753424     -4.07979885857258
  O   -11.56455830866410      4.29950246437086     -1.89267896598770
  O   -8.54353322902533     -4.52126731725701     -3.68118549183035
  C   -5.44822205756713      1.44710178371101      2.64254480911607
  H   -5.77318176480654      0.39549490022365      0.77238480705520
  C   -6.08183802463319     -1.31921107203530      3.83273073493452
  H   -5.59956608203943     -1.76457092604837      1.78249190364158
  O   -5.22994399933514      1.22916395507191      3.82172224680885
  C   -5.06153890462635      2.76319826474029      2.03252532237499
  C   -4.45486000805211      3.71518123661415      2.87486359721058
  C   -4.07045640940010      4.95874161229649      2.37892088615449
  C   -4.28715911702761      5.27214253919135      1.03072987805373
  C   -4.89016669898405      4.33672503258985      0.18522413168778
  C   -5.27619034270510      3.08859416971153      0.68164604747501
  C   -4.72775949276363     -1.71607758598995      4.34957813750468
  C   -4.62954847839259     -2.09850177031731      5.69889931970434
  C   -3.56887254800323     -1.72666077764694      3.55544797926032
  C   -2.34028573451615     -2.11322032022884      4.09672294123827
  C   -2.25643492243071     -2.49814472414745      5.43831933367288
  C   -3.40510028611180     -2.48903611863944      6.23898841690267
  H   -5.53735644662820     -2.07884723995578      6.30506258454185
  H   -3.61177190387275     -1.42096249826885      2.50802703135592
  H   -1.44513178410449     -2.11281338399285      3.46917019600929
  H   -1.29540904337853     -2.80395878136628      5.86098069807726
  H   -3.34213934212140     -2.78639885650889      7.28924434510827
  H   -4.29775176905978      3.44858675135926      3.92188488672082
  H   -3.60143461911299      5.69001701084477      3.04248668754256
  H   -3.98635631919492      6.24814555936490      0.64015641752952
  H   -5.06450975066606      4.57937631853263     -0.86604728746490
  H   -5.75609512206489      2.37910070244194      0.00674186965868
  O   -7.04440559670299     -1.29014391329800      4.57643327830007
