68
Coordinates from ORCA-job 2070-2_0.0
  C   -6.99924291422620     -0.91027894379293      0.05259247196317
  C   -6.11392729316245     -0.85094787465167      1.32830667559112
  C   -7.93034601759989     -2.08175330935349     -0.13286590559944
  C   -8.78417276301145     -2.51272023919590      0.90054750121115
  C   -9.64950699354321     -3.58999908235193      0.71554571128732
  C   -9.68357450583661     -4.26597337776993     -0.51555004373290
  C   -8.83648886009900     -3.84475389544847     -1.55113434071995
  C   -7.97262370051420     -2.76735352081465     -1.35886122758857
  H   -8.77134385674924     -2.00210592103784      1.86796756893659
  H   -10.30460287816628     -3.91601930877325      1.52465994470207
  H   -8.86926134583960     -4.37856043744178     -2.50321540445702
  H   -7.31450146310498     -2.45001767916608     -2.17237454910909
  H   -5.61389759830183      1.35657790454140     -1.22141173802942
  C   -6.56001125920694      1.87700744857190     -1.39695665047324
  H   -5.73682014434558      3.10576687132657     -2.97181078960929
  C   -7.63449796304251      0.47653552389065      0.42717127189787
  C   -6.56618181963748      0.61886478775940      1.58135066033180
  C   -6.62241496361224      2.85895054515035     -2.38462352726797
  C   -7.69691373036433      1.54293094207826     -0.63526182385982
  C   -7.82793293053002      3.53599119652678     -2.63428607614173
  C   -8.89672454539125      2.22762211576695     -0.89390222826072
  C   -8.96453809107449      3.21194694301294     -1.87927558303434
  H   -9.79099559040772      1.98274591565717     -0.31410690509691
  H   -9.89639956387536      3.74382074728562     -2.08218406054815
  H   -6.35620425091499     -0.80576307523979     -0.83082209857008
  H   -8.63511955001475      0.33390442843650      0.86142689984381
  C   -10.58773124911578     -5.42557480856771     -0.77190819072999
  C   -7.95571206905460      4.59382173674806     -3.68035581330877
  O   -6.80905264127784      4.78829053749872     -4.36208291808198
  C   -6.84591345545628      5.78005277347240     -5.38656280159975
  H   -7.58950015488411      5.52066423371477     -6.15609980408278
  H   -5.83980204851732      5.80692278305964     -5.82377480637749
  H   -7.10881431843706      6.76484604117600     -4.97017570387528
  O   -11.34846278713854     -5.73513563206984      0.29863374018630
  C   -12.23654293311267     -6.83948060436508      0.14132770399963
  H   -12.95553520521646     -6.65330855410618     -0.67156664591377
  H   -12.76354710188582     -6.94802487420199      1.09785808882759
  H   -11.68015522840526     -7.76005194983364     -0.09420084606149
  O   -8.96861168872668      5.21640316376440     -3.90532061103766
  O   -10.64620772844200     -6.03348459658503     -1.81665992079137
  C   -7.15199305340553      0.91193620630216      2.95456196144983
  H   -5.79012816382896      1.35092230907006      1.31754070513083
  C   -4.61720830209970     -1.01977068564377      1.10199165564263
  H   -6.48078610207631     -1.50035404088430      2.13115472233634
  O   -7.39680365010247     -0.00267794831348      3.72662095257234
  C   -7.47223896524442      2.32810877124657      3.32696273591105
  C   -7.20989654264540      3.42373737146198      2.48480242693948
  C   -7.53208246377307      4.72066255377833      2.89333546268052
  C   -8.11776750744334      4.93678451517045      4.14415213484553
  C   -8.38537647547921      3.85177302761954      4.98916800736690
  C   -8.06554941601372      2.55823696557207      4.58326898486887
  C   -3.73109425283236     -1.34167891980945      2.26868877535326
  C   -4.20988267094303     -1.45824742235825      3.58665808283349
  C   -2.35690556564756     -1.52300035606697      2.01921958726954
  C   -1.48189352764973     -1.82377711948383      3.06049721235770
  C   -1.96711103035451     -1.94020352976488      4.36992953174949
  C   -3.32775967583506     -1.75348830980917      4.63022706365978
  H   -5.26754369850631     -1.30669213561636      3.81113888390999
  H   -2.00322618801314     -1.42346026751384      0.99101421764932
  H   -0.41768443000335     -1.96845195368980      2.85603054713722
  H   -1.28140216324642     -2.17630551500412      5.18839848326395
  H   -3.70774942081110     -1.83900302912383      5.65151837060719
  H   -6.75911402289396      3.27551786237990      1.50219452890018
  H   -7.32512309315906      5.56470045655908      2.23067749558415
  H   -8.36763782421364      5.95265756154035      4.46221536722496
  H   -8.84489010862497      4.01966195512563      5.96678803177448
  H   -8.26468233291483      1.69697676985301      5.22400991820377
  O   -4.14391614999469     -0.85344404726843     -0.01074307204235
