56
Coordinates from ORCA-job 2071-2_0.0
  C   -7.49850475165646     -1.13596948929057      0.68356025040020
  C   -6.86203296147647     -1.27337320109231      2.09092185174449
  C   -8.18645373592545     -2.32434538608690      0.05893249873193
  C   -7.63971632594584     -3.61354417827677      0.18664558217444
  C   -8.24965246060548     -4.71709414543899     -0.40854629641199
  C   -9.42996850140948     -4.55522748982307     -1.15153173837070
  C   -9.98099757330963     -3.27198345858899     -1.28791940335466
  C   -9.36689957167397     -2.17280320319878     -0.68955365549565
  H   -6.71627269836204     -3.75525812235122      0.75422687847408
  H   -7.81486812761801     -5.71197613030217     -0.30222540677835
  H   -10.89779143893975     -3.15687426794270     -1.87003347628109
  H   -9.80815597661493     -1.18068773677803     -0.81229093782575
  H   -6.43013470516445      1.46881741537704     -0.21548453139370
  C   -7.43109209433793      1.89596013543457     -0.32292035370776
  H   -6.74334832352413      3.48516346863417     -1.61537003561138
  C   -8.34696401538421      0.07254915313714      1.19408033065406
  C   -7.40235951611704      0.15279107102779      2.43067387107140
  C   -7.59899761410545      3.03260341140592     -1.11223931862045
  C   -8.52439046124351      1.29585683145343      0.32923859243704
  C   -8.87261914157814      3.60432737222958     -1.26760847563532
  C   -9.79324899172930      1.87923017623876      0.16681300426526
  C   -9.96896510273755      3.01775738802470     -0.61874976765133
  H   -10.65734955113224      1.43071713377839      0.66595956979076
  H   -10.95481179926607      3.47014247112216     -0.74519659717366
  H   -6.70741816339604     -0.78258058198120      0.00090500492621
  H   -9.33678403847570     -0.28599990652390      1.51756602680326
  C   -10.13066202190774     -5.69726301931524     -1.80742268041622
  C   -9.11351823079659      4.81863988638549     -2.10167869452940
  O   -7.98980266614278      5.26784935897063     -2.69687020685148
  C   -8.13057856177183      6.42652842681471     -3.51622858710382
  H   -8.83763427517257      6.24139356453445     -4.33979921756264
  H   -7.13132392566973      6.64365105969020     -3.91452460478980
  H   -8.50134930302171      7.28054411287142     -2.92833563942470
  O   -9.50027329213042     -6.87406545226853     -1.60946182865028
  C   -10.10548929544275     -8.01944526682959     -2.20499253299442
  H   -11.12691118007980     -8.16853808076167     -1.82160244396630
  H   -9.47096318401824     -8.87476780773077     -1.93992290779336
  H   -10.16071302106158     -7.91034539629571     -3.29931686818447
  O   -10.19014707407481      5.35317525807374     -2.24104406244289
  O   -11.15189797902816     -5.59993628012468     -2.44955806040401
  C   -5.35105047765201     -1.43523217518996      2.14803511895081
  H   -7.36632357531250     -2.04222680338785      2.69544578546080
  C   -4.69499817037296     -1.72743744665086      3.46721216982231
  C   -5.41496780170797     -1.88295587222230      4.66495482176173
  C   -3.29244120921574     -1.84055430778992      3.49476026851152
  C   -2.62583256126162     -2.10612187544776      4.68919719442721
  C   -3.35237609208754     -2.25972638641555      5.87693036007435
  C   -4.74584645668072     -2.14610940076221      5.86317171507669
  H   -6.50325039879867     -1.79654105182254      4.67233722828155
  H   -2.74868764079755     -1.71425848344175      2.55628025661671
  H   -1.53616028305982     -2.19376246476101      4.69891592247869
  H   -2.83063020081819     -2.46810228175493      6.81496774112690
  H   -5.31455773789617     -2.26372588950890      6.78918641468378
  O   -4.67846641180922     -1.28618515549634      1.14226144562501
  H   -7.88325934007606      0.28530249633287      3.41130235238116
  H   -6.62748999040478      0.92500800411656      2.31095607267320
