53
Coordinates from ORCA-job 2073_0.0
  C   -7.11328615509539     -0.59726923770651      0.71958561648273
  C   -6.36912683196224     -0.61055563148518      2.09262959875005
  C   -7.62946097601914     -1.88612230693775      0.12838290617954
  C   -8.50694579679696     -2.69197957000986      0.87463279076750
  C   -9.01268860045771     -3.88981475625611      0.37504285601589
  C   -8.63696941892422     -4.31119091797468     -0.90781791034616
  C   -7.75912058075657     -3.51775939714655     -1.65882998635705
  C   -7.24461078964335     -2.31098060612062     -1.16872933964244
  H   -8.80575795967299     -2.37492041560539      1.87786269477387
  H   -7.48004004260026     -3.86869702216963     -2.65516981913470
  H   -6.61266617652574      2.30941241815804     -0.08329639823188
  C   -7.68912518625732      2.44652234008626     -0.22013038692907
  H   -7.42851594764991      4.14627691506691     -1.52884643428164
  C   -8.10960770848675      0.46223820765934      1.30925348332384
  C   -7.06310342651893      0.74246255861440      2.42480818929139
  C   -8.14050261517841      3.48259741024318     -1.03613604171264
  C   -8.59415861223892      1.58319339662581      0.42591217413661
  C   -9.51770921750083      3.68149485633310     -1.22905028758243
  C   -9.96894968028341      1.79130450045682      0.22189061234763
  C   -10.42828793634553      2.82438119711568     -0.59389994500360
  H   -10.68971398475349      1.13076695072284      0.71230771934627
  H   -11.49649013022892      2.98699690537848     -0.75191170172905
  H   -6.45514084090997     -0.08336674619337      0.00879350703424
  H   -8.98005612843759     -0.05343803193806      1.74277836853132
  C   -9.13441834233623     -5.57901673576039     -1.51826330633140
  C   -10.06129742617533      4.77644677320231     -2.08529325179398
  O   -9.09043374064383      5.53940587603798     -2.62834108742300
  C   -9.52553707927034      6.61355172599913     -3.45949745854628
  H   -10.10760441587184      6.23711102737846     -4.31497140478110
  H   -8.61620563549241      7.11816466461215     -3.81002867892114
  H   -10.15780897659030      7.31579589855473     -2.89420750738683
  O   -9.97835291925071     -6.24791693579683     -0.70507985477895
  C   -10.50656775891215     -7.47012971708583     -1.21515487740396
  H   -11.07906338325672     -7.29511065179067     -2.13934520145665
  H   -11.16259808373979     -7.87149212216347     -0.43222325936968
  H   -9.69907361450053     -8.18420586647327     -1.43984193112867
  O   -11.23903462017448      4.97445266850547     -2.28061221144454
  O   -8.82777652814014     -5.97985421988716     -2.61820524136312
  C   -4.86167951465958     -0.59723585813493      2.01727295663854
  H   -6.70634739085950     -1.42119351645723      2.75239785207802
  O   -4.29606981146039     -1.38791501836512      2.94503643070130
  O   -4.22375865172664      0.05828042111083      1.22441003807717
  H   -7.44354199733091      0.87089999530494      3.44880180017502
  H   -6.41319773145147      1.59259503737731      2.17183259629665
  C   -2.86728309942450     -1.42677465896837      2.96173773216808
  H   -2.58924943517462     -2.11830912044600      3.76685961097984
  H   -2.45104549976656     -0.42617293842957      3.15536799971466
  H   -2.47550095339779     -1.78482487874388      1.99734097580563
  C   -6.30214962449074     -1.50086908977685     -2.03140485757747
  H   -6.10987738806403     -2.01406874427916     -2.98464973457758
  H   -5.33086184931182     -1.33380070974726     -1.53749343807696
  H   -6.71678626744133     -0.50637530387109     -2.26618485761265
  H   -9.69412351784026     -4.49897101882332      0.97021790130887
