47
Coordinates from ORCA-job 2076_0.0
  C   -7.23004585323448     -0.67478644269007      0.53173231659255
  C   -6.69404252179439     -0.83635291577726      1.98951543844043
  C   -7.69999285875408     -1.89187454231717     -0.19904621382014
  C   -7.50282272520890     -3.21438540018923      0.11932372702542
  C   -8.08159329668049     -4.13741324955848     -0.81863104881177
  C   -8.71684196462770     -3.47645548084945     -1.84164220579498
  S   -8.61248690972093     -1.75285725805916     -1.68301004510481
  H   -6.61849951201859      2.46276188680847      0.24648390245551
  C   -7.64992253549563      2.53443622994716     -0.10631980217797
  F   -7.00793609944654      4.49866958379649     -1.17652752792672
  C   -8.26513699235108      0.37707061253528      1.07419579324540
  C   -7.36003219427424      0.52047274991470      2.32778665125608
  C   -7.98065806954004      3.62434484793231     -0.90921480824992
  C   -8.61449687032777      1.57265156659354      0.22806993262936
  C   -9.28050637933717      3.80131575010180     -1.41781255710200
  C   -9.91878572798477      1.73934104876840     -0.27227427392634
  C   -10.23737202417860      2.82829355294666     -1.07664649676016
  H   -10.68785249036563      1.00209909079685     -0.02930102990136
  H   -11.24675247166471      2.96205467892663     -1.47061865255980
  H   -6.47025689001058     -0.13348053463143     -0.05854831022801
  H   -9.19049301002225     -0.15520581840884      1.34319430840105
  C   -8.01492236278866     -5.63872570221983     -0.67366781355564
  C   -9.74238475778896      4.92396725714128     -2.29179387194432
  O   -8.78518815518854      5.81992186152496     -2.57504476154947
  C   -9.17166509855842      6.90707537350003     -3.41470894523712
  H   -9.52745996141517      6.54179405786619     -4.39054278922429
  H   -8.27450022269674      7.52564751683416     -3.54229302966085
  H   -9.97905454827745      7.49399066791433     -2.95009303006055
  C   -8.84336636723378     -6.18607714799310      0.49878193754505
  O   -10.87621297461132      5.01599894108989     -2.70770144595574
  C   -5.19522298179673     -0.93160951003402      2.13298683434369
  H   -7.18063796387757     -1.67801653646269      2.49969613206072
  O   -4.80519229616558     -2.13946545881050      2.58341172058714
  O   -4.42244469082328     -0.04559022606212      1.85350897718370
  H   -7.86536260929171      0.60193662715680      3.30138157307762
  H   -6.63213390852407      1.33826137615978      2.22830611249209
  C   -3.39594160192684     -2.34575792436712      2.70618806910604
  H   -3.26765413453669     -3.36920476656033      3.08014062196149
  H   -2.95576888614628     -1.62285473809641      3.40982337457911
  H   -2.89780817171562     -2.22906263616567      1.73142360797367
  H   -6.93305895902686     -3.52839181552427      0.99668617478757
  H   -8.75181730337857     -7.28239643076153      0.56902027127839
  H   -9.91091070878840     -5.94027334740976      0.37910300014209
  H   -8.51118823490603     -5.76036264940693      1.45985495792602
  H   -6.96012895139875     -5.94165912416345     -0.54302253063936
  H   -8.35231220769264     -6.10712934231390     -1.61305210909381
  H   -9.24518454440635     -3.91231627942299     -2.68965213580502
