62
Coordinates from ORCA-job 2078_0.0
  C   -7.43240093035903     -0.57138963355005      0.71883038226492
  C   -6.85734490875404     -0.54947280800590      2.17950105581315
  C   -8.13559705248729     -1.80947268767402      0.21201399431475
  C   -7.70038243344344     -3.09283902835186      0.62580337581158
  C   -8.34841831826703     -4.19326837652603      0.09480813835042
  C   -9.40365918770867     -4.07035590250440     -0.81224172073252
  C   -9.85104769839655     -2.82997554809789     -1.22943154580120
  C   -9.19516819944005     -1.69916997113762     -0.70147036632863
  H   -6.88284368463788     -3.21608899523717      1.33796729474706
  H   -10.67839730911061     -2.73488287702061     -1.93517213772640
  C   -7.39498336509045      2.45186449666280     -0.59626007607025
  C   -8.26200256892936      0.71166512735932      1.06822728108503
  C   -7.33327520880235      0.91719270752702      2.30105514336105
  C   -7.62963860457844      3.48636806424177     -1.51955587457468
  C   -8.46548181069510      1.81718852775775      0.06075740553519
  C   -8.93234941621704      3.91011021889092     -1.80580319600164
  C   -9.76711172828364      2.26217565320552     -0.24188038101290
  C   -10.02548067806971      3.28706273484268     -1.15408476870406
  H   -10.60027024062711      1.77733621687575      0.26900921088522
  H   -6.62489979335954     -0.28547898931835      0.02769129273976
  H   -9.25454132081527      0.38753394214619      1.42036874459057
  O   -9.87306399323533     -5.31602051115094     -1.13422307641458
  C   -8.94774924747572     -6.25223226255939     -0.57010725034429
  C   -5.37734177190365     -0.80592134218797      2.31656752506009
  H   -7.41543324909832     -1.23815879981773      2.82968889206083
  O   -5.12317040769361     -2.06261676743839      2.74928040155248
  O   -4.49871663781002     -0.02025751078750      2.04958760250117
  H   -7.82375392291798      1.19977987286474      3.24495447720292
  H   -6.50853254684541      1.60721205484708      2.08803714252070
  C   -3.74765017917639     -2.42725059422403      2.86354938961478
  H   -3.73346156122201     -3.46731213344673      3.21332315926572
  H   -3.22949648181442     -1.77519466617140      3.58353984951582
  H   -3.23648418683070     -2.34404026967681      1.89189980221422
  O   -8.13135520000444     -5.51975379202418      0.35484003597572
  C   -9.67443031582515     -7.38883147178675      0.11912655190393
  H   -8.29078432805607     -6.62825824257364     -1.38418200175131
  C   -8.72435742121590     -8.42719203511920      0.71593885389228
  H   -10.34261454875376     -7.84978853760195     -0.62785117327836
  H   -10.31710454822144     -6.94687453312436      0.89876116683984
  H   -8.08899975116364     -8.88714849708968     -0.05963770939973
  H   -9.28671498893078     -9.23548643090429      1.20815971295045
  H   -8.06149233425408     -7.96725615020022      1.46481093449592
  H   -9.51915507505017     -0.70696746010592     -1.02348486563784
  H   -6.78963248196178      3.96189153485479     -2.01980699293118
  O   -9.24228639875731      4.89646099642531     -2.68184689784243
  C   -8.20920670682765      5.57439408297708     -3.37362676301840
  C   -8.84967922765447      6.61672562191764     -4.27149539675198
  H   -7.61543594655680      4.85523887048557     -3.97109076446007
  H   -7.51758465638579      6.05243166783811     -2.65256321156272
  H   -9.52944752441735      6.14051045500198     -4.99484468806994
  H   -8.07587785868258      7.16863488479067     -4.82823909573629
  H   -9.43269897678782      7.33563405690824     -3.67535696289825
  O   -11.26233618212743      3.75379563113786     -1.47937766169676
  C   -12.38601024318424      3.18733558421251     -0.85348516790514
  H   -12.48343252677144      2.10640866056002     -1.06970435010629
  H   -13.26637753966406      3.70828903536983     -1.25547496665222
  H   -12.36310247469687      3.32292152503375      0.24450621861919
  O   -6.14169544406104      2.00622658950388     -0.29029124397590
  C   -5.00163611720039      2.63298137542793     -0.82667931939590
  H   -4.95185349360796      2.53121398038665     -1.92684846506603
  H   -4.13710326349076      2.12514449312840     -0.37800208085937
  H   -4.96229578159203      3.70712816223326     -0.56762486297746
