108
Coordinates from ORCA-job 2079-_0.0
  C   -0.63924649039310      3.94210789127990     -2.61592311404470
  C   0.15798844304521      3.42668171408965     -3.84247552672778
  C   -1.19940009409782      2.86226042131421     -4.49163012551474
  C   -1.96707657604143      3.42911510458525     -3.24454594959174
  C   -0.57748226028889      5.44941500335591     -2.35280873305951
  C   0.75753941917296      6.17848149459974     -2.65755046825596
  H   -0.90326650713671      5.66942482374806     -1.32312906416841
  H   -1.33015388465432      5.92720634619824     -3.00172014885652
  C   1.32375671287552      5.66001255558303     -3.97876292220204
  C   0.37215789411713      7.67395922361106     -2.81255152004843
  C   0.94840944139510      4.49863989289383     -4.54914942665305
  O   1.11269358687395      2.40074874556195     -3.53518414919205
  C   -1.38449955156390      1.31133139033725     -4.68560637985020
  C   -1.18639837445237      0.58516765306768     -3.31050659954375
  C   -2.15619586979681      1.06042412709346     -2.16581069973001
  C   -2.79954454866252      2.44548109569026     -2.42359161329297
  H   -3.77452313187744      2.30582983564681     -2.91918819799229
  H   -3.03860761003945      2.92436497567074     -1.45877957458674
  C   -1.50300417943062      3.58783435506174     -5.81685851634786
  C   -0.33597013099744      0.84022466145809     -5.72965064034067
  C   -2.79679400749056      0.98873857153809     -5.24765248431203
  C   -0.43036769133886      1.58878737261853     -7.07429392994664
  H   0.66729377154827      0.98135460096246     -5.30400171510218
  H   -0.45420958676117     -0.23748244816212     -5.92509987363960
  C   -0.64040636668880      3.09449129119682     -6.97548175722302
  H   -1.28767349870314      1.21107481088450     -7.66266063613475
  H   0.45859221198364      1.41812566926180     -7.70083286363430
  H   -1.35938723045381      4.67492117715846     -5.73762655352336
  H   -2.55869732907124      3.42808024559420     -6.09769163548654
  O   -0.17233677955113      3.85782034216281     -7.79364053300067
  H   -3.60604143077112      1.43551750079450     -4.65728699820206
  H   -2.95722168508638     -0.09959541924568     -5.25359205940137
  H   -2.93697303996652      1.32407655407313     -6.28421549590797
  C   -1.11872697689835     -0.95459439936975     -3.40169229000420
  H   -0.18923131316421      0.89238172987938     -2.97901000328760
  C   -1.28700342198086     -1.60194132602976     -2.02395120545443
  H   -0.15020659627899     -1.25130144205762     -3.83416460409055
  H   -1.88782539519091     -1.35834525092969     -4.08122967435991
  C   -2.71801791635418     -1.41710064946881     -1.47345687248457
  H   -0.55544570278372     -1.15506157953755     -1.32702082268222
  H   -1.04130791964062     -2.67652207427987     -2.07660078801066
  C   -3.25184457942575      0.04118264717984     -1.75872919142891
  H   -1.51394063023177      1.17171482335294     -1.27399376188046
  C   -2.77362090070198     -1.51713608114610      0.08531470705643
  C   -3.65197932274871     -2.43958179446686     -2.15207588759202
  C   -3.99955644999935      0.47802266500049     -0.45929807041618
  H   -3.97478714279959     -0.01251158165459     -2.59046696752639
  C   -4.05738981151342     -0.75860030463888      0.44983951379601
  H   -4.99357792182394      0.90526333957173     -0.66421620805832
  H   -3.42141601292027      1.26577149954938      0.05244594597955
  H   -4.94842248051306     -1.36916316810584      0.22849125047117
  H   -4.11170576709836     -0.49674162578192      1.51986148434604
  H   -1.93510787869208     -0.88406552369616      0.43351314097269
  C   -2.55945879350642     -2.89516262985955      0.75151493993401
  H   1.93327644567576      2.84737369135205     -3.28168394262706
  H   -3.65649261149438     -2.29954899653759     -3.24498048481606
  H   -4.69483783120881     -2.33859084417038     -1.81299766771013
  H   -3.32919733325198     -3.47458910546826     -1.95755532175079
  C   -3.78366521552838     -3.79826443393137      0.95004886834942
  H   -2.11613840774903     -2.71783724560158      1.74766806129793
  H   -1.78360289007247     -3.44551924526344      0.18937903466891
  H   -4.54004121122026     -3.32171928822114      1.59454612119613
  H   -3.48635301507885     -4.73918293703147      1.44207695548383
  H   -4.27835308557323     -4.06636095645610      0.00486191720068
  H   1.42783801622664      4.19789286206239     -5.48731548452012
  H   -0.22654681860759      7.80912703124234     -3.72801494720595
  H   1.22931724252642      8.35409592477732     -2.87336524261309
  H   -0.25158577477453      8.00119100296365     -1.96698846308424
  C   1.88484370784948      5.90605083935607     -1.58322760472448
  C   3.31164045577209      6.42325865953676     -1.96924008996184
  H   1.97112136661536      4.80378354860786     -1.58524313698158
  C   1.56758216754867      6.30295830656497     -0.12806768542396
  C   3.66817042192762      6.10167515719080     -3.44304524920086
  H   3.99968587520051      5.81603247818341     -1.35319069478359
  C   3.62896874013335      7.90389793888511     -1.59826034633443
  C   2.54382617483433      6.39952434385517     -4.46006399715677
  H   3.90079112104733      5.02498170928705     -3.52149135173692
  H   4.58826669163233      6.63141381626553     -3.73657582543390
  H   2.84780889518678      6.05154883255921     -5.45983378384159
  H   2.37036115842961      7.48509069440678     -4.53522499322829
  C   3.18672786359114      8.32974838283659     -0.15458694164763
  C   1.78596291872993      7.78300280814979      0.19832316971419
  C   3.13198452638141      9.86873921495571     -0.06755140126073
  H   1.03919866401110      8.39153891580886     -0.33435398056159
  H   1.58252632103489      7.94787784018574      1.26725955295295
  H   2.20986078678867      5.69116803269467      0.52953023316250
  H   0.53563559303602      6.01916767474481      0.13447392270375
  H   2.43585071629302     10.27316644690631     -0.82087662963629
  H   4.11220988062765     10.34172120998479     -0.23502374742438
  H   2.77223392684588     10.20014149931124      0.91981657013042
  C   5.15783450588847      8.16103579710745     -1.59176686375407
  H   3.14301285332915      8.56307073362396     -2.33563358938378
  C   5.62469436610709      7.96192247404221     -0.12977460592273
  H   5.36926538505698      9.18794972603943     -1.92794787722779
  H   5.69477088657252      7.50097260626996     -2.28873309171405
  C   4.35036104199870      7.76710713031761      0.73493194077985
  H   6.19217476585781      8.84060547367617      0.21918482846413
  H   6.30553430611167      7.10200650379091     -0.02301664185808
  C   4.55858255594252      8.32909343430938      2.15479422409207
  H   4.17850819679872      6.68190208030361      0.84561895370093
  C   3.48949755419246      8.01945730652299      3.20763562849610
  H   4.71766578446579      9.42042221731222      2.09998319937588
  H   5.51910166419975      7.91825775010922      2.51612651150691
  H   2.54551251529282      8.55543012521607      3.02422720149706
  H   3.83710270985231      8.31536920790644      4.21109819430651
  H   3.25762931898207      6.94143658917628      3.24469598327057
  H   -0.34971543251689      3.36120749444771     -1.72604382756674
  H   -2.61469915294819      4.27606868663865     -3.52683029102226
