63
Coordinates from ORCA-job 2081_0.0
  C   -7.49228384781560     -1.40502876160939      0.73750466616571
  C   -5.94113482755705     -1.22524626005846      0.67144844752118
  C   -7.66213220994364      0.15333574189907      0.48021834458667
  C   -6.17072356723293      0.19581111267802      0.03405711930627
  C   -3.89079908026458      1.24027128371337      0.38878440339885
  C   -3.06710459972376      2.33168371888751      0.67037842629638
  C   -3.60381842955434      3.59874367745665      0.95237460682355
  C   -5.00055841367401      3.72890787295740      0.94364140791405
  C   -5.83026155232021      2.63844363380261      0.66561887889768
  C   -5.29027638757590      1.37425496253964      0.38296737805596
  C   -5.17864426201379     -1.27609991584826      1.99598935120031
  C   -5.72929473207890     -0.55580399400345      3.21350322374369
  O   -4.12480488896474     -1.87471059161287      2.04941685346171
  H   -1.98140908533724      2.19370509926741      0.67733852883982
  H   -5.45189443932773      4.70194590100903      1.16187442420500
  H   -6.91338036900630      2.78207877283883      0.66008444397251
  H   -11.58506467029027      3.25919862626574      0.58575140904955
  H   -13.43337307450263      4.18032138045637     -0.81348648854207
  C   -11.69294239628959      2.93781141949862     -0.45408113858448
  C   -12.72411241801077      3.46138829174265     -1.22846734673052
  O   -14.95023646595603      4.21564375225085     -2.82883011016810
  C   -14.01264453065415      3.66967580741052     -3.34860730115295
  C   -10.78167764868106      1.99823214552783     -0.97995234916260
  C   -12.87382938011285      3.07508219470551     -2.56885844199951
  H   -9.83515909215421     -2.72180021192397      0.99792314303947
  C   -9.37800219898874     -2.90432934212555      0.02152973592917
  O   -13.94146566375299      3.57094720619113     -4.69664150470349
  C   -8.13215427362926     -2.32553313530941     -0.27752256488896
  C   -10.03933759869451     -3.71795004547505     -0.89858606887188
  H   -10.99084418480296     -4.17155610464377     -0.60301817556767
  C   -10.95553520966705      1.59681972286733     -2.32084211249286
  C   -11.98143849799510      2.12572078524270     -3.09885944046759
  C   -7.56214257750639     -2.61267783531370     -1.53187450252848
  O   -11.44497140362650     -5.09076557750694     -3.04688937885340
  C   -9.47297826071044     -3.97992337771116     -2.15602117698046
  C   -8.21623065663760     -3.43062245100964     -2.45185670056665
  H   -6.58622402741610     -2.20131384871447     -1.79825857336180
  H   -10.28935753062198      0.85186077109239     -2.76060146093737
  H   -12.09628433744907      1.75931130115644     -4.12403124204047
  C   -10.12087685308798     -4.85441739936343     -3.19438573084763
  O   -9.52054463017179     -5.32572077115347     -4.12403850401499
  H   -7.76516022704296     -3.66188675209948     -3.41901913002205
  C   -8.71721941138559      0.63916204183356     -0.45603683279923
  H   -7.77984370396484      0.64880689187886      1.45602182948653
  C   -9.71068402977764      1.48174076904972     -0.11450047706987
  H   -8.65311628922077      0.26309686645226     -1.48354147532048
  H   -9.74420711360715      1.84423323563225      0.92050300425575
  H   -13.07521649313906      3.23748973878375     -4.96870010325089
  H   -11.81343930959048     -4.54484424717163     -2.33856591528951
  H   -6.13436455529329      0.05864123899452     -1.06149382862005
  H   -5.41747373634379     -1.93536460823221      0.01828656091561
  C   -2.70700301313158      4.79054393249999      1.21273277802811
  C   -2.34055970507558      5.56374941040196     -0.06442397453494
  H   -1.78259003472133      4.44990262776215      1.70948171959657
  H   -3.20551790895919      5.47441765770402      1.92085388266636
  H   -1.81274496360569      4.91646484808355     -0.78355944153875
  H   -1.68611615925367      6.42056869125720      0.16511033930155
  H   -3.24179445082661      5.95036095398403     -0.56763548571711
  H   -3.43640715572967      0.26711341363883      0.18396371756991
  H   -5.74177926714201      0.53146917974401      3.03031518284147
  H   -5.08155138048911     -0.76707625425230      4.07441622071411
  H   -6.76137530284916     -0.86336948866545      3.44491082980942
  H   -7.86847751504932     -1.69173570535435      1.73018612003392
