36
Coordinates from ORCA-job 2082_0.0
  N   6.59301052826672     10.68809728866068     -0.58049418022726
  C   5.49309334832685     11.41305996136880     -1.21495776694965
  C   5.93819272961741      9.40097249736769     -0.81224992472334
  N   4.73487930892396     10.15060429200706     -1.23862415491514
  H   5.74390402614440     11.81387727465402     -2.22118376700671
  H   5.03799432089094     12.22050075690708     -0.61690450492300
  C   4.06180001834092      9.75635760229603     -2.45059519281348
  C   2.90718244402544     10.68789651500689     -2.76439541664795
  H   3.69909553197571      8.72456308549704     -2.34646433371330
  H   4.72646364314319      9.76183037565103     -3.34917308347449
  O   2.04361475647322     10.11739944501678     -3.62009585792481
  C   0.95109172186851     10.92789807814354     -4.05694061926676
  H   0.31838725620733     11.22239237905602     -3.20564248344851
  H   0.37709159567761     10.31356941137869     -4.76187969662926
  H   1.31430605220750     11.84137790366544     -4.55266576406256
  O   2.79257004388142     11.81503820354708     -2.34677975847287
  C   7.90354619177286     10.95638790112447     -0.31693126481970
  O   8.68974206799677     10.07052393004444     -0.01770038968519
  C   8.29209164823856     12.42233416598333     -0.42000059851078
  H   8.29752766174817     12.74292410341952     -1.47573432284942
  H   9.30057920089325     12.54919590624177     -0.00672000465911
  H   7.58308432456233     13.06985564881015      0.12024367756395
  C   5.81631773106944      8.48252725567906      0.41207923284483
  H   6.41737264852397      8.83602140765309     -1.63874924890763
  C   5.09772546688675      9.13602980072920      1.60239848631342
  H   5.62040359713712     10.05826951751438      1.89598226639294
  H   5.08401108349100      8.45550357931753      2.46504312536230
  H   4.06416307212154      9.40134363759708      1.33407063979643
  C   5.16137187678214      7.17004077242611      0.01390795987253
  H   6.85208221758786      8.24479958882295      0.71223402008458
  O   5.19834245773437      6.27366703777887      1.01342666724024
  C   4.59812572132794      5.00281969958055      0.75720954379222
  H   3.52884476506597      5.11556126521367      0.52070648077547
  H   4.72530343865594      4.41456829656468      1.67456396747108
  H   5.09088436372882      4.50137795568921     -0.08983416379324
  O   4.66047313870386      6.93057345958560     -1.06273956908581
