69
Coordinates from ORCA-job 2087_0.0
  C   3.00794960760057     -0.95854812427368      0.41012956503731
  C   1.63072074564767     -0.68491230110445      0.50831068218655
  H   0.98582108791993     -1.37654425538432      1.05474406506991
  C   1.08664713689563      0.44645535804111     -0.08644215683791
  H   0.01998310973233      0.66737013564350     -0.00854223821140
  C   1.90098925696825      1.32372835116214     -0.82468614988537
  C   3.26906215764363      1.04864662470038     -0.94376040003247
  H   3.92831630751534      1.70370000797584     -1.51429815988731
  C   3.81539139494565     -0.08038952137743     -0.31952195535695
  H   4.88398955267717     -0.27700565334641     -0.41475393339818
  O   1.27590358186409      2.39416367179699     -1.38856771301811
  C   2.02188737530981      3.30265808436433     -2.16832982866037
  C   1.04965785449876      4.35901122350564     -2.66179844534057
  H   2.49604234913184      2.79598025848079     -3.03008300523061
  H   2.82594865778267      3.77623616417517     -1.57418696891927
  O   1.80620632997104      5.26248902361532     -3.47106304912928
  H   0.58479860345332      4.89540769108889     -1.81921813628674
  H   0.23798428963766      3.90297179010163     -3.25094653804212
  C   1.12934553765425      6.29990602335697     -4.01574421476785
  C   2.04399982119671      7.16733157157625     -4.84505626560064
  H   1.48054637707004      8.01958563178275     -5.24339061807950
  H   2.46880701578552      6.57799460273223     -5.67296426508667
  H   2.88751291887104      7.52217720667835     -4.23288073410089
  O   -0.04964935691933      6.47642294466270     -3.84424530088095
  H   5.57623394876797     -4.26015968011718     -5.41691157063227
  C   4.44553905622854     -3.33763523651332     -1.53440299089528
  C   5.99721476573046     -5.21065941173455     -5.03521541552868
  C   6.87054571079921     -5.87083416956432     -6.08583419976308
  C   4.91019267080573     -3.95342341191646     -2.70324823359809
  C   5.31034966232275     -3.12382639520152     -0.45604836785976
  O   6.79619258921391     -4.96341815734047     -3.89023352594855
  C   6.24740657481571     -4.36366302316905     -2.80192500078612
  H   3.40208731922936     -3.02885637989147     -1.46447831189287
  H   4.21178254717371     -4.10617932160007     -3.52631893328296
  C   6.65487178979163     -3.53620589801333     -0.54966076781107
  C   7.10894081311913     -4.15084932800643     -1.70929660649279
  H   7.32516504625175     -3.38098470790855      0.29647621011257
  H   8.14628046502139     -4.48127613784471     -1.79629038652704
  H   5.14373244538829     -5.86398339380489     -4.76873637744656
  N   3.49476314541520     -2.15571064693247      1.02314873234005
  N   4.86121595101640     -2.49871550300530      0.72356731975219
  H   7.71225769632864     -5.21576340866419     -6.35933233998849
  H   6.28291276209076     -6.08129397744919     -6.99325746282253
  H   7.28226140056786     -6.81977426330229     -5.70860964323112
  O   6.30540482458418     -2.92037749908319      2.55016057871341
  H   5.57866866669413      1.95600514148711      3.97596857227440
  H   5.79804137321418     -0.24077634417852      2.86129511895604
  C   5.27053298050475     -2.58203944891388      2.03553101623625
  C   4.71811750017460      1.28286793523351      3.93626434632673
  C   4.83881911163561      0.04425723398326      3.29849949242541
  H   4.42728267260764     -3.04796530435408      5.01088597669432
  C   3.50793495813920      1.65549844446189      4.52668382811229
  C   3.75075909799380     -0.84206654995063      3.24547032446554
  C   3.85275199064439     -2.17304905779476      2.52207841282311
  H   3.41493672885350      2.62335086899600      5.02666476707807
  C   3.62986478215253     -3.64044553189476      4.55625330125442
  C   3.18776530648801     -3.32949186813934      3.25855315538326
  C   2.41914059600193      0.77853965060210      4.48364229014626
  H   3.42319765971545     -4.93877704910506      6.26625354715626
  C   2.54222560529681     -0.46101785289376      3.85313928706955
  C   3.06553158046889     -4.70555074010451      5.25974693339664
  C   2.18119291133406     -4.11169027593740      2.67691946689253
  H   1.46997776657566      1.05869830830796      4.94824117201619
  H   1.69217685343154     -1.14673961546520      3.83797564134654
  C   2.04807326684609     -5.47273953871807      4.68041076448316
  H   1.85971593963387     -3.88954184196025      1.65841664726070
  C   1.60954392778521     -5.17277207492027      3.38873828108255
  H   1.60373935489409     -6.30428616671197      5.23399721431243
  H   0.82027647139745     -5.77061488092099      2.92465350085572
