70
Coordinates from ORCA-job 2088_0.0
  C   3.63558506499979     -2.46241957729125     -2.55966146338467
  C   3.43634263700180     -1.71344911593181     -3.73271093033891
  H   4.00422295183693     -0.79081936784333     -3.88875790814966
  C   2.53206362481737     -2.12192970077456     -4.70834584778433
  H   2.37640835628083     -1.54077237819623     -5.61972219289593
  C   1.80112176865271     -3.30953641154344     -4.53717297402777
  C   1.99936997543303     -4.07867884193846     -3.37995250228119
  H   1.45397893722588     -5.00969218605192     -3.22263863690689
  C   2.90760464984531     -3.64901299174047     -2.40804198502350
  H   3.04979783615618     -4.25856996869047     -1.51291067636127
  O   0.94009446894626     -3.63192951081902     -5.53738312296359
  C   0.17108196142168     -4.81381745992980     -5.45283256317076
  C   -0.67217861466512     -4.87309268540229     -6.71451791306009
  H   -0.48168094749531     -4.80362768752699     -4.56003272401996
  H   0.81814659441385     -5.70838951375810     -5.38745506087354
  O   -1.45245882184705     -6.06730519141420     -6.63080038928929
  H   -0.03555849557798     -4.89098617030042     -7.61351206868890
  H   -1.32726157482250     -3.99040831598964     -6.79163387799692
  C   -2.26787443285461     -6.33334292906120     -7.67819182954599
  C   -3.03000836965060     -7.61686926724130     -7.45831581701351
  H   -3.67272261290791     -7.81532164144324     -8.32437360733654
  H   -3.64091371400238     -7.53898115010023     -6.54530411173688
  H   -2.32787811545846     -8.45177739175846     -7.30860382571997
  O   -2.35119846823828     -5.61718898415050     -8.64284682256487
  H   9.10814658279425     -8.18341928053459     -1.13815807803399
  C   6.93574175402321     -4.76836094466319     -0.24800564391467
  C   9.84590553751417     -7.54315406110420     -1.65953781368569
  C   10.79223788715425     -8.38573871298318     -2.49430441314447
  C   7.90083741568470     -5.68854194461978     -0.66756967447814
  C   6.30918207721983     -3.92128676882095     -1.17600037842260
  O   9.17922119698843     -6.64032572805782     -2.52632058872956
  C   8.25622306850694     -5.77952437996372     -2.02287998571965
  H   6.66755674720914     -4.69482303184575      0.80606193811986
  H   8.36979772655310     -6.32875537785657      0.08020732744334
  C   6.66701550813746     -4.01237296549250     -2.53400268248110
  C   7.62703621945608     -4.92974061853811     -2.94841956735402
  H   6.18696319205762     -3.36803564559126     -3.27222684485264
  H   7.90914749366023     -5.00826204173194     -4.00055358056079
  H   10.40225593253482     -6.98368079291549     -0.88261758193646
  C   4.59378167396751     -1.96604356172283     -1.50549550762919
  N   5.34459631191089     -2.98728257224027     -0.75406846083096
  H   10.23774084027878     -8.95201308899897     -3.25877405387859
  H   11.33238274090285     -9.10049569873193     -1.85363668003382
  H   11.53029693757856     -7.74891789569604     -3.00638584331987
  H   5.45100096927232      1.68280613408211      3.10956953193540
  H   5.59945844722493      3.53749989835529      1.44255265508229
  C   5.21106251578683      1.49683363826085      2.05909201841871
  C   5.29573229773652      2.53591360433753      1.12652122822796
  C   4.82235920177427      0.21672117980005      1.65764227029226
  C   4.99056948272133      2.28275701824572     -0.21298496545045
  H   4.76660461408488     -0.59331088114941      2.38785530310121
  H   5.05326386193668      3.08596009035718     -0.95236658217610
  C   4.60480060913360      1.00002933510987     -0.61631192881469
  C   4.51577472203903     -0.04975749056294      0.31169523568273
  O   5.21642984545426     -2.96137090491723      1.60265891181889
  H   4.36800150206986      0.82449540686632     -1.66869321883299
  C   4.93789476791161     -2.57336362998842      0.48962464314968
  C   4.04486689052838     -1.44676817531896     -0.08969635177746
  H   2.77963793277142     -3.09572391348218      1.73435956504916
  C   2.07243321397810     -2.50666152826391      1.14769895637190
  C   2.54938278988647     -1.61320381186943      0.17559918174136
  C   0.69871194233849     -2.63384594195099      1.38727968835005
  H   0.34838578116519     -3.33285737892993      2.15177212241921
  C   1.61703919496768     -0.84337191065075     -0.54164166966304
  H   1.96292197617916     -0.13116106467619     -1.29408625374547
  C   -0.21817115887182     -1.87242294975126      0.66052973393134
  C   0.24786377331640     -0.97384731082859     -0.30608266060233
  H   -1.29064362746556     -1.97251922980374      0.84837875313736
  H   -0.45956364690099     -0.36838198430361     -0.87943941353804
  H   5.27608059731631     -1.22678464796057     -1.95467978953075
