70
Coordinates from ORCA-job 2089_0.0
  C   3.19188623707494     -3.26565132041667     -1.99151956799629
  C   4.01445846443317     -2.78087621002111     -3.02524998553051
  H   5.00067007904603     -2.37581226193838     -2.78812355659976
  C   3.59635526245293     -2.81360933615648     -4.34963768309491
  H   4.23379116177723     -2.44106972823824     -5.15415350394072
  C   2.33283893065307     -3.33311551712325     -4.68386706424237
  C   1.50061357844066     -3.82472169957290     -3.66820619849922
  H   0.51922566086457     -4.24208438699178     -3.89555947001393
  C   1.94176350272979     -3.78925697823621     -2.33978901218911
  H   1.28758172027456     -4.18944731331007     -1.55874523911760
  O   2.01278788706609     -3.32469741903862     -6.00413988653280
  C   0.76480691137999     -3.83058280038535     -6.42859791482796
  C   0.72403568805288     -3.67756774151514     -7.93865509841128
  H   -0.07129581846015     -3.27069920066877     -5.96925018200249
  H   0.64970292174331     -4.89530435767869     -6.15174772331120
  O   -0.54248500219836     -4.18258478452735     -8.36732273728370
  H   1.54345117600972     -4.23865592174876     -8.41548350123372
  H   0.83524825656086     -2.62066250921809     -8.22961181274129
  C   -0.78830986802311     -4.14668119209618     -9.69810949015647
  C   -2.15913376238664     -4.69373695864266    -10.01135954216191
  H   -2.31115387141033     -4.70246828290721    -11.09732633627992
  H   -2.92839564078187     -4.06809575209650     -9.53149510817896
  H   -2.26590873225846     -5.71046826860868     -9.60311372017041
  O   0.00363121938435     -3.72150888707170    -10.49954447133603
  H   9.71164863826904     -7.86072958494291      0.24374732293276
  C   7.22312203487564     -4.54899432044317     -0.12501515145460
  C   9.58906805661991     -8.02111307975609     -0.84490200075340
  C   10.11089839843396     -9.38744174918229     -1.24896181161870
  C   8.03484308619958     -5.66613991444458     -0.34286646049610
  C   5.86913315207716     -4.57026410926249     -0.49528759248197
  O   8.21632439893355     -7.95425187120249     -1.19451807146922
  C   7.50793054155096     -6.82396867062585     -0.93708079925023
  H   7.63420869210093     -3.65419245653348      0.34268731091344
  H   9.08169010847409     -5.61651920632113     -0.04196710993707
  C   5.34071672018293     -5.73317979787220     -1.08593970861271
  C   6.15122686043231     -6.84257095752079     -1.30298180319209
  H   4.29188851208810     -5.76791522252879     -1.38473204271074
  H   5.74971161725808     -7.74796693543555     -1.76319381669648
  H   10.15205584168829     -7.21935319448619     -1.36066253783321
  C   3.61781821932177     -3.22646988775148     -0.54500957742140
  N   5.04945940825509     -3.44787890664244     -0.27381419710362
  H   9.55474630856546    -10.18432162136158     -0.73119810008730
  H   11.17733762141597     -9.48107286546024     -0.99024264342769
  H   9.99999951561260     -9.54034265767303     -2.33375204428227
  H   5.36453758549606      2.11248863439372     -1.82337388988705
  H   3.10921029458642      2.70229044224756     -2.71865308244852
  C   4.50822837441848      1.46077758662303     -1.62922465913772
  C   3.24744744220262      1.79250126918376     -2.12825386175969
  C   4.68696848024755      0.29552572160317     -0.87401532109244
  C   2.16004440408794      0.95312196575317     -1.86115165028521
  H   5.67465090030527      0.05727044300521     -0.47537344377664
  H   1.16651152048137      1.20417176546628     -2.24262083003254
  C   2.33719314953644     -0.20642266168200     -1.10528307020702
  C   3.60406844939090     -0.55727367817494     -0.60719759401568
  O   6.21417626678230     -1.82554037918947      0.98405566561700
  H   1.47663795526452     -0.84676219223551     -0.89998221242179
  C   5.24247694734072     -2.28194915687101      0.42325807644460
  C   3.77371974466424     -1.82756480068039      0.22556588165622
  H   4.60024566368237     -0.69107989874291      2.55332198736919
  C   3.58147724260141     -1.07458068166452      2.63893769469905
  C   2.99897969379507     -1.72766387253830      1.53870777019990
  C   2.87574506556246     -0.92919194898896      3.83573384214126
  H   3.34844516507557     -0.42341257777564      4.68212631918512
  C   1.69301651406831     -2.22653371670531      1.67043005381132
  H   1.21307054671822     -2.73630450877767      0.83116656519237
  C   1.57464341607856     -1.42804124738940      3.95537480826543
  C   0.98527280353177     -2.07689361868023      2.86759347573335
  H   1.02354109846058     -1.31334180248787      4.89260529206877
  H   -0.03095184702465     -2.47246783638431      2.94822311644453
  H   2.99316942786450     -3.92249741165159      0.03757870707148
