59
Coordinates from ORCA-job 2090_0.0
  C   7.93040428453580     -8.01158039514656      2.80637319443521
  C   7.78403241808101     -8.96168808050838      1.76822881702329
  C   6.91284158283032     -8.72546256982158      0.70431781471498
  C   6.18745394599197     -7.53492772393719      0.68967825398954
  C   6.32900128427813     -6.56143579105964      1.72294792264449
  C   7.21001494641412     -6.81102716680023      2.78439671441675
  H   7.36318624223657     -6.07322626260990      3.57174161560703
  H   8.35129158827036     -9.89180012174541      1.78159325899824
  H   6.80597950553305     -9.46113881523555     -0.08952843735359
  C   5.48116251477462     -5.42484512356008      1.40272556573199
  C   4.87206148530511     -5.74742091268330      0.19003178845723
  N   5.26603063051691     -7.01297445385654     -0.23249598981902
  N   4.03838008160407     -5.26326492553535     -0.79100725367963
  C   3.90125565776468     -6.22868091280986     -1.79982785594159
  C   4.67965126412442     -7.31165031577098     -1.45934986430746
  N   3.38102261855759     -4.05518416318012     -0.75832174142250
  S   1.78151020737950     -4.15034256140832     -0.01937524256566
  H   3.28087110538935     -3.72664029850869     -1.72836778982063
  C   1.67290515924764     -2.49984332767025      0.65810392828537
  H   2.54788379641230     -2.36169363264636      1.30858979035054
  H   0.72062888441788     -2.46542659844285      1.20559869516982
  H   1.66151629637225     -1.78751616668126     -0.17761927931368
  O   1.91629885466321     -5.13548494975475      1.05802373220232
  O   0.76148916756733     -4.32447869570537     -1.05603582101306
  S   5.17242933767835     -4.09716074197847      2.51504305383795
  C   3.96158680367133     -4.75731060046575      3.68162730318550
  H   3.80432005985631     -3.95715061848486      4.41950710753568
  H   4.38729825953657     -5.64717776928627      4.16391174194789
  H   3.04227187069639     -4.99020839949300      3.12889795828236
  O   6.40478329623174     -3.84124938389619      3.27495489805609
  O   4.51915287885933     -2.98416685206473      1.80038863529164
  O   8.76388130513655     -8.18219596945384      3.86573670999913
  C   9.58756891734139     -9.33326063095362      3.94776761024149
  C   10.43524820149902     -9.21705372994549      5.20095009636888
  H   10.22891220853429     -9.40693427676115      3.04828678232852
  H   8.96348313106189    -10.24747785867677      3.98295172509698
  H   11.06820426425817     -8.31720323328000      5.15988890321872
  H   11.08704011603045    -10.09909413508945      5.30320058408775
  H   9.79800962266696     -9.14777982163413      6.09610415325198
  C   4.88464391423355     -8.54697253133803     -2.26681045909043
  C   3.12432836612475     -5.91374388163076     -3.02151723537808
  O   2.57675281245761     -6.98784958001855     -3.57022105713680
  C   1.92050683018881     -6.84123533559969     -4.85139928327359
  C   2.91838378436152     -6.95360018558341     -5.99126684822509
  H   1.38745964697588     -5.87965661648365     -4.86593953066238
  H   1.18766428392793     -7.66001081592595     -4.87159711229069
  H   3.61442279943563     -6.10123868495325     -5.99045395157484
  H   2.38211043670456     -6.95704758962810     -6.95400574746713
  H   3.50293981265794     -7.88173131119106     -5.90567093378358
  O   4.89293961872071     -9.64341221286838     -1.49553808882821
  C   5.02423895987694    -10.91396558716877     -2.17051533448461
  C   4.83384954754008    -12.01220578701221     -1.14531185954769
  H   6.01564558547359    -10.95631449332435     -2.65134986716185
  H   4.27249783156169    -10.96073567016879     -2.97391745366524
  H   5.59370646362299    -11.95643339724667     -0.35056137601579
  H   4.91859611012974    -12.99515581095010     -1.63475430336550
  H   3.84015495459722    -11.94371399020693     -0.67651333080152
  O   3.01636251489294     -4.77559636329883     -3.43742621121673
  O   4.99638193118842     -8.55713216885946     -3.46767909555083
