73
Coordinates from ORCA-job 2091_0.0
  C   7.44658845691955     -7.81025894714824      3.06939397575744
  C   7.51157098654207     -8.59728544655998      1.89598904827781
  C   6.64720933390780     -8.35148391629228      0.82862828671362
  C   5.72940222102060     -7.30888467870363      0.94295954391324
  C   5.65642279813941     -6.49585924192262      2.11369171277761
  C   6.52042097815288     -6.76657844218957      3.18353136980107
  H   6.47187670170446     -6.18465355755754      4.10248457347301
  H   8.23014655700115     -9.41172085309863      1.80975198306488
  H   6.69117465920090     -8.96937782679687     -0.06574157683325
  C   4.62429948472929     -5.49070269502472      1.90753634214891
  C   4.11388215025250     -5.73921489803257      0.63319594486898
  N   4.75700141201473     -6.82631504432227      0.05376421221592
  N   3.23913808557626     -5.26294430355210     -0.31775586125549
  C   3.35400695766575     -6.04541566764180     -1.48037452066856
  C   4.31068326421895     -7.00608965905464     -1.25134106770671
  N   2.24496378381402     -4.33063520756653     -0.08456463293385
  S   0.71228874151680     -5.13526084851397      0.35822381854572
  H   2.08773063414898     -3.83208679635058     -0.97090325486554
  C   -0.26116811726904     -3.70727826926378      0.80927270257210
  O   1.03458859605382     -5.96427144759087      1.51262921528803
  O   0.13044613661304     -5.74294590784198     -0.84672812925234
  S   4.29313221222807     -4.14783602149344      2.99466297864917
  C   5.27575907387696     -2.76831280602212      2.35541017617111
  O   2.88434268100086     -3.74403800294109      2.87443573888789
  O   4.85418483923590     -4.49791945984676      4.30820930086194
  O   8.25185088839833     -8.00318949276253      4.14752307507369
  C   9.22559827648633     -9.03242091890299      4.13654803456192
  C   9.96930771198329     -8.98893616622246      5.45869999311063
  H   9.92587927279454     -8.88722950781297      3.29089484165754
  H   8.73859131295761    -10.01680980424338      3.99478630782640
  H   10.46361310605405     -8.01442537686822      5.59404334357628
  H   10.73708069122957     -9.77806493711817      5.49095069492434
  H   9.27528349750822     -9.14117045820846      6.29964492925925
  C   4.84320826312980     -7.99815489650317     -2.23081060601065
  C   2.60946908140657     -5.67069616884003     -2.70204987799908
  O   2.42498245159963     -6.69950306872107     -3.51797246966834
  C   1.84891115278951     -6.44177148809186     -4.81762446693278
  C   2.90829861694457     -5.99051276205268     -5.80907356506469
  H   1.04896064994250     -5.69536795679678     -4.70639816584184
  H   1.40491265199763     -7.40361160470888     -5.10995243678947
  H   3.30463441879320     -5.00031852613765     -5.53829786981609
  H   2.46776919989834     -5.91909656467086     -6.81676303552996
  H   3.74341987188344     -6.70667561254583     -5.83666331144823
  O   4.93795512467588     -9.21968231933373     -1.68921258575156
  C   5.41548101588305    -10.27785401347702     -2.54911678636072
  C   5.25856489046908    -11.58963512847873     -1.80987702587101
  H   6.46556046536358    -10.06779256395380     -2.81288619320150
  H   4.83601164350540    -10.25546164245111     -3.48519034935355
  H   5.84078048494843    -11.59627547741468     -0.87549211320388
  H   5.61348959425142    -12.41733020019810     -2.44382287287923
  H   4.20298167418248    -11.77431697343787     -1.55814401325753
  O   2.23206258631612     -4.53192942005849     -2.90603013242314
  O   5.13390454807878     -7.73059482513609     -3.36981259971803
  C   6.54822485707996     -2.53838348211211      2.88578852079759
  C   4.73880814791100     -1.94512611300162      1.35981329060162
  C   5.50614781327126     -0.88329467968923      0.87378992380419
  C   6.78753897256107     -0.64809861655335      1.38680106869586
  C   7.30504345836448     -1.47124406790959      2.39262021203122
  C   -0.01066808577106     -3.06591074387957      2.02780411688289
  C   -0.80012826611777     -1.96323198641231      2.36393949796561
  C   -1.81185576719077     -1.52578100099146      1.50052185584134
  C   -2.04670492266935     -2.18516499858524      0.28891528977116
  C   -1.26739035427368     -3.28834465466529     -0.06815232059754
  H   6.92497706394388     -3.18227128861528      3.68251579046315
  H   3.73125100224143     -2.13746611151163      0.98474969807150
  H   5.09955912271355     -0.23125496544973      0.09608642941343
  H   7.38278036962484      0.18561638504313      1.00469552313792
  H   8.30069984763188     -1.27876677108098      2.80114355451810
  H   0.79924266495890     -3.41172737469479      2.67378568035730
  H   -0.62133242079916     -1.44227287852300      3.30782918741122
  H   -2.42390701956100     -0.66239468602641      1.77517316205904
  H   -2.83976394206036     -1.84230513169883     -0.38034881574327
  H   -1.43122831359750     -3.82698901316475     -1.00305428882388
