49
Coordinates from ORCA-job 2094_0.0
  C   -7.38514019792540     -0.68550762125767      1.58715494118628
  C   -6.31921739083961     -0.99499253537398      0.50974939865280
  C   -7.18784880734314      0.82505285316509      1.30230764236986
  C   -5.81580889647150      0.49923037639657      0.62694119044478
  C   -4.65434575878905      0.92048808141694      1.48951130749817
  H   -5.68080894429704      0.98048409796815     -0.35953034278151
  C   -3.34042243573251      0.61114596275104      1.45307714009677
  C   -2.67115666066349     -0.41192972776440      0.55927911320111
  C   -2.15690179033603     -1.66213219771911      1.32950362718317
  H   -1.80696240284629      0.06198206344361      0.06538317801147
  H   -3.34388253456745     -0.70731427564668     -0.25847810772622
  C   -5.44261972192333     -2.24187524505802      0.56755255522894
  H   -6.84148946421699     -1.04189326332136     -0.46109835024896
  C   -4.58946748248355     -2.51065478126926      1.83201592178953
  H   -4.78987612140084     -2.23315667219458     -0.32177068109098
  H   -6.11361541214591     -3.10443189266783      0.40228875091177
  C   -3.12284761604767     -2.85151482028383      1.50531314853017
  H   -5.02962405546177     -3.35682864208464      2.38450248619043
  H   -4.62749662408492     -1.65708796298891      2.52787161299194
  H   -1.82747678442253     -1.33435395220060      2.33063608222501
  H   -1.24664651916956     -2.03775894671366      0.83110842376634
  H   -3.10802031766875     -3.47696639227562      0.59381312305164
  H   -2.70728038722508     -3.49224186541802      2.30201529638100
  C   -2.47300651889535      1.40580632023502      2.41077045659351
  C   -0.98064302474956      1.50505372509266      2.12429742056346
  H   -0.48904335689580      0.52004445543711      2.15168742348169
  H   -0.52450125111422      2.15961058045059      2.87839333165005
  H   -0.80462376875495      1.92483542813835      1.11945649058369
  O   -2.94501630792875      1.99983226535700      3.36188644061273
  C   -8.22091342216175      1.42420564687971      0.36847576073261
  H   -7.12839148174694      1.48164256074344      2.18406945605935
  O   -7.83585423391488      2.72151774618821     -0.06483324287681
  O   -9.44818528914248      1.57322847167002      1.04154059707244
  H   -8.36251195824397      0.78424355864164     -0.53275128519393
  C   -8.94310456497941      3.61635452468843      0.08033938119773
  C   -10.10023041662214      2.66289216552058      0.42112455002792
  H   -10.62982500460695      2.34197602983930     -0.49999529864628
  H   -10.83256559562279      3.08717550312650      1.12335059810470
  C   -9.13950070002788      4.45513516406915     -1.17631252189838
  H   -8.74197222709993      4.28444915935874      0.94134901054015
  C   -7.94249945746881      5.34669173183851     -1.50726336229983
  H   -10.04670849627931      5.07188068214651     -1.03642833003816
  H   -9.34791174191036      3.77370456223586     -2.02026555795987
  H   -7.74066043883834      6.06632696855947     -0.69596194976336
  H   -8.11657308307493      5.92274557086013     -2.42999750290759
  H   -7.03562651041438      4.73870806784440     -1.64752388782334
  H   -8.39478782075692     -1.10145419030825      1.44088725846268
  H   -7.04276927690017     -0.94304411197535      2.60161736069254
  H   -4.90549772578637      1.67956477245901      2.24037994516876
