49
Coordinates from ORCA-job 2095_0.0
  C   -7.62062584073733     -0.97535597014506      0.43385927468498
  C   -6.29068054738906     -1.72227823424985      0.18993468220404
  C   -7.32539184300754     -0.14056606653881     -0.82969274038457
  C   -5.80137150456147     -0.49661766069336     -0.68468762686488
  C   -4.93373346326656      0.61064204955381     -0.13961373594939
  H   -5.33954030898455     -0.82528198913812     -1.63428310972669
  C   -3.66956260042366      0.59714543516043      0.33665444805038
  C   -2.80697806621953     -0.61881181448794      0.60402844491547
  C   -2.55887000555842     -0.86944917000459      2.11934777454809
  H   -1.82716472482442     -0.47394652582718      0.11956680606708
  H   -3.23619731228510     -1.50976573585311      0.12364852146196
  C   -5.51535220512419     -2.38518108481988      1.32442347968498
  H   -6.49794714136629     -2.52249173330569     -0.54224664482020
  C   -5.06492328271979     -1.53474816589180      2.53843152289579
  H   -4.63869989782113     -2.89050003111744      0.88442294494515
  H   -6.14953803585151     -3.21445131471708      1.68749885442563
  C   -3.57788929024483     -1.73553310376981      2.88908061331593
  H   -5.67036595063510     -1.81773736320007      3.41510082452486
  H   -5.27040298535675     -0.46512412722087      2.37481040051958
  H   -2.49626818056343      0.11266488331030      2.61882339130088
  H   -1.56205372969452     -1.32567738035779      2.24730354607459
  H   -3.33242235111679     -2.80465581543062      2.75129915019241
  H   -3.42243378267745     -1.54021147904759      3.96413724936753
  C   -3.07833679560548      1.96450116949856      0.61392600860290
  C   -1.56139074239790      2.10356078579938      0.63869435675614
  H   -1.10849151633392      1.51698239501983      1.45321995791704
  H   -1.31067465718237      3.16387297612968      0.77328895050285
  H   -1.12136670208583      1.73806819834376     -0.30458136256556
  O   -3.77257084516260      2.95341211008707      0.76518868598375
  C   -7.81316390546503      1.29344790832936     -0.89835270089667
  H   -7.72873259077379     -0.64077759780805     -1.72480404384562
  O   -7.55329995273283      2.01207832772772      0.29262391905884
  O   -9.21321781143350      1.30968532423901     -1.05662865052590
  H   -7.33539619845979      1.82390921537367     -1.75545350155303
  C   -8.64526565445992      2.90041509820160      0.55307214155943
  C   -9.62815544182108      2.58061382069436     -0.59612246884650
  H   -9.54897525376080      3.33938814789563     -1.40143115411346
  H   -10.67752990288253      2.51616942689335     -0.27305081410152
  C   -8.18384995393080      4.35240016736221      0.62217690659439
  H   -9.08237467132898      2.60835451767259      1.52693689749187
  C   -7.14343132078752      4.61183482418181      1.71294658834066
  H   -9.07814972529255      4.98349761519498      0.78423466948250
  H   -7.77423120267410      4.63813433965496     -0.36336787169440
  H   -7.53383651757724      4.34026127900459      2.70888661881111
  H   -6.86257833413705      5.67672422572212      1.74459648277567
  H   -6.23004188951040      4.02456888157152      1.53220939662286
  H   -8.54735549193569     -1.56969124884379      0.45729986335889
  H   -7.57430906780104     -0.33504311336500      1.32868452237619
  H   -5.36418080403751      1.61426360321116     -0.19604146952608
