54
Coordinates from ORCA-job 2098-2_0.0
  C   -6.61031697348812      1.53952564538479      0.93819951784874
  C   -5.29698048006395      2.26520293351416      1.39997241648857
  C   -7.18600277744626      1.68058906117455      2.46661483605642
  C   -5.73861430015120      2.05525010224998      2.86995394738504
  C   -5.12804585176127      3.68655230405971      0.91096979408948
  H   -4.40660274234011      1.69198977319519      1.11604197176666
  O   -4.27269028376539      3.73448655253316     -0.11570559691081
  O   -5.69147151778283      4.66520831193700      1.35172319137751
  C   -4.04017117843981      5.01987763037880     -0.72577305549769
  C   -2.99009846602699      4.84175531347709     -1.80222628969988
  H   -3.72230294829830      5.72925691761432      0.05500923769428
  H   -4.99311572399491      5.39381321632914     -1.13515663873955
  H   -2.04723048918622      4.46663424046069     -1.37472535725185
  H   -2.78841016360208      5.80742035754996     -2.29190364363455
  H   -3.32898992021644      4.12899854718381     -2.56992401261966
  C   -5.48613312703443      3.10792725316871      3.92496323189778
  H   -5.25741127434836      1.12666104370988      3.22321144807922
  O   -4.23555808901521      3.58799970279054      3.81326362763581
  C   -3.83724981154285      4.59347780051606      4.76334480082592
  C   -2.39364908341406      4.95664306234302      4.48400268779593
  H   -3.97472457813259      4.19499330703965      5.78162150698947
  H   -4.50973523037041      5.46061774928478      4.65980983470811
  H   -1.73747430154613      4.07838534277956      4.58882303153647
  H   -2.05593307280306      5.72702188976703      5.19514379228189
  H   -2.27727123808095      5.35473917623685      3.46381460857498
  O   -6.26396797495882      3.43258912150766      4.78597515682126
  C   -6.26174262799755      0.06948267786653      0.56341414800861
  C   -7.71553177653038      0.35283483397339      3.07288212953736
  C   -8.36744430850278      2.60849894458621      2.66520982774311
  C   -9.47120404504301      1.83345934885886      3.07839286640661
  N   -9.07762139843267      0.50231168523236      3.23925930248635
  C   -8.52899976287462      3.98610810092323      2.54410179366923
  C   -9.78118259869239      4.56973900917597      2.78878907205150
  C   -10.86219593613542      3.76675278158446      3.15870571914558
  C   -10.72784791542134      2.38076694320428      3.31856959218939
  H   -7.68195436668160      4.61675658783120      2.27501928297646
  Cl  -12.42364560088876      4.50092350594963      3.45106901206577
  H   -11.57469295128296      1.77097471191550      3.63631299776059
  H   -9.63475946815264     -0.21627900257412      3.68777324411682
  O   -7.07176477930152     -0.62923043613023      3.35821289022859
  C   -7.50097199037021      1.95056338664106     -0.20754284097119
  C   -7.84329988198910      0.78967758503119     -0.93781855514061
  N   -7.16872035785817     -0.31322936798524     -0.40997736514930
  C   -8.02936367637328      3.17561506029460     -0.60774676905593
  C   -8.70564937478053      0.82072561395182     -2.02925789859836
  C   -8.89045848524869      3.23950351824450     -1.71459921769365
  C   -9.22267011241706      2.07023766109630     -2.40245474588350
  H   -7.09945832080005     -1.21855138818099     -0.86160246848294
  O   -5.34722881303153     -0.59655584183877      0.98034632846904
  H   -7.77863908661462      4.09337004339488     -0.07754300960910
  Cl  -10.30468726816939      2.15511374871817     -3.77337036128605
  H   -8.96699173779762     -0.07924761427590     -2.58757377927518
  H   -9.30735627376370      4.19394899014391     -2.03851191084463
  H   -9.91576548703716      5.64859255618094      2.69996666963580
