54
Coordinates from ORCA-job 2098_0.0
  C   -6.12884118144915      0.92183278027915      1.22721442921740
  C   -4.84040178309781      0.99104849354027      2.11676602363532
  C   -6.97559183196327      1.39244771253118      2.51419162709661
  C   -5.61881147971744      1.77609500345822      3.19875429115730
  C   -4.18183119910230     -0.31062158357307      2.53556258561681
  H   -4.05237217446785      1.59596933463209      1.64365366446896
  O   -3.71840783173471     -0.23876513145963      3.79110730133944
  O   -4.01909726865739     -1.26189498392879      1.81114892633765
  C   -3.04886729003617     -1.40405545815239      4.30531263556753
  C   -2.53284115640826     -1.07493212785248      5.69070741858751
  H   -2.23687589832947     -1.68310398800212      3.61443686665132
  H   -3.76723849725268     -2.23986098659552      4.31999841596283
  H   -1.82247393463841     -0.23388355538775      5.65814476839490
  H   -2.01424825692573     -1.94899000707783      6.11534095586268
  H   -3.35944744182970     -0.80329298824047      6.36561998713206
  C   -5.28288866935152      3.24560706928934      3.37220196433963
  H   -5.52665337678935      1.32108736143884      4.19651759276965
  O   -3.97074201577051      3.46139577696842      3.18685893191017
  C   -3.47970779761189      4.81058936762469      3.31271249965810
  C   -3.40146706414432      5.48696575353625      1.95429631605547
  H   -2.48331727876852      4.71107885202605      3.76931057189785
  H   -4.13741979874711      5.36369614613277      3.99882420039811
  H   -2.74797788326985      4.92411628595698      1.26965292364372
  H   -2.99215294657080      6.50425978982339      2.06747705314502
  H   -4.39673490253380      5.55878674713784      1.49209375389868
  O   -6.07321360246214      4.08930649742447      3.71727753392779
  C   -6.08658872647740      2.07631690661096      0.19371757711804
  C   -7.55503687076579      0.14247648259668      3.22553666795516
  C   -8.20042959433052      2.26488024031462      2.34172975620985
  C   -9.32769478625347      1.53182946649846      2.76895197108758
  N   -8.91812329194411      0.28680413393911      3.25840996260323
  C   -8.39104671051990      3.55642579568279      1.85348017628841
  C   -9.68568672093905      4.09203974071636      1.78343586410702
  C   -10.77960295453014      3.33191189247717      2.20410347658807
  C   -10.62351288219497      2.03319827922678      2.70853252911282
  H   -7.54255090462628      4.15923830647087      1.53579962700258
  Cl  -12.38924127985363      4.01007751331024      2.11283521668624
  H   -11.48702975072711      1.45602774217616      3.04177926809364
  H   -9.52300559649778     -0.40607504634199      3.68464082035361
  O   -6.92612781884730     -0.79097787412438      3.68237227982805
  C   -6.60299720482467     -0.24657370411943      0.39051855528437
  C   -6.91703628064255      0.23268377672090     -0.89852444128495
  N   -6.62576911299832      1.59955896989721     -0.97304658350790
  C   -6.78806864033870     -1.60093626621825      0.66264068261476
  C   -7.41958797006580     -0.58288234888211     -1.90674632707082
  C   -7.29039192513929     -2.45017417989483     -0.33443056841437
  C   -7.60136344180985     -1.93803424895030     -1.59650415539904
  H   -6.69425876796916      2.17125615178116     -1.80745926096334
  O   -5.64962117487707      3.19617689896131      0.37142548767048
  H   -6.53560714220492     -2.00939855230563      1.63948804896060
  Cl  -8.22583763418926     -3.00691976620134     -2.83206136875421
  H   -7.65890122228718     -0.20022020515451     -2.89983180667884
  H   -7.43180177899557     -3.51318306765129     -0.13455277673919
  H   -9.84508725351989      5.10447080093335      1.40987608257555
