68
Coordinates from ORCA-job 2099-2_0.0
  C   -6.19703334961406      0.71270521544965      1.03272914288567
  C   -4.90457361644644      0.76112170958597      1.91840955314725
  C   -7.06712811219176      1.22503669919911      2.31477839181871
  C   -5.70245018141049      1.58589034903466      2.97089574820214
  C   -4.24568294178086     -0.51414244493983      2.40711163687910
  H   -4.12683623543708      1.36965496479409      1.44299310551691
  O   -2.92298968278978     -0.33317976531851      2.50608087202511
  O   -4.78899325912441     -1.56114362927518      2.67991374733873
  C   -2.18125661826066     -1.39386237702088      3.11078722745469
  C   -5.51214117245818      1.32868462086699      4.44617120026856
  H   -5.52855388946530      2.65887910539251      2.78716030989741
  O   -6.42335454651764      2.00197318992298      5.16336937482485
  C   -6.36603625625473      1.84346322007078      6.58314050329448
  O   -4.65260215141783      0.63277568748172      4.93255699664700
  C   -6.07280194881945      1.83878499066060     -0.03440745422872
  C   -8.00935766527829      2.42333518808603      2.06020104988483
  C   -7.99132103269604      0.22433015518883      2.97043696652602
  C   -9.30830068887119      0.72517460120805      2.91438164685516
  N   -9.31326552125275      2.01463902497040      2.34249854011659
  C   -7.75487784707192     -1.00625734840675      3.58073926599188
  C   -8.83590944783044     -1.74228964787866      4.09157883305762
  C   -10.13991024820621     -1.25511525780971      3.97860293878168
  C   -10.39427457483519     -0.00903062836649      3.38901155151988
  H   -6.74053604279815     -1.39962461599347      3.65162428697798
  H   -10.97799275470400     -1.84465283772865      4.36019876081797
  H   -11.41160489722361      0.37673101749690      3.31265797493795
  O   -7.68757468872985      3.53121942737174      1.70177944445563
  C   -6.74506572087413     -0.42753939267274      0.21015453100818
  C   -7.18301987062937      0.09227765420150     -1.02874157289622
  N   -6.84818449476218      1.46291515755486     -1.13013117683233
  C   -6.90671422104450     -1.78817914802847      0.46956758128748
  C   -7.78021953612050     -0.71273833360924     -1.99695752346742
  C   -7.50661150836685     -2.61017170491222     -0.49707007712442
  C   -7.94132886130069     -2.07587180146567     -1.71141359428923
  O   -5.38957499553034      2.83110415680481      0.04549920367699
  H   -6.54251254717759     -2.21227353740230      1.40201106090624
  H   -8.40304023381443     -2.72553161260194     -2.45995440210568
  H   -8.09447686218419     -0.30192352451976     -2.95698562052241
  H   -7.62706307977336     -3.67721676845807     -0.29528058208365
  H   -8.65189207260147     -2.70706787215885      4.57041625283963
  C   -7.10723946583541      2.30258648063842     -2.25088782102498
  C   -8.41752967091533      2.41249231332277     -2.74426820711386
  C   -8.68619027321211      3.23494118446408     -3.84072290350032
  C   -7.65666943456525      3.96693579510319     -4.44083435497673
  C   -6.07392646173985      3.03759854614756     -2.85046115242148
  C   -6.35615649921498      3.86892601668957     -3.93743905884033
  H   -9.22443717795337      1.85689220464599     -2.26120509172501
  H   -9.70871159347520      3.31156848543717     -4.21993417899206
  H   -7.86868068368758      4.61546330658743     -5.29470157879023
  H   -5.06166160511393      2.96759567778032     -2.45409735294159
  H   -5.54684580545444      4.44272280192889     -4.39664404943422
  C   -10.43164764777839      2.89265544214043      2.25113398945246
  C   -11.23328967247640      3.14661013668085      3.37425326396479
  C   -12.31898762788379      4.02013386548198      3.27386161675169
  C   -12.59954275739477      4.66019780058710      2.06284876949333
  C   -11.78820602337818      4.41993288232798      0.94936824029975
  C   -10.71036280917413      3.53654152776823      1.03724591569366
  H   -10.99745627454174      2.66833690342870      4.32695551141883
  H   -12.94046677423758      4.21086075758160      4.15281105816115
  H   -13.44529352880985      5.34859778835188      1.98845512569907
  H   -11.99598764444391      4.92251787390211      0.00114637808442
  H   -10.07349121653340      3.35151671020983      0.17089352528059
  H   -7.17252694397156      2.46445373732788      6.99199026612420
  H   -5.39179711636887      2.17546069303136      6.97285994240728
  H   -6.51601437175803      0.78927715401656      6.86157245199518
  H   -1.12863870536168     -1.08633790290079      3.07821274856213
  H   -2.32444133293167     -2.33674530248785      2.56197464917854
  H   -2.50775750612202     -1.53355676696814      4.15251660090130
