55
Coordinates from ORCA-job 20_0.0
  H   -2.45919641250307     -0.18111948075154      3.28931135279042
  C   -1.99377647650379      0.01543309593409      2.32141199994821
  C   -2.79909670955394      0.47714927654024      1.27032905089761
  C   -2.23905501651051      0.74816499572375      0.01165591743015
  H   -2.86439066158023      1.10211349771936     -0.80305506407831
  C   -0.87127781558017      0.54680683446406     -0.16793777035601
  H   -0.40955610484626      0.75011765599491     -1.13649042844114
  C   -0.04591581130649      0.08167427579670      0.86956241686648
  C   -0.63024282815533     -0.17974361937748      2.12238023137471
  H   -0.02222895897129     -0.53637566033410      2.95563551574731
  O   -4.12856108330810      0.63735056848910      1.61463474003485
  C   -5.15335220376396      0.95636820483974      0.76934873184243
  C   -6.44186304526457      1.03005919293707      1.54964091998188
  H   -6.64204513179133      0.06308103991209      2.03706700124046
  H   -7.26406095183625      1.28804129845655      0.87151971994683
  H   -6.35647616275565      1.78489466468834      2.34683006246496
  O   -5.03797985186993      1.14465120347462     -0.41124135646027
  C   1.41347047974421     -0.11552906893626      0.58519426749380
  O   1.87094803789876      0.15225020986644     -0.51395690585417
  H   12.41180509809948      1.47428929206592     -0.10787041380654
  C   8.31172597199843      1.22471201209200      2.50414581605415
  C   6.94586544802309      1.06699617484195      2.73531982637148
  C   6.13523286212957      0.28302791609191      1.89702817418150
  C   4.67515982415977      0.16845716589643      2.22391498016822
  C   8.88561805656521      0.57740108715723      1.39818179949085
  C   12.51106311996007      1.11323691767039      0.92771165931861
  H   8.92450393901434      1.83414911552240      3.16233839709373
  C   11.21304948110728      1.31155160831105      1.66937474834186
  O   10.21609905347234      0.63368950941667      1.02707542528775
  H   6.47383556543661      1.55997733269788      3.58785339894859
  O   4.20756800022606      0.76978476772081      3.17601572373904
  C   8.09609297730052     -0.21059395244242      0.54873215120629
  C   6.73411960197653     -0.35463497516840      0.79561046721992
  O   11.07023268059155      1.96083517759027      2.66971806017621
  H   13.31182079660769      1.65778126631621      1.44220882377476
  H   8.57212380941901     -0.69889754448138     -0.30392881715679
  H   6.13943091644430     -0.96785932030885      0.11699378953222
  H   12.75490698410060      0.04053859476386      0.87628987690389
  C   2.29517008627008     -0.69838037986980      1.67414713850864
  C   3.80714967919251     -0.75456480290103      1.38372243702437
  C   2.27471512954127     -2.25868024795179      1.86315498396712
  H   2.11620449361431     -0.18673401676092      2.63020070774005
  C   3.83469566832873     -2.26950768662522      1.80688044477992
  H   4.00923634697138     -0.62252914863065      0.31134685800631
  C   1.83121283586804     -3.16477849494349      0.69695282503843
  H   1.83075742128123     -2.58804121134563      2.81548873275529
  C   4.25066062043138     -3.34687979230397      0.78092158776732
  H   4.31099336520021     -2.41491368670743      2.78836468644631
  C   2.97359879097052     -4.19088311794169      0.58421074075713
  H   1.76517752078243     -2.59084178512959     -0.24274790524260
  H   0.84573572636410     -3.62708294626449      0.86294522182249
  H   2.96444056462201     -4.74647122824603     -0.36746462683329
  H   2.88949567736503     -4.93657008060406      1.39499226234001
  H   5.11078542868749     -3.94844931651800      1.11411979244513
  H   4.53647316633449     -2.87924238844777     -0.17694017703869
