33
Coordinates from ORCA-job 2102_0.0
  C   0.61278400861805      2.63154809005524      0.83516992864450
  C   0.89157698425423      1.25504789560213      0.66726582094722
  C   -0.09478159362362      0.39820256422220      0.15021558487816
  C   -1.36554666794326      0.87863588264463     -0.20877597272117
  C   -0.63133637881688      3.10296567767187      0.45712341516528
  C   -1.61347617404962      2.23586752029598     -0.06090680588862
  H   1.39373639282887      3.27383411027952      1.24809416859206
  H   0.12089650016786     -0.66346736075562      0.01592274072896
  H   -2.12208228940619      0.19581955767520     -0.60441459708391
  C   -1.31363336018221      4.46259729324715      0.49759997541408
  C   -2.81826979221489      3.13318002702353     -0.29309272989048
  C   -2.34615870720920      4.42922293765344      1.68212382035303
  C   -3.40863692817369      3.44924182996815      1.11551817167384
  C   -3.18843540277346      5.67229476871424      1.78466437941633
  H   -1.88087181027885      4.15441693457047      2.63836354642235
  O   -4.62655968854214      4.22590164794866      1.01494938393974
  H   -3.63044815706553      2.55402407682726      1.71236797890061
  N   -4.40651507542866      5.51480664404636      1.39924523779027
  C   -2.67890583637850      6.98689862065115      2.26078318183735
  C   -3.65362794970378      8.13792136991582      2.34490844971015
  H   -4.48262665939526      7.88986967011224      3.02676737275050
  H   -4.10707912078616      8.32575036421320      1.35879567507318
  H   -3.12646721987789      9.03343429347516      2.69831537979313
  O   -1.50236571530449      7.08572466598226      2.55899661624309
  O   -2.19418704846428      4.37769574903403     -0.62850318494134
  H   -0.68508835202663      5.35874990802703      0.45675903555439
  H   -3.55772644481365      2.83799986296339     -1.04713904186690
  C   2.26304782136182      0.77162333408593      1.06090728634581
  C   2.59705087787718     -0.70081378805071      0.89966392770877
  H   1.91085636482795     -1.33050076506686      1.48945289883815
  H   3.62704741820869     -0.86655394083314      1.24045906330277
  H   2.50565019443973     -1.01386852796562     -0.15331912007047
  O   3.08466980987449      1.55170908576562      1.50131841243912
