26
Coordinates from ORCA-job 2106_0.0
  C   -1.62318348106477     -1.79013545240154      2.40226546888909
  C   -1.15437306824997     -2.36980530526802      3.77868335763735
  O   -0.38709362655998     -2.32898731772947      1.83548695720649
  O   -0.19961005615720     -3.17987432921660      3.02678113089727
  C   -0.42373554510080     -1.39998847302697      4.73701179674872
  C   0.97372942572229     -0.94268450342016      4.30730723038132
  C   -2.10528585755290     -3.25896377002667      4.56566651969938
  C   -1.71569273951612     -0.27425772021523      2.20787216811153
  C   -1.54479249728205      0.17534794474065      0.75083029461643
  H   -2.66934839918247     -3.94993038394287      3.92741434155909
  H   -2.81646858598492     -2.64750933871824      5.14529163839946
  H   -1.52375123442872     -3.86086593934932      5.28277011107085
  C   -2.81274260571683     -2.51703019269407      1.77603103817815
  H   -2.91867751389962     -2.22649707196863      0.72052128282326
  H   -3.75349113627643     -2.27243903389731      2.29566900506853
  H   -2.65908916092107     -3.60410310851840      1.80581157049177
  H   -1.53542033373735      1.27483073775557      0.68740352010573
  H   -2.35623770276699     -0.18404105698091      0.09897906549559
  H   -0.59203618733883     -0.19395789865491      0.33937652287267
  H   -2.69389117384579      0.06290822492364      2.59537723402681
  H   -0.95101182427291      0.22599074538809      2.81605734898972
  H   -0.33108920756676     -1.90616790394598      5.71346719574546
  H   -1.08409676613129     -0.53359095411339      4.92083751635115
  H   1.64094539022628     -1.80942301745384      4.19653169464708
  H   1.40296272357287     -0.27014452645580      5.06739863541682
  H   0.97470116403235     -0.41486035480961      3.34301735457026
