67
Coordinates from ORCA-job 2110_0.0
  C   -3.51485977831546     -0.03074483899485      3.32779388053680
  C   -3.51870503738147      0.70785738570307      1.97727383747869
  C   -2.33482350141732      0.23852468575832      1.11824006957411
  C   -2.18614049487697      0.20519356576080      4.06778703325362
  C   -1.00678667649513     -0.28388387734399      3.20028317682276
  H   -2.21703521581437     -0.32225649097445      5.03338060820766
  H   -2.05001464299019      1.27627862551757      4.28834751689758
  C   -1.00665380839070      0.48341309574234      1.85808511474667
  C   -3.66754518153495     -1.53961062549530      3.06090765218767
  H   -4.36085810598276      0.32145941489229      3.93792177373830
  C   -2.49251252820670     -2.04004632012786      2.19738422122544
  H   -4.61621962809571     -1.74677060316950      2.53614309262216
  H   -3.71746369631414     -2.06892657907438      4.02260551320457
  C   -2.48887345236035     -1.27219948810622      0.85619327810219
  C   -1.14403848989450     -1.78421767370093      2.90054611051785
  H   -2.59812693081145     -3.11612834519374      1.99826382814454
  H   -0.05428506983104     -0.10541664870754      3.71875996529369
  H   -3.42815534362124     -1.48016248289644      0.31546435225228
  H   -1.66272759184524     -1.62721657033022      0.22061972810071
  C   -0.65080074408634     -2.85057843365199      3.97755761656186
  O   -0.04535006864424     -2.24175106043971      2.05285755181248
  O   0.24038743817198     -3.36643603708601      2.95474455137058
  C   -4.22882358156000      4.33439971553324      2.46858330055597
  C   -4.52511583455604      2.85904857262999      2.31384958936203
  O   -3.39623355515581      2.13839804188348      2.16348754111411
  H   -4.47301746119360      0.52277957769970      1.46111602205363
  H   -2.34540582114236      0.79228480234471      0.16422992220749
  O   -5.63525149494528      2.38517857910007      2.31386636137864
  C   -1.60500749597996     -3.91310868007737      4.46292441888885
  C   0.13130385151763     -2.30456174285851      5.15350540457083
  C   -0.48453201034285     -2.21803844730853      6.42286972659185
  N   -1.79050252791641     -2.72584477080475      6.58082265855244
  C   -2.19231854952072     -3.78241285763098      5.74323113419324
  C   -1.91809309995436     -5.02579407816875      3.67163409272203
  C   -2.84522718858776     -5.97812496012162      4.09777050477243
  C   -3.46831116605840     -5.81547598034702      5.33768772285244
  C   -3.14309258318408     -4.73521210588897      6.15887995474867
  C   0.24815096869069     -1.67475308435164      7.49750907309086
  C   1.45805819780756     -1.88291779760662      4.99727434358444
  C   2.17423077679376     -1.33885141210780      6.06368646546149
  C   1.55714035715368     -1.22967205015704      7.31280294505587
  H   -0.18197409261118     -1.63141947540944      8.49859770034715
  H   1.91774612866549     -1.98709073443250      4.01297605729271
  H   3.20555121237810     -1.00723868531552      5.92240915252593
  H   2.10431709960908     -0.81720497588785      8.16476716752878
  H   -3.61929915644391     -4.65609172963010      7.13666789343789
  H   -1.41242068992642     -5.13108102513210      2.71038922517566
  H   -3.08249863047002     -6.83641086147455      3.46491728353818
  H   -0.86770655597289      1.55867111167521      2.05151121270557
  H   -0.16210041278395      0.15135158721511      1.23290337654070
  H   -3.15191993704611      4.53864338334623      2.51695899363269
  H   -4.72680397016670      4.70475459549336      3.37729636953798
  H   -4.66910664543609      4.87412400416923      1.61528928641177
  H   -4.20353077924495     -6.54647117354639      5.68481514635042
  C   -2.56465747990767     -2.42965718183145      7.76231248283327
  C   -4.00989174883653     -2.04011996900712      7.44505317294035
  H   -2.13544431471827     -1.54624151073024      8.25520750769055
  H   -2.56191402826742     -3.24110590745733      8.51176326612856
  O   -4.80842749145850     -2.33881331350113      8.47879335455413
  C   -6.19335663690680     -1.94562754415672      8.36854108391004
  C   -6.90551968407949     -2.37478667154622      9.63384378597462
  H   -6.62114017435135     -2.41719776909326      7.46926693326348
  H   -6.23904643601603     -0.85521856407076      8.21468887323229
  H   -6.85131506539764     -3.46645923610553      9.76803272149160
  H   -7.96709079037478     -2.08642713377895      9.58050172265022
  H   -6.46218775614129     -1.89518464579191     10.52043132094543
  O   -4.37897519722201     -1.49507859384289      6.43623325495019
