64
Coordinates from ORCA-job 2111_0.0
  C   -0.32957725910745      2.23795266278490     -2.41294415006634
  C   1.05304194288824      1.45881278297965     -2.55579414078950
  C   1.68317723026915      1.32323201469942     -1.15603746439828
  C   0.09851835588940      3.64591287764321     -1.95183530627146
  C   1.66613231017320      3.55262990260364     -1.86527004492324
  C   2.01457295517437      2.56538890246599     -0.75625603462579
  H   2.46480274176358      2.85850147018918      0.19406493882189
  C   -1.34049841661967      1.78218063084373     -1.36835408788780
  H   -0.83925873331013      2.24618513292535     -3.38830500310971
  N   -1.41512722572321      2.77299518361700     -0.36076695185081
  C   -0.59722909215303      3.88516159954810     -0.62768890102877
  H   -0.19696272804949      4.44543576836149     -2.65035649785472
  O   -2.00558632389730      0.77641916187961     -1.37695521175371
  O   -0.47801791284883      4.85181915261532      0.08803129002778
  C   1.90728314297845      2.64227342067459     -3.09363819614603
  C   1.13716492666141      0.16414707168181     -3.40876836856003
  C   -2.24131616551414      2.66078920766611      0.80032354926707
  H   1.53086269299751      3.06659763280010     -4.04030301020953
  H   2.96029677937637      2.35602962865181     -3.22024844609539
  C   -3.55077498863490      2.18693197465640      0.69054493930254
  C   -1.73224423112654      3.03236666475730      2.05580238544119
  C   -2.54049860155840      2.92675093760678      3.18836079126203
  C   -3.84768670799261      2.44583478291075      3.08401148997395
  C   -4.36102551133696      2.07193399369860      1.83160821481993
  H   -3.96948092983476      1.88743110776278     -0.26906934555631
  H   -0.71472730376080      3.41257858303545      2.13900978079548
  H   -2.14193961365959      3.22048165291170      4.16260456114082
  H   -4.46163205934145      2.36701796316781      3.98311998906063
  C   -5.76313834539159      1.55457667089250      1.63951870104238
  C   -6.65369076368408      1.39564907429650      2.85909283498095
  H   -6.20588608170254      0.69999999946776      3.58768186960951
  H   -7.62792208639963      1.00756548515879      2.53533973986114
  H   -6.79706424196109      2.36008518443729      3.37346201128306
  O   -6.16997059400450      1.27159300197778      0.53001184891061
  C   1.97282776527639     -0.00570073130879     -0.46954287141881
  C   -0.15998998311541     -0.61628791584033     -3.67757804690730
  C   -0.51807730529911     -1.51247450109546     -2.52769573209188
  H   -0.02023137006532     -1.22494283091495     -4.59020136165758
  H   -0.99622093477629      0.06634289990707     -3.89739170994129
  C   0.33772985013478     -1.73956741108793     -1.52857591719747
  C   1.72622719318107     -1.15330561990358     -1.52146159339065
  C   3.46975260413759     -0.04135292279051     -0.08693340470904
  H   3.70932930156268     -0.98370526871647      0.43390948732779
  H   3.73440125017046      0.79105020103346      0.58297771195244
  H   4.09967163487177      0.02651376573243     -0.98700791741976
  C   1.11959878381842     -0.18897623399524      0.80242108796364
  H   0.04273637571214     -0.12276422047344      0.58997589378322
  H   1.37176653822519      0.58452583813282      1.54510455942797
  H   1.31298975543620     -1.17046317191533      1.26796546939480
  H   -1.51135892593907     -1.97036715303206     -2.52425564155770
  H   0.05688976575136     -2.38045514110933     -0.68843330706105
  O   2.10893587508817     -0.69794532535834     -2.81653202026324
  H   2.43550198700478     -1.96591817053125     -1.28928195339506
  H   1.57465920340779      0.44371828483158     -4.37990700064774
  C   2.32360021471831      4.92283185588063     -1.78758435949793
  O   3.74228635054427      4.83191741203610     -1.59003601779515
  H   1.93567765097197      5.46853272235385     -0.91569239877978
  H   2.11620967534061      5.50070126499651     -2.70068593989065
  C   4.53981594235560      4.85474247606607     -2.68128592929626
  C   5.99293465200850      4.77039239829038     -2.28343494495629
  H   6.24769042150440      5.60576003318195     -1.61295992199462
  H   6.62379216170471      4.79850373967819     -3.17994926333452
  H   6.17251776655793      3.83910061752464     -1.72376902383875
  O   4.12574863915106      4.93462182705800     -3.81155570728079
