52
Coordinates from ORCA-job 2114_0.0
  C   2.04006420218218      0.28677253738848     -0.30884825869009
  C   1.37996440639989     -0.94529472088192     -0.28979645677040
  H   0.77920419578633     -1.23733906129344      0.57261345195094
  C   1.49501923683926     -1.82160390555341     -1.37365996303500
  C   2.27776890425396     -1.46344252222631     -2.47078449707731
  H   2.38685780718093     -2.14781232052835     -3.31620427705468
  C   2.93685659269748     -0.22934192139686     -2.49800909890271
  H   3.55999180530985      0.01379483972127     -3.35325116898373
  C   2.81471770677473      0.66308340418995     -1.42666371493841
  H   5.80962388593449      1.89714596341668      3.63059578649939
  C   5.36830365605395      1.94325355446325      2.63178946737499
  C   4.03504070707587      1.56865758895696      2.43861244922167
  H   3.43775110741964      1.24286442205068      3.29143999905664
  C   3.47020957891332      1.61945717171121      1.16147827286761
  C   4.23385979899114      2.04336389587720      0.05461710793798
  C   5.55738275009137      2.44391608838613      0.26798569767958
  H   6.17478531806690      2.81136195415485     -0.54864721696875
  C   6.12282759283353      2.38909375399778      1.54715766879498
  C   3.46678058109456      2.05696491498497     -1.29848881394314
  C   2.01436680974634      1.29845780738904      0.83882790612195
  C   1.44055139474808      2.61047356204077      0.19474747878527
  C   2.25337291967806      3.08320412916447     -1.04305360800769
  H   0.98102782599573     -2.78618772753404     -1.35176208646692
  H   7.16048683410811      2.70163433541136      1.68941657469416
  C   1.44239072168554      3.81099695833119      1.13213267227355
  H   0.39239087449276      2.40832144802671     -0.07138968269745
  C   2.80960018092635      4.44067982204470     -0.59203536619086
  C   1.26897910182683      3.31676301874007     -2.20985282252739
  O   2.25762236501014      4.80109451465956      0.61812618225367
  O   0.85487129790728      3.96509989421659      2.15879632797841
  O   3.58701484671740      5.15055031817009     -1.15485866858373
  C   1.18006964549232      0.85073363375094      2.03807595443785
  C   4.48524507596023      2.42050105691109     -2.43958543020074
  H   1.70142454210208      3.90104877517057     -3.02497328501696
  H   0.39449712631725      3.87306572030741     -1.83625373160281
  H   0.91624625247141      2.35262644283396     -2.60280818767069
  H   0.13719980059431      0.66491865915601      1.73917846044944
  H   1.16135176565240      1.61964163437188      2.82087376304941
  H   1.58056715546038     -0.07948827487288      2.46828564813528
  O   5.38025179296678      1.34090940854711     -2.52071232729792
  C   6.74858397385295      1.57489300175147     -2.85532647403845
  C   7.57125202853387      0.41550277528527     -2.32469387679243
  H   7.08450617985471      2.53456250108118     -2.41554921518991
  H   6.86589173250692      1.66475418634944     -3.94712044673975
  H   7.50245318525074      0.34741539127298     -1.22826277067790
  H   8.62896204100339      0.54105885546371     -2.60662372632914
  H   7.21255564685766     -0.53498255484318     -2.74966996407332
  C   3.97103564344597      2.78659148387476     -3.86294306579141
  H   5.00237594556013      3.34643352992076     -2.13330743279279
  F   4.95646409342559      2.60861245381894     -4.76074969080639
  F   3.62421620180543      4.08276021986178     -3.93892257614990
  F   2.92505516414331      2.06264738190703     -4.29533296755393
