56
Coordinates from ORCA-job 2115_0.0
  C   1.88749853056902      0.43313969495927     -0.38228562554459
  C   0.92239561724979     -0.57394367708076     -0.34485941509805
  H   0.21796054240897     -0.61901029241647      0.49074636389532
  C   0.86826449816720     -1.52263135686113     -1.37101667551096
  C   1.78417122013591     -1.45020906787982     -2.42229049416441
  H   1.75523889916179     -2.19188941551250     -3.22503613236506
  C   2.75075534871155     -0.43727197251133     -2.46239659767785
  H   3.45627110399195     -0.41483712905421     -3.28776211121124
  C   2.81110165627343      0.52146555383288     -1.44451384320502
  H   5.59008732951461      1.37821648749982      3.81796775500595
  C   5.25855142366791      1.45053831310722      2.77901291839670
  C   3.89656260895301      1.38668176181790      2.46935912175277
  C   3.48556999359306      1.47549923021011      1.13932540714563
  C   4.41236621489264      1.63104870552079      0.09258036904458
  C   5.77010805402423      1.71600943609868      0.41979787434067
  C   6.18888026600020      1.62199945476039      1.75287575391059
  C   3.77135426126249      1.73061373935984     -1.32393578234899
  C   2.05180847488479      1.49964883283010      0.67505450294593
  C   1.85790720656275      2.86838478188944     -0.03425622517633
  C   2.79752975603368      3.02958603772538     -1.26826784913386
  H   0.11812325177424     -2.31745529461580     -1.34538082251470
  H   7.25520819896048      1.68615553056809      1.98472840312281
  C   2.17603642569273      4.03245842975175      0.89071018025891
  H   0.80213739428510      2.95701703353703     -0.32890398684702
  C   3.61337936898977      4.31917258277845     -0.90999626413140
  C   1.88967416652232      3.22325510746588     -2.49987940064478
  O   3.19287538572891      4.76748628366552      0.36866517466472
  O   1.66209051037823      4.29496306723176      1.93907238156072
  O   3.36418062344601      5.36573199835077     -1.82522134471434
  H   1.33800687957126      1.39562646013154      1.50303958419320
  C   4.94858450873947      1.74926431369852     -2.37141263234693
  H   2.41656456455291      3.51906307470878     -3.40747992316439
  H   1.16039759956810      4.01825022797652     -2.28530987780484
  H   1.33321041264448      2.29649094422631     -2.69837603939204
  O   5.49740999594933      0.45856423635589     -2.33122233216422
  C   6.78048637212532      0.10566654219752     -2.86668024871719
  C   7.94095961482309      1.04267263570796     -2.55894954121304
  H   6.70217131167604     -0.04125292720012     -3.95645197020573
  H   6.97365495460684     -0.88161108813333     -2.41910561817887
  H   7.79978036729410      2.04653042719494     -2.98732471769897
  H   8.85407097455532      0.62525253839827     -3.01352253419751
  H   8.12702481418102      1.13750656743059     -1.47858555971035
  C   4.68215776508465      2.21572539407811     -3.82281240074943
  H   5.67647001859853      2.50716253720874     -2.02845830648364
  F   5.75845539496272      1.96727861563388     -4.59492077369724
  F   4.50635162223905      3.55387184460584     -3.86490013213134
  F   3.63502980006371      1.64224763133439     -4.42894504775199
  C   4.40998073465563      6.16799199450825     -2.19055809093524
  C   3.92489185937657      7.28331950918184     -3.07687339921557
  H   3.18672721622942      7.89239908513909     -2.53188447688263
  H   3.41655149095170      6.86641238498845     -3.95992030722232
  H   4.77336667916975      7.90549652393091     -3.38567870904353
  H   4.69654200346236      4.16066988741061     -0.85303013626772
  O   5.54516225782378      5.97992816999446     -1.84319081736388
  H   3.15020516233658      1.28118244269806      3.26113041324474
  H   6.52872729292098      1.85110616956466     -0.34712004065590
