54
Coordinates from ORCA-job 2116_0.0
  C   -0.65662045116219      1.82726941455641     -2.20923838020960
  C   0.60565593849899      0.86736108222218     -2.21151285325842
  C   0.74672726623048      0.32557670331761     -0.78586750855863
  C   -0.14542761877502      3.01357897969557     -1.37306981198983
  C   1.31479432126414      2.51870282948456     -1.01746573080311
  C   1.18683940381918      1.35210797544809     -0.04671953060388
  C   -1.88733279662492      1.31774362053779     -1.47904423914069
  H   -0.91458388958330      2.08603153144982     -3.24692788369305
  N   -2.09994974813304      2.14737800861745     -0.37114834648918
  C   -1.12968532603214      3.14424470019893     -0.22120729134993
  H   -0.08612570364981      3.96310422570684     -1.92404006261516
  O   -2.56924627503231      0.36151619601009     -1.76645873106648
  O   -1.10643416896845      3.94406463205841      0.68517866612398
  O   1.64769926207311      1.86123143960329     -2.23900364917684
  C   0.71878091401979     -0.07573703815173     -3.40086489636888
  C   -3.15640767379433      1.92728719355929      0.60482699904764
  C   -4.33299769090988      2.91112242051792      0.49028908414729
  O   -5.19827090139652      2.54636928162840      1.55157213657848
  C   -6.04200789324094      3.56520901974602      2.04764941628053
  C   -6.81849751289691      3.01787525369041      3.23213191665409
  H   -7.43009169085996      2.15368366772948      2.92864592593498
  H   -7.48632801258170      3.78937848585302      3.64727797185058
  H   -6.12986163021299      2.68697560744537      4.02538518764698
  N   1.96517109864799     -0.81170956842085     -3.47036819870492
  C   2.00899224245388     -2.15801510848102     -2.91777236616400
  C   1.49876792984452     -3.19437968363968     -3.93031020281247
  H   -2.72723177277502      2.02344691333545      1.61255252043613
  H   -3.52422082007853      0.90048113500795      0.46612222963158
  H   0.43559598343997     -0.66499526846651     -0.45376445082756
  H   1.32837423058372      1.40497564598866      1.03355781071998
  H   -0.13628231362970     -0.77032660435539     -3.37175479316339
  H   0.58631818937334      0.54042365940233     -4.31057903066931
  H   2.02862051985017      3.31553460416567     -0.77860418600375
  H   2.73502770138567     -0.23217160715319     -3.14924991398507
  H   3.05695478493365     -2.37507008753702     -2.65652634593010
  H   1.42477229079038     -2.28371281994838     -1.98230858668627
  N   1.40477866035081     -4.54239988584191     -3.38944276661481
  H   2.13446249617121     -3.13999987741055     -4.84513439267742
  H   0.48656489298552     -2.89013355820713     -4.24605088440900
  C   2.69282655147484     -5.17255375374173     -3.16991696124822
  H   3.26412745534178     -5.34364084013180     -4.11371575672649
  H   2.55523195603886     -6.15109239886668     -2.68182661405979
  H   3.32358281564710     -4.56255057524947     -2.50560229044909
  C   0.51480151630427     -5.39379473900179     -4.15502497180764
  H   -0.48466227415928     -4.93547926402485     -4.22683614938660
  H   0.40150403575319     -6.36987793011116     -3.65510958336634
  H   0.87209905473583     -5.59027914120272     -5.19399933746488
  C   -5.03685750024479      2.85852450393716     -0.86556629988203
  H   -3.94224944717407      3.93327034412755      0.66689088029455
  H   -5.41184481135065      1.84271269907155     -1.06576140582362
  H   -4.35148952562357      3.14216027210985     -1.67974220019681
  H   -5.88738958036698      3.55720194038624     -0.89524293472114
  H   -6.74289586203793      3.91773860568522      1.26358866860414
  H   -5.43703862071738      4.44449715764898      2.35345012515350
