41
Coordinates from ORCA-job 2119_0.0
  C   0.61049276041453      1.17339045793214      0.40873047762396
  C   0.79005419826090      1.01136411736120     -1.16151441410084
  C   2.26466030415810      1.29057996080421     -1.44546917511907
  C   0.76665915099305      2.71380817999096      0.56300985280771
  C   1.03348622106490      3.13601400277446     -0.95564483488473
  C   2.41456830875707      2.61325008747721     -1.31846458466054
  C   -0.81013477245350      0.87627003642433      0.87228130997315
  H   1.32577843083255      0.56527636023190      0.97735608679436
  N   -1.43885309610379      2.07939453567560      1.18487281377865
  C   -0.63417599255335      3.19999358273933      1.00557250068711
  C   1.78969108300209      3.16905202314413      1.49667258386173
  O   -1.33204661474437     -0.21154993389803      0.94375947074676
  O   -0.97835016697146      4.34156973334201      1.16227466088116
  O   0.16398941403937      2.22315867004555     -1.60755650089230
  C   0.16158569541754     -0.22289228146944     -1.77857285159071
  C   -2.82843668243253      2.16477170471584      1.61326005586949
  C   -3.78706111657450      2.25466710590984      0.42945878823518
  O   -5.09829915270106      2.35832339765798      0.98542889520793
  C   -6.13283587456300      2.30217579455058      0.11132768012990
  C   -7.45333205955129      2.44009844099919      0.82609578227222
  H   -7.53716734083561      1.68215753928767      1.62001697779272
  H   -8.27345337242118      2.32944067831816      0.10661812859510
  H   -7.51221444393735      3.42736092945512      1.31117361693319
  O   -5.97799629025808      2.16418778368895     -1.07488277913707
  O   0.73280087187629     -0.41342891762597     -3.06295591031936
  C   0.25578524027635     -1.33322625084717     -3.95338425690943
  O   0.85612796667602     -1.50127577486336     -4.97702977611612
  C   -1.01562003786603     -2.06850637308707     -3.58288165756736
  H   -1.86069500572763     -1.36785452449088     -3.48511224423350
  H   -0.91618659275257     -2.60078875322871     -2.62384401962832
  H   -1.23781699142437     -2.78893941961755     -4.37887224083191
  H   -3.71890171466507      1.36232852309140     -0.21241918514819
  H   -3.56973281547935      3.13764886787937     -0.19370591889186
  H   -2.92924611897966      3.05741472772183      2.24638232645122
  H   -3.05321024159050      1.26869367979713      2.20894887092522
  H   3.01600013112375      0.52791284466697     -1.64685259066329
  H   3.32497844422859      3.20940471054953     -1.37438338623392
  H   0.34926089575602     -1.09492218894424     -1.12892404466797
  H   -0.92790345465200     -0.07381429355594     -1.82980715031956
  H   0.77916498767443      4.17980682724127     -1.17262668818253
  N   2.61133584468675      3.53551340815445      2.22742333053184
