88
Coordinates from ORCA-job 2121_0.0
  C   2.24169746443710      0.56287259758839      0.67138507212516
  C   1.36665473732629     -0.10906884742131     -0.18194743395452
  H   0.46685050645911     -0.57990041485364      0.21972403089626
  C   1.65564528362803     -0.17227088802431     -1.55189505910834
  C   2.80338084886613      0.44078807527224     -2.06247708894273
  H   3.02064363439328      0.38983932136145     -3.13266921925999
  C   3.67778873344575      1.12323258374817     -1.20654880835668
  H   4.57233058128687      1.61169994230491     -1.60263964467294
  C   3.39996389491276      1.17799409004082      0.15984187250344
  H   4.85098688824491     -1.69369021287792      5.20114200488761
  C   4.75913938354620     -0.96623063118657      4.39031874113871
  C   3.49022520175970     -0.64576275824049      3.88670649897682
  H   2.59250522523155     -1.11161007182763      4.29942888784873
  C   3.37924512249176      0.27779308606699      2.84853885976413
  C   4.52967984908415      0.89008128124731      2.31689901593161
  C   5.78967014266115      0.57301863262220      2.82358800401686
  H   6.68297327075361      1.05042955194587      2.41058682133552
  C   5.90270070793603     -0.36167861754209      3.86206706191045
  C   4.23136188027348      1.88595828322323      1.21264497373906
  C   2.06833747231761      0.74659928425826      2.18957875042711
  C   2.03963615126698      2.31999763156548      2.44379446557853
  C   3.31343314275023      2.97349455534905      1.86322730697338
  H   0.97591503234906     -0.70347872049558     -2.22338151303314
  H   6.88919620194294     -0.61647346733826      4.25835846686343
  C   0.87960789061256      3.03673070889875      1.74976843490481
  H   1.93788410857102      2.47430675471122      3.52767048696072
  C   2.81439815707327      3.99494192867438      0.84658546922016
  H   3.89093199243590      3.50994022310029      2.63173643332709
  N   1.41960061053801      3.96206576640104      0.85248669897364
  O   -0.30564599787433      2.87777871827933      1.92090717835044
  O   3.48386019477980      4.71157765713131      0.14150684739120
  C   0.87094701707901      0.11154376550557      2.73146826408821
  C   0.59908806616308      4.79032081168147     -0.01570705358707
  C   0.15991040123660      6.07767730901787      0.67532929567416
  H   -0.28538867890430      4.20654845090976     -0.30849415254235
  H   1.19416301127812      5.02735621892860     -0.90897254676920
  O   -0.64335865744389      6.78979689008439     -0.26845573979888
  H   1.02710194059075      6.69108591874734      0.96879298995391
  H   -0.42822983926211      5.86323130861168      1.58174364457895
  C   -1.15101717990737      7.97787778004103      0.13421445401461
  C   -1.99903036215141      8.63978727833356     -0.96459185335110
  O   -0.93938398429767      8.42678946476936      1.23372763602873
  C   -0.15796872438726     -0.36783890247602      3.16478993973985
  C   -1.43627110114729     -0.78428304925094      3.65346428375082
  C   -1.68325702671158     -2.10399197785070      4.09062267605801
  C   -2.94084941173994     -2.47359266120496      4.57448983460088
  H   -3.11639006665716     -3.49637224830593      4.90362628022028
  C   -3.96684296855114     -1.52640415797418      4.61858863651603
  C   -3.74513224912272     -0.21481444333587      4.18401550869780
  H   -4.55240031564412      0.52089566878060      4.21816207709515
  C   -2.48914676107131      0.15431953466429      3.70795265808548
  H   -2.28882026770384      1.17098802863666      3.36264711465796
  H   5.13545372754380      2.34853808176174      0.79536679644284
  C   -2.51949826644032      9.98659349762933     -0.40308531715658
  C   -3.16273535532594      7.68563448584315     -1.31655817279413
  C   -1.10436600558087      8.85074639705439     -2.20664404728210
  C   -3.39107290574539     10.82107493473064     -1.34473463375624
  H   -1.64911831876945     10.58347977669551     -0.08407450361446
  H   -3.07869474255451      9.77672559421953      0.52366815186899
  H   -2.85645079954183     11.11554227590383     -2.26221773419434
  H   -3.70557243136876     11.75002352899938     -0.84259379779652
  H   -4.30883759324678     10.29194904552587     -1.64836893244500
  H   -3.81772496763820      7.51665450916230     -0.44610531740172
  H   -2.78352413594840      6.71070566855246     -1.65500047476914
  H   -3.77753896509102      8.10935011374953     -2.12531824599422
  H   -0.26448842564708      9.52946429607230     -1.98411317851479
  H   -1.68628975044269      9.29196416567607     -3.03023293606147
  H   -0.68883181809990      7.89593216791004     -2.55943562486800
  H   -4.94933029290071     -1.82155315522138      4.99598949254722
  O   -0.60308813094866     -2.96840649357219      4.06867874331162
  C   -0.70259740076439     -4.26778601266509      3.64249401432165
  C   0.66742865246845     -4.96197157969395      3.67801942844638
  C   0.42642396152206     -6.47023954869549      3.41121584321396
  O   -1.73418034387677     -4.76008654900811      3.27296873347045
  C   1.67449911518810     -7.35444084840628      3.36001704935452
  H   -0.13016409866106     -6.56485962386202      2.46522676371607
  H   -0.25790186884367     -6.85016716583535      4.18899709136300
  H   2.36395175531185     -7.05968660888294      2.55271693796313
  H   1.38632863342969     -8.40113938944910      3.17218686694323
  H   2.24063380599052     -7.34007377442107      4.30525899039752
  C   1.32745715896747     -4.73101557407164      5.05400489460021
  H   0.72186186104506     -5.16300584317268      5.86777185472045
  H   1.45722948723187     -3.65899349752867      5.25758086778549
  H   2.32009370786479     -5.20514762308769      5.08441693975340
  C   1.53359918433390     -4.32347196693551      2.56554086752294
  H   1.09426095085134     -4.49976652064140      1.57032139028264
  H   2.54575656594659     -4.75574771612875      2.57151825285308
  H   1.62926689459557     -3.23776608050341      2.71037538134099
