88
Coordinates from ORCA-job 2122_0.0
  C   2.53204713156397      0.97307553089580     -0.31796189879281
  C   1.74610928011499      0.43705385582445     -1.33763364632243
  H   0.88710370053369     -0.19064834751799     -1.09114375006961
  C   2.07286627226908      0.71021117581241     -2.67285501734556
  C   3.16999710475935      1.51929862976948     -2.98204075000126
  H   3.41802756126495      1.72855108433257     -4.02599712021480
  C   3.95406435997257      2.06539003295278     -1.95726981833815
  H   4.80797034881907      2.70611336572078     -2.19389061908411
  C   3.63807003468324      1.78768436351389     -0.62688952006660
  H   5.25708983560624     -2.04074027203349      3.65933335267284
  C   5.11119225234873     -1.15095826623056      3.04119498983911
  C   3.82700957886703     -0.83392253120897      2.57618230807996
  H   2.97322228087794     -1.46674482940032      2.82779326901207
  C   3.64643190607247      0.29722489672717      1.78202732284552
  C   4.74316049158223      1.11608502044879      1.45392169251550
  C   6.01845218450655      0.80067275860383      1.92193809573061
  H   6.86967773770286      1.43805233204317      1.66564761754922
  C   6.20132798573277     -0.33942388725708      2.71663491025017
  C   4.37308820689436      2.30884817440550      0.59360193810118
  C   2.30937027512237      0.78837710314194      1.19353512422909
  C   2.12203275565626      2.25277117613811      1.79224365936045
  C   3.34001406573869      3.13227609998191      1.43191967836102
  H   1.46383644010165      0.28638796863360     -3.47569253759967
  H   7.20034790246406     -0.59367961896313      3.08064449043975
  C   0.91388517737230      3.00236234750026      1.22457653360008
  H   1.98010978698522      2.14704506382431      2.87749705101183
  C   2.76790353652739      4.31223227757483      0.65261671543232
  H   3.84588472694745      3.52676790442659      2.32653076072532
  N   1.38342995918683      4.15552068631524      0.58801010699347
  O   -0.25334905534861      2.70109286681681      1.29786109452082
  O   3.37917174358414      5.23036488386047      0.15969744752912
  C   1.17190475875702     -0.06242628494922      1.52993158910853
  C   0.51039982267039      5.09188927328320     -0.10056768246250
  C   0.01717159697440      6.19361434490026      0.83223095263525
  H   -0.34460835904592      4.52729356462253     -0.49860657188315
  H   1.07891601336042      5.53276102597119     -0.93182026560022
  O   -0.81746779825454      7.05051605366335      0.04873362706315
  H   0.85873988627514      6.77026541864344      1.24840241574673
  H   -0.55872035691135      5.77702300385853      1.67385719010073
  C   -1.36703080327334      8.11056764589900      0.68574833180007
  C   -2.24194603430605      8.95655923576682     -0.25410711398649
  O   -1.16995018809889      8.32810609217936      1.85587087005378
  C   0.19989939787661     -0.73127963741127      1.81899434374333
  C   -1.00080079950184     -1.43642320172601      2.15774318173251
  C   -0.98414385488007     -2.83693760668774      2.33096239707405
  C   -2.17375235410074     -3.49322305856244      2.66084313875454
  C   -3.36773015136000     -2.77572512238333      2.81974614589287
  C   -3.37399251237281     -1.39157527843243      2.64667617669108
  H   -4.30742357846454     -0.83664898231373      2.77075910717981
  C   -2.19986216056396     -0.71370139098131      2.31659166803951
  H   -2.18899605317435      0.36903242904479      2.17667267569378
  H   5.23676316075058      2.93348511243092      0.33039699489036
  C   -2.78751743401881     10.15026335673099      0.56957983857464
  C   -3.38589180408573      8.06060250461544     -0.78113390967755
  C   -1.36814421875672      9.43503081053398     -1.43543590727160
  C   -3.69961857283985     11.12815551268309     -0.17471343906998
  H   -1.92641572197665     10.69803365767263      0.98680394464596
  H   -3.32104440248823      9.74486851892317      1.44487397087925
  H   -3.19479695288340     11.61115090878869     -1.02701353084329
  H   -4.02308563163332     11.93223433881109      0.50565046508949
  H   -4.61218536466619     10.64379350582530     -0.55795833654760
  H   -4.03145327171500      7.71207792779799      0.04168611644258
  H   -2.98698668838079      7.17770258592492     -1.30098285013353
  H   -4.01519687813439      8.61671950898893     -1.49287643253786
  H   -0.54397003154722     10.07959831548068     -1.08802779777273
  H   -1.97163217375081     10.01432608183790     -2.15098794216351
  H   -0.93156085394360      8.58171761138412     -1.97384228535542
  H   -4.27820605750028     -3.32144983776528      3.07561706684200
  H   -3.30643325328751     -8.49985232870387      2.04771250616086
  H   -0.13943361424291     -8.05658167887585      2.15622345838886
  H   -1.69052889279189    -10.05158622113201      2.49464954999016
  C   -2.86099824189005     -7.50083084365008      1.92516802810491
  H   -2.34012652307816     -7.47965986369327      0.95377517326070
  C   -1.03774455981727     -9.66266888095481      3.29261422909370
  H   -0.11617244376615    -10.26626994121827      3.27756471948525
  C   -0.69474177157844     -8.18354102283997      3.10011329252316
  H   -3.68011701672941     -6.76839862988429      1.89063710166451
  C   -1.89050552905266     -7.19731854938804      3.08862981699179
  H   -3.10722378015140     -8.21340686681820      4.59676265371611
  H   0.00394320623527     -7.86372207537845      3.89046909283921
  H   -1.53508274400250     -9.85790674632117      4.25630698888175
  C   -2.65595232931283     -7.22326878741062      4.43101513752724
  O   -2.31493962837989     -4.86182374083985      2.83833665250767
  C   -1.31408682857816     -5.78420751236451      2.88582870814851
  O   -0.14486459821096     -5.51683051203099      2.78319847395314
  H   -3.46476825206471     -6.47858103172250      4.43986179962570
  H   -1.98346080338933     -7.01146519561920      5.27835684530332
  H   -0.05948153845611     -3.39361936285688      2.21397414750036
