83
Coordinates from ORCA-job 2124_0.0
  C   2.48963192645732      0.37637284330974     -0.15171181464342
  C   1.98862941903358     -0.91126639655224      0.04516946132970
  H   1.32383348913967     -1.11480335326833      0.88940092278802
  C   2.32652772116692     -1.92919965764509     -0.85474605972220
  C   3.15891271892412     -1.64965541848549     -1.94156054619753
  H   3.42334548516122     -2.44131843299367     -2.64732389897801
  C   3.68373067313953     -0.36259510031223     -2.12561961804974
  H   4.36161578868415     -0.18380192494480     -2.96011908942952
  C   3.36364652930785      0.65320199715464     -1.22067280234963
  H   5.49968196605440      2.85691296332673      3.89423004371853
  C   5.20607867027947      2.71757467418958      2.85040672023415
  C   3.92230137351419      2.24906936906223      2.54309077620988
  C   3.55757474449739      2.06348391959486      1.20931743474830
  C   4.47001812368851      2.34555085223475      0.17249745493963
  C   5.74223994813137      2.83118982091974      0.48348390363790
  H   6.45781516892216      3.06372882649305     -0.30609149158159
  C   6.10801015929659      3.01175516204633      1.82443773364530
  C   3.89048696045088      2.09887196395634     -1.22870776871619
  C   2.20080164185371      1.57839569993510      0.71984693679355
  C   1.60250101741720      2.74628641876049     -0.16711172203738
  C   2.60860903815505      3.03543948659172     -1.32661297432297
  H   1.93783002420288     -2.94032270052367     -0.70723069376621
  H   7.10704153983602      3.38461541591394      2.06558891549904
  C   1.67255396615926      4.02600912982781      0.70099863466831
  C   2.95402795440451      4.51582320078480     -1.19074922475814
  N   2.41815646375379      4.99470568525342      0.01450084622815
  O   1.16850394705800      4.17328796524975      1.78531553405477
  O   3.59324775550446      5.18315031736673     -1.96946700074894
  C   4.82804428237811      2.41604164509741     -2.39264039267918
  O   5.98877840751522      1.56663011676773     -2.33306639943558
  C   6.89665475528385      1.73013052917170     -3.30983061880393
  C   8.05215095250877      0.71873406374644     -3.21276954702394
  C   9.24260521545130      1.22365164250799     -4.03704161954037
  H   3.20404975812001      2.03713791933649      3.33942464125125
  C   2.62074662606469      6.32621097589313      0.50088752517839
  C   2.99871519028345      6.53834034326915      1.83455362206860
  C   3.17609072375107      7.83842585609579      2.30134827505651
  C   2.99549092488369      8.95641746842369      1.46686572818284
  C   2.62696259235261      8.71969847781214      0.13526820536654
  C   2.43626676557202      7.42143588047047     -0.34789825601396
  C   3.20776018213333     10.34914735280892      2.03539288814865
  C   2.93014099290668     11.52356286271167      1.09831093560914
  H   4.24850409139071     10.41564899292810      2.40275971869878
  H   2.57964499691739     10.44921827942398      2.93921265092499
  H   3.58620269773722     11.50731646731289      0.21275506869417
  H   3.10276247895828     12.47888714832056      1.61844876917323
  H   1.88693340757719     11.52424030454429      0.74226343076255
  H   3.46575375370695      7.99063689054037      3.34577023964957
  H   3.14401682656101      5.68866952556425      2.50123853953460
  H   2.47826416103196      9.55550761242011     -0.55072811751335
  H   2.15455484910162      7.26390308628189     -1.38913028600754
  H   4.31613722542364      2.24911302925434     -3.35396642511857
  H   5.14240336585541      3.46739367974324     -2.38238908445189
  O   6.81247411969136      2.57721817804428     -4.16287954477997
  H   1.50450108083173      1.36759397908485      1.54077522107507
  H   2.14804385901221      2.88331429980925     -2.31379307012097
  N   0.19752721351167      2.54295091247441     -0.55392881974274
  C   -0.56955709330595      3.75317383483356     -0.88122068020714
  C   -2.07628821656552      3.47293330912404     -0.87409332980555
  H   -0.27958524070352      4.15749773157984     -1.88035837342827
  H   -0.36921187276936      4.53967085886244     -0.14295121974386
  C   -0.07927096414821      1.49824811305309     -1.54462120512760
  C   -1.56278008587163      1.11647597103637     -1.54608817456733
  H   0.52168940449426      0.61127359579569     -1.33132896214952
  H   0.20025351156376      1.83311504739970     -2.57199735832651
  C   -2.44548211128334      2.33424168879251     -1.82722080414157
  H   -1.81660540864441      0.68908445470752     -0.56024707878957
  H   -1.72988124060994      0.32577787369726     -2.29712878866831
  H   -3.51467165489961      2.07831973419797     -1.73749623280284
  H   -2.28770531234405      2.66436293129129     -2.87105204227510
  H   -2.61418857546967      4.39893005044436     -1.13941918985620
  H   -2.37148122950013      3.20881965307429      0.15614918384831
  C   8.39349767313973      0.32940218600003     -1.77977935353683
  H   8.80409732557063      1.20945418037184     -1.25362827762215
  H   9.15083315012251     -0.46601811874320     -1.76157139684813
  H   7.50572314611976     -0.01298365995359     -1.23497569896374
  C   10.45923264422032      0.30372787121777     -4.11962723766323
  H   9.53620707510176      2.18829281062707     -3.58187754101801
  H   8.87828717485378      1.47513554386302     -5.04324219930575
  H   10.92384675224945      0.13033394807567     -3.13608676592289
  H   11.22545567509794      0.75719214760076     -4.76769725283735
  H   10.19462025271708     -0.67512615685304     -4.54865999754171
  Br  7.28117951015669     -0.92647584720239     -4.12699391403575
