54
Coordinates from ORCA-job 2129_0.0
  C   1.95719403334560      0.27117625287567     -0.20153431042953
  C   1.33832336860448     -0.98566442809470     -0.24012546484824
  H   0.68277911600121     -1.29920500052257      0.57289043070876
  C   1.54279991448191     -1.85962813228165     -1.31300253181934
  C   2.36994317199375     -1.47961039510212     -2.36905598077786
  H   2.53633567930804     -2.15459050094428     -3.21283556091652
  C   2.98330783610834     -0.22311203695608     -2.35033554009464
  H   3.61970731258839      0.06672261202568     -3.18748839291674
  C   2.78845526811778      0.65846672449320     -1.27906894271549
  C   3.41141169464578      2.04623965918119     -1.22459041379716
  C   1.77135442056275      1.27041785267486      0.93712271270518
  C   1.39107013606941      2.64875587633852      0.31090144162793
  C   2.27869161147685      3.06434779201276     -0.88968266720465
  H   1.05122635514003     -2.83613711177273     -1.31902796369488
  C   1.49241266528016      3.81471745894274      1.29781940818209
  C   2.80957243219249      4.45099919784325     -0.53209094536050
  N   2.32017352879773      4.79694103015745      0.73998706566945
  O   0.96137234768362      3.91342526230008      2.37983273686416
  O   3.52622210095821      5.16028277701360     -1.19488712621049
  C   4.20337345087647      2.43935745372650     -2.47429964258740
  C   2.62082439849032      6.04015086095579      1.37353596691424
  C   1.58429966177715      6.91252799804492      1.75148116697228
  C   1.88324662628086      8.13253377252695      2.36567054535768
  C   3.21589784813953      8.48595691693472      2.58665798243957
  H   3.56217716691003      2.43067646638830     -3.37134650716849
  H   4.61494837479115      3.45106421581077     -2.37135894866520
  H   1.67097106143557      3.18600035096308     -1.80174901928010
  H   1.07284854405416      8.79450246684313      2.66624768899938
  C   4.25128562430714      7.63075629688909      2.19879232652401
  H   3.44335702823544      9.44205482625854      3.06480200846221
  C   3.95226512098468      6.41026973926951      1.59335464189659
  H   5.29323747502347      7.91204869904038      2.36819068114511
  H   4.74952210977031      5.73419466605885      1.28154072583280
  O   0.29978469846915      6.52847084323196      1.42900488572317
  C   -0.72124570226514      6.58581925257662      2.35081826041828
  C   -1.93770989404273      5.88683329617234      1.80691980937400
  H   -2.07806328963540      6.11072219981154      0.73974969739440
  H   -2.82121172490473      6.17866222297769      2.38799966220530
  H   -1.77946455722862      4.80083353293757      1.90883027853975
  O   -0.62261006263736      7.10972802702678      3.42342005470113
  H   0.33312998161396      2.58847436182919      0.00423395867305
  H   5.03657787783646      1.74062227517159     -2.64546196786558
  C   0.79868544018925      0.83440267963404      2.04916764502949
  H   2.76367714337786      1.40900552860838      1.40972717687252
  C   1.39124908162289     -0.15834631107709      3.05965282461868
  H   -0.11676129685115      0.41543013686404      1.59327339039920
  H   0.47832074651846      1.72946239309640      2.60044402126883
  C   0.38122967049091     -0.60122001185029      4.12008160382194
  H   2.25610595231229      0.31993524361337      3.55448110565315
  H   1.79813666599713     -1.04502084237680      2.54358692819587
  H   -0.02069916574318      0.26331490850428      4.67485816597483
  H   0.83754965573341     -1.28561536010436      4.85330691281952
  H   -0.47611571185008     -1.12652379966391      3.66507124997585
  H   4.11149700656366      2.05824980312108     -0.36615323560763
