55
Coordinates from ORCA-job 2133_0.0
  C   1.55490519444635     -1.38053032467791      0.49907578777836
  C   0.72374017907669     -2.48976175717502      0.35124846716374
  H   0.46023596675373     -3.08360617032835      1.22602251603356
  C   0.22300210712661     -2.85683325971235     -0.91366635009775
  C   0.58274635005753     -2.05599276765179     -2.01935639486178
  H   0.17753056248389     -2.29102044339964     -3.00696654080725
  C   1.41497105997296     -0.95152808331224     -1.87127892095556
  H   1.68579165229476     -0.32980139694126     -2.72728816743499
  C   1.91605550867815     -0.59322827708981     -0.60824053138523
  H   1.92580931799817     -1.13463117555978      1.49649765643583
  C   2.80116892307188      0.61550403481427     -0.51063966727348
  C   3.34908919587880      1.00989606087706      0.85058181499596
  H   2.53196874371731      1.23665086088634      1.55516563133755
  H   3.98277262551048      1.89805975505624      0.73066329087152
  H   3.94258090365494      0.19237826426726      1.29165662887883
  O   3.07416218658585      1.26681151796928     -1.50160933573823
  C   -0.62520548122604     -4.05879154313701     -1.11017087731203
  C   -0.43337450025311     -4.86799438239814     -2.20201906834203
  C   -1.70584088967514     -4.44132356997667     -0.21664535626488
  C   -2.48272557880715     -5.56147228065139     -0.44288794538365
  C   -2.28947028877557     -6.36923090182655     -1.63570141997003
  N   -1.21419215110655     -5.95282312608323     -2.44140732069408
  H   0.36765860635659     -4.68185113023564     -2.91979754938397
  O   -1.91143760658036     -3.60713907217427      0.81961925670073
  C   -3.03894278567582     -3.77105345865168      1.72409516743709
  C   -4.18230717321540     -4.55366122449748      1.05192498573799
  C   -3.42398869135176     -2.38449899048833      2.15181290177993
  C   -3.64280074235867     -5.88238384218483      0.46755367119571
  C   -5.38666073771526     -4.78818624604276      1.98180130513236
  H   -4.52408691861640     -3.93421008742706      0.20318746667279
  C   -5.11874523994121     -5.84348056815120      3.06116437158085
  H   -6.22699883944279     -5.13095001186791      1.35253828015256
  H   -5.70814516299662     -3.83767797661308      2.43806745314879
  C   -4.59122522838886     -7.14469043866969      2.44948222586376
  H   -6.04421810297713     -6.03458101160875      3.63055605598372
  H   -4.38717996352677     -5.45992404580397      3.79570728315976
  C   -3.33752532278071     -6.93007981004980      1.58221445196221
  H   -5.37904032182641     -7.60445613328733      1.82304780764787
  H   -4.36661972720159     -7.87554353791714      3.24564886487928
  H   -4.42848071209335     -6.32416976342749     -0.17004857360768
  C   -2.81016083941268     -8.26246569667198      1.04021580833161
  H   -2.54870108021601     -6.50864626673174      2.23540298588800
  H   -3.51419672098284     -8.71288837350972      0.32410187204526
  H   -2.65117165417868     -8.97301040196793      1.86869019834057
  H   -1.85043042658120     -8.14083959322515      0.51645209663033
  C   -3.33030969894478     -1.92393070933246      3.40486450461947
  C   -3.71510657087961     -0.54808866895869      3.85892115869208
  H   -4.09503658235251      0.06687476792287      3.02852072607207
  H   -2.85219075408895     -0.02487564391837      4.30775859597331
  H   -4.49371374537795     -0.58970487094788      4.64110166552650
  H   -3.79871264959504     -1.73223042363372      1.35211063821257
  H   -2.94038084481960     -2.59854650038931      4.17989759369861
  H   -1.05639241976326     -6.52816091794439     -3.26391661712481
  O   -2.96502542002891     -7.33340052780457     -1.97824566742766
  H   -2.65937750990988     -4.32774985773757      2.59696511750389
