54
Coordinates from ORCA-job 2134_0.0
  O   2.22703498006124      1.02681437734884      0.78077668532090
  O   3.37596840800288      1.89231515101802      0.55035062321106
  H   4.65715997992612     -1.79936405734241      5.08054202638662
  C   4.55090909259769     -0.96275860576057      4.38509415736285
  C   3.30164446308025     -0.70318366723114      3.80235427910568
  H   2.44945746115941     -1.33134176281178      4.06362824156221
  C   3.15758123613492      0.36609810763195      2.91738961578027
  C   4.25747230645253      1.21410723084510      2.66584208328407
  C   5.50349796318570      0.94060174325377      3.22809264390822
  H   6.36451887188223      1.58144361969060      3.02699892410500
  C   5.65041007655494     -0.15874254208841      4.08570055977772
  C   3.88314861989316      2.41586054852696      1.79868387098724
  C   1.89248790184717      0.85796185865063      2.20330567649796
  C   1.65082478870495      2.25772803767545      2.78058914037722
  C   2.73620724322014      3.12047232585304      2.51823891321378
  H   6.62421578091060     -0.36982815394098      4.53495298230343
  C   0.71004753943969     -0.09365880860066      2.04678083021236
  C   0.91012244468577     -1.48258167303876      1.93745705996396
  C   -0.15314612864899     -2.34274298292967      1.67614855001551
  H   0.00196477534383     -3.42098764283257      1.60116824249994
  C   -1.45149561156779     -1.84460540403065      1.48164883988853
  C   -1.64532216352438     -0.45558743114181      1.52660032949601
  H   -2.63120779156419     -0.02551841778534      1.33871754847799
  C   -0.57868095500844      0.40460591500329      1.79279464473954
  H   -0.75223853641771      1.47949809438645      1.77130717138357
  C   -3.95867268850308     -2.29243870093555      0.95653583873740
  C   -2.55948691457787     -2.82618695171673      1.20536461434045
  H   1.91291527329952     -1.89757896410208      2.02844883097476
  C   0.58968225798117      2.70300452881423      3.57069847695023
  C   0.58349886119090      4.02083115075533      4.04957166029214
  C   1.63252369291826      4.88779425458219      3.74200312337293
  C   2.71748775745093      4.43632677381885      2.97832467251737
  H   -0.22600978227113      2.03093947281131      3.83973700565612
  H   -0.24679630241802      4.36426341458732      4.67222529406683
  H   1.62028264821837      5.91655626442538      4.11140173549629
  H   3.54356522498107      5.11283321426741      2.75553122244220
  C   5.07604943833926      3.27052348601764      1.40176929605877
  O   4.63602719068714      4.34792485385888      0.58223929071846
  H   5.80314878004502      2.65497513518130      0.85102659291904
  H   5.58127395609221      3.66115733690337      2.29958482342486
  C   5.60687222995459      5.13379215662493      0.05528125438786
  C   5.01965824421036      6.19396537991577     -0.79601677023810
  C   5.80128720054195      7.09479894284948     -1.41161550481585
  O   6.78335663051629      4.96082913799539      0.27973783989656
  H   3.93076730490696      6.19929784568919     -0.89843927274014
  C   5.32377743651427      8.20097775442351     -2.29440594833373
  H   6.88345884603211      7.00605696340643     -1.25176981988169
  H   4.22826401056449      8.20949861742309     -2.39741085709739
  H   5.76966274024672      8.11469559600374     -3.30123790866828
  H   5.64665610830546      9.18105392015826     -1.90015408922105
  H   -4.63203315891305     -3.13980032291584      0.77427965687450
  H   -3.97428522204047     -1.61785141649949      0.08477449997846
  H   -4.32232513866195     -1.71525115786965      1.82255609010143
  O   -2.33317937196332     -4.02020454682304      1.18214471192781
