55
Coordinates from ORCA-job 2135_0.0
  C   -0.77861455275968      1.76040101987856     -1.97450450611314
  C   -0.20632280723633      0.70809974389075     -0.92979024438572
  C   1.17140276995418      0.30320681264417     -1.47122413302685
  C   0.13373669675605      2.98941512653221     -1.69638207745593
  C   1.10334295232049      2.42298140468850     -0.57265832498339
  C   1.96717364428109      1.35993513577530     -1.26872700243435
  C   -2.28566080707427      2.07019804264373     -1.81521494379706
  C   -0.71928248289936      4.20661374284296     -1.27043393730997
  H   0.72798511044315      3.25005446718279     -2.58591492817868
  N   0.12447516261368      1.60736563894035      0.18702032832385
  H   1.40302590959073     -0.60439287768698     -2.03056056374758
  H   2.99000134722179      1.51361746593740     -1.61558754319973
  C   1.84872793978229      3.50316449177642      0.19490315941783
  C   0.56579558421426      0.94064334296702      1.40356665205588
  H   -0.26504593499120      0.32726297054640      1.78830671796406
  H   0.81569137023186      1.68636168447094      2.17163801213989
  H   1.44765061471661      0.28313520902739      1.26691027868715
  C   -2.66159298830933      2.65775434197556     -0.46320278363109
  C   -1.79294698304206      3.92525612868331     -0.19288835715565
  H   -2.50514930301719      1.91079614907807      0.32835275807670
  H   -3.73180704520424      2.92259039358219     -0.45730846865504
  H   -1.30603578498511      3.81592341902327      0.78591509918905
  H   -2.43955816718180      4.81601851307802     -0.12156791897966
  H   -1.21041893530781      4.59699970433417     -2.17716402864175
  H   -0.06643759132225      5.02856819348860     -0.93293708969960
  O   2.81665299918619      2.96073926259843      1.10876238942339
  H   1.15836802787257      4.09362101304205      0.81215878088247
  H   2.36317673758661      4.16362353992007     -0.51824042070090
  C   4.12303203394452      2.99089693068820      0.75831971038595
  C   4.98863290296152      2.46183544034928      1.87575410427796
  H   4.96915455087644      3.17568782286907      2.71589031775253
  H   6.02042291729945      2.34930243144835      1.52140195059540
  H   4.59768615663183      1.50491902105335      2.25136375029580
  O   4.52532062368935      3.41044479389084     -0.29833262527763
  N   -2.90136781718348      0.81675913354176     -2.25518012374727
  H   -2.50226617632701      2.86924558761896     -2.56471553841553
  C   -0.82335159899651      1.12152318917295     -3.35963472172357
  C   -2.20717479838089      0.45856411757526     -3.48808051384974
  H   -2.11147671312145     -0.63388184052274     -3.62409784619815
  H   -2.66923462598651      0.86071916292727     -4.41639057605013
  C   -4.34393200047777      0.66988670663908     -2.22423062320411
  C   -5.13973251709211      1.66028105141154     -3.08187019226984
  H   -4.69508890509680      0.76053755871310     -1.18287286559411
  H   -4.58997223960533     -0.35707393086115     -2.54421893961851
  O   -6.52449283465076      1.32846748161730     -2.92365432824204
  H   -4.87174777079838      1.60500296076540     -4.15039787217407
  H   -4.97261912742353      2.70266182014332     -2.76581290747042
  C   -7.42391220441773      2.17939435908412     -3.46568742686764
  C   -8.83538439422940      1.70552043986325     -3.21806303819796
  H   -8.95627133867366      0.66684510688773     -3.56163629065267
  H   -9.54049474162987      2.36424682248472     -3.73918010877664
  H   -9.04562693496947      1.71626204956428     -2.13661559136653
  O   -7.11033670522143      3.17837295879904     -4.06294844825582
  O   0.02257478498019      1.13524078610978     -4.21743023782482
  H   -0.91507400954201     -0.08935604269593     -0.67458592159448
