51
Coordinates from ORCA-job 2136-2_0.0
  C   -0.49675984728525      1.89061648571178     -2.19286993118869
  C   0.44265464706714      0.58331927095446     -1.92223525184921
  C   0.43769754122650      0.25637783265405     -0.43060233063335
  C   0.32356602852575      2.97433824317536     -1.45373451764867
  C   1.57805425164236      2.14185251327928     -0.98781760232148
  C   1.17019585525794      1.21496403165904      0.14893390659218
  C   -1.98773360971955      1.89260632487109     -1.81192734163387
  C   -0.50800744243007      3.69355048413842     -0.36987607867244
  H   0.69118958200821      3.71249770164569     -2.18366824424523
  O   1.70784710834154      1.22635241717077     -2.07478063075818
  H   -0.09726579710318     -0.57960756920509      0.01806450861307
  H   1.37794510080537      1.36470145980428      1.20920332840702
  C   -2.27392119449999      1.73990168762651     -0.32590090283508
  C   -1.46993977905107      2.81422215733447      0.47407271453351
  H   -2.01816120380660      0.72481385528682      0.01102239620612
  H   -3.35289809178052      1.86619565386060     -0.14107401155415
  H   -0.90761312766963      2.31225897557407      1.27342649760278
  H   -2.17054443340247      3.49316080147323      0.98677718779912
  H   -1.09929243724982      4.47610431508175     -0.87339466889548
  H   0.16769164994476      4.23873469843113      0.31227448676509
  N   -2.55603659404030      0.94648579907401     -2.77431324812355
  H   -2.33846083998296      2.92340568654802     -2.06636095727457
  C   -0.65184286774218      2.01183775886509     -3.71049853358452
  C   -1.99840524063871      1.34967237426523     -4.06327399509951
  H   -1.85615632455629      0.49973635228651     -4.75332600956537
  H   -2.59809802204456      2.11184879185268     -4.60657131465443
  C   -3.96737236525889      0.61847922477126     -2.71936986300506
  C   -4.94433043916557      1.78129233376954     -2.92524767155674
  H   -4.18792855506533      0.14729050874888     -1.74739451762293
  H   -4.17427296522694     -0.14894964895535     -3.48449008874208
  O   -6.26146623063713      1.21859907636680     -2.88444535423618
  H   -4.79662080427712      2.29195889923765     -3.89111116653193
  H   -4.85107448071199      2.54938915800199     -2.13962786006041
  C   -7.29593522425116      2.07785572247920     -3.01898288361342
  C   -8.61733032052723      1.35139531849341     -2.95284043724943
  H   -8.64830925010361      0.55003934929459     -3.70698044266307
  H   -9.43613366648504      2.06167686347433     -3.11928873436034
  H   -8.73101907368593      0.87363202699009     -1.96678622571804
  O   -7.15005963284180      3.26540012524224     -3.16541120519259
  O   0.08282876679779      2.55316833997676     -4.49542940522836
  O   -0.32595796693323     -2.78976138558386     -1.41018552322033
  C   0.79440692649258     -2.68510450654623     -1.84938938558161
  H   2.71598165173050     -3.22407716676735     -1.06921511522079
  C   0.28790449850225     -0.58808021966475     -2.87589307820605
  C   1.90605259017930     -3.68628354198338     -1.65563165384993
  H   1.52117469971453     -4.56902401985608     -1.13083538661988
  O   1.22176926440481     -1.63425252011564     -2.57982642585429
  H   2.33326315396918     -3.97294019694508     -2.62850505167028
  H   2.49454635614916      2.73167483203732     -0.85666909262619
  H   0.52753018714076     -0.27004779338036     -3.89958686820667
  H   -0.73985203172625     -0.96901888250526     -2.81761601914440
