53
Coordinates from ORCA-job 2137-2_0.0
  C   -0.53069655562533      1.67425443776397     -2.24518628707386
  C   0.31245539458647      0.31342776321850     -1.95486843032560
  C   0.33625465700808      0.06027398805554     -0.45083280841796
  C   0.33354352700025      2.75205675591381     -1.52239683364522
  C   1.57004911726159      1.93433517172456     -0.99381594264738
  C   1.10304991767808      1.00528782084447      0.11473232534144
  C   -2.02147006492185      1.77028679864897     -1.85654384227524
  C   -0.48188452815042      3.53309086722380     -0.46625822438159
  H   0.71270074929271      3.47011583011328     -2.26814564202557
  C   1.73485131547767      0.91634455604338     -2.13874033198175
  H   -0.22270455808539     -0.73694094131764      0.04127378288062
  H   1.29749871155261      1.14408057800226      1.18036210805891
  C   -2.31353713905174      1.65254926380147     -0.36923883824223
  C   -1.46702653275111      2.71086853227103      0.40597426708821
  H   -2.09581996889036      0.63469610099342     -0.01527932717450
  H   -3.38662234706262      1.82520332813794     -0.18698087820412
  H   -0.91671331515818      2.20576927863797      1.21131286729121
  H   -2.13944390200000      3.42595208667403      0.90776315714098
  H   -1.05085509181099      4.31772749342751     -0.99223333120888
  H   0.21393871284350      4.07646591804030      0.19622528842782
  N   -2.66284880320248      0.86201293806808     -2.80820787150693
  H   -2.30587473988201      2.81905696177373     -2.11985939196772
  C   -0.69524218397594      1.77208259622160     -3.76558898609341
  C   -2.09780475304011      1.23507547782588     -4.10010441652426
  H   -2.04389397876787      0.39098923908941     -4.80937861070092
  H   -2.63756169140075      2.05881076710979     -4.61830239477597
  C   -4.09252546576357      0.63045430113983     -2.73649713664074
  C   -4.99266756775820      1.85461033014058     -2.93685208236556
  H   -4.33336219136150      0.18014300054027     -1.75960161868445
  H   -4.35980626943462     -0.12451731172638     -3.49534569903085
  O   -6.34356358950813      1.38239729809686     -2.85929047241719
  H   -4.83404017310035      2.34241685494499     -3.91274335678721
  H   -4.83039766146537      2.62451220830559     -2.16448650155952
  C   -7.32083864599144      2.30729150544202     -2.98466994402938
  C   -8.68591153158700      1.67170114585897     -2.88052879342409
  H   -8.79502139730703      0.88323547597513     -3.64128398931117
  H   -9.45945680462578      2.43723395940122     -3.01547121830162
  H   -8.80036621121202      1.19041412282148     -1.89646256407821
  O   -7.09965668444347      3.48018291766762     -3.15382838324481
  O   0.09078527117313      2.19943486708508     -4.57529012487606
  H   1.89188457541303      1.37709236966444     -3.12549057394289
  H   2.51614389371274      0.16837736633036     -1.94182895995291
  O   -0.63354102416934     -3.06205122314037     -1.25160196421302
  C   0.45938064014368     -2.99970474575546     -1.76047123687189
  C   -0.04457320297741     -0.90190359561388     -2.80555156941862
  H   1.16256320289609     -4.90185768204017     -1.06634880598140
  C   1.55436397694130     -4.02604374574308     -1.59782236569355
  H   1.95675062536884     -4.31763633189566     -2.57944797780037
  O   0.87067794807173     -1.98356886613239     -2.54856962906289
  H   2.38437708327957     -3.58547910767035     -1.02238835842583
  H   2.43525826467967      2.57005615801872     -0.75739314252978
  H   -1.07135988005847     -1.23119073874665     -2.60515332125062
  H   0.07138087016016     -0.68260414127589     -3.87678161716134
