66
Coordinates from ORCA-job 2138_0.0
  C   1.74675862141909      0.91526224840151      0.06104036088253
  C   2.56043497265766      1.00486412955605     -0.99804445870125
  C   3.98511424809928      4.53105635792393      2.19239114289029
  C   2.80820785721250      3.73659702248599      2.06668679607939
  C   2.52390294491206      3.08529305967806      0.88941326564487
  C   3.39705505698499      3.19301078280744     -0.23795601169238
  C   4.52785656030264      3.97500620532462     -0.15030003698044
  H   5.20100057771886      4.09454355972187     -1.00234581682338
  C   4.85746588960279      4.65567379630536      1.05985987073275
  C   2.89606039700769      2.41764939116617     -1.45965775199806
  C   1.29598728665130      2.24794753199016      0.60804710470612
  C   0.51143873856904      2.97334605980991     -0.57240523221828
  C   1.45938849519854      3.07757642863048     -1.81987904298579
  C   3.83042957460722      2.44459533605159     -2.67916945203199
  O   5.88928905230651      1.87144437580355     -3.72336313609002
  C   7.02062918086657      1.14974904386072     -3.86862475767369
  C   7.74207498733273      1.52117092522837     -5.14230235993289
  H   2.13105781064727      3.65358494515118      2.92252157162443
  O   7.38322605094414      0.32030792318430     -3.07199513705471
  H   0.64745626451302      2.15648114567120      1.49075307569318
  H   1.39405872327432     -0.02933109981304      0.48321594971951
  H   2.93504405285400      0.13269692444264     -1.53944098599703
  C   4.32183148435624      5.20866284685144      3.39680611331977
  C   5.46581950584065      5.97663757913807      3.48271370771444
  C   6.32704926315504      6.10154933160945      2.36383110338103
  C   6.02812894836581      5.45487763589115      1.18138622998331
  H   3.65549673468385      5.11143990838175      4.25905055965272
  H   5.71091176335077      6.49245291148148      4.41506310207512
  H   7.23000927575565      6.71313451851418      2.44083969010042
  H   6.69225040577588      5.55003837583328      0.31720858446938
  H   8.66760627675040      0.93854379936757     -5.22352018562723
  H   7.97035325180082      2.59829209107695     -5.14718248368428
  H   7.09520090241141      1.32256680238451     -6.01128895083344
  C   5.10017841768911      1.61149627779211     -2.54985832043189
  H   4.12681982108225      3.48033886342162     -2.90326763618443
  H   3.27576787450484      2.08733353663765     -3.56439453180918
  H   4.89655541581592      0.53155158575573     -2.49043833724689
  H   5.68602294846130      1.87092991354506     -1.65410391205998
  C   1.59300728117493      4.45786628861505     -2.39579115336424
  C   1.01154793746903      5.57606876359951     -1.88009992865293
  C   0.14449417819705      5.47909229024508     -0.67580096783898
  C   -0.08083305019667      4.26864804184046     -0.09841388404837
  H   2.19089889794140      4.55813898908457     -3.30589909602995
  H   -0.73736874853707      4.21097722805397      0.77700007815149
  C   1.18898134136738      6.87934324955773     -2.48112863392206
  C   0.59824346088248      8.01172824399183     -1.97621443028584
  C   -0.25668142389825      7.91219371694171     -0.77671379623648
  C   -0.45615050688437      6.69561479747524     -0.17522207077984
  H   1.82392798574339      6.95433877375852     -3.36873789149641
  H   -1.09113568807721      6.62865684828523      0.71340943474785
  C   0.79714684733205      9.30752791639555     -2.59436077615170
  C   0.19463372292073     10.41087636289370     -2.06672613012424
  C   -0.64826136501120     10.32344262333562     -0.89043864477898
  C   -0.85998791551367      9.13060128972237     -0.27788287590859
  H   1.42850060155628      9.38271423737302     -3.47552499733823
  H   -1.49551820792117      9.07096254893418      0.60997287237626
  H   1.22484026224082     14.14790418711334     -2.89385929228437
  C   0.84602658126558     13.61969879469473     -3.78327299141174
  H   1.39737530276815     13.94568888479853     -4.67342163204452
  O   0.28060093301487     11.71153359055075     -2.53924116285116
  C   1.01620942789277     12.13076532603063     -3.60538609260964
  H   -0.22112384056756     13.87157239499486     -3.88190800287808
  O   1.69862812014911     11.41925987233586     -4.29405529883265
  H   -1.09905224854567     11.24717785887653     -0.52176335656934
  H   1.06513890431141      2.42424733775298     -2.61697088538771
  H   -0.32658842455697      2.29855747168403     -0.81910808406150
