66
Coordinates from ORCA-job 2140_0.0
  C   1.34349857606743      1.23649145788898     -0.16835871229183
  C   2.24387650763714      1.17299001200028     -1.24850507854525
  C   3.53151867221316      5.05719009140615      1.57907783100701
  C   2.36141977581733      4.29169140650327      1.50947876014897
  C   2.12491844850721      3.49181941847191      0.39095516301212
  C   3.04882777289238      3.44663908797261     -0.67088381058160
  C   4.20497756974606      4.23191996583475     -0.60555032508637
  H   4.92952532392802      4.23509580192912     -1.42141729462152
  C   4.44528401874501      5.02799349703694      0.52301006731638
  C   2.60860933157276      2.54517702474143     -1.83067495328691
  C   0.89875294948700      2.64173833701989      0.15820835586951
  C   3.61867271137258      2.47998563622925     -2.99000064057958
  O   6.00234691628612      2.74828527033876     -3.16293243535070
  C   7.27018796484851      2.28338367005750     -3.19091544662869
  C   8.22084134990581      3.33339220370355     -3.71439109404444
  H   1.63275619169418      4.32057026047414      2.32465768263345
  O   7.57715322458508      1.17318332801703     -2.83411491514073
  H   9.21730733011101      2.89365979442277     -3.84355498230778
  H   8.27740413904296      4.17126166455107     -3.00097851073572
  H   7.85328855769449      3.74234923035689     -4.66761623607857
  C   4.98565792876900      1.85498171791337     -2.66727124759912
  H   3.81833820374209      3.49833393573690     -3.35023879286452
  H   3.15485002142549      1.94694854038551     -3.83670005518020
  H   5.13373554969875      0.87349842079271     -3.14007530595114
  H   5.13861586349069      1.71058910002349     -1.58639918142146
  H   -4.61567487573546      7.08867338101821      2.44815482939502
  C   -3.83227461598791      7.05069862466317      1.68647687121816
  H   -3.95969655459467      9.17915867595772      1.24446983171359
  C   -3.46011871189373      8.23704611699858      1.00343135128823
  C   -3.21013681391996      5.85360299697590      1.39328377219878
  C   -2.47383308677532      8.20386878476794      0.03879415981670
  H   -3.49588267778176      4.93829601688343      1.91991219653351
  H   -2.18624598025716      9.11653556784684     -0.49116386806215
  C   -2.18809332448738      5.78782487037054      0.40636820285685
  C   -1.81370147849546      6.98502041472430     -0.28605494135287
  C   -1.51525533296192      4.57832535201116      0.07830976748347
  H   2.04519312848689      9.23051239703734     -3.70979095543351
  C   -0.80688760398180      6.90472952833820     -1.28260430386052
  H   -1.81256515323112      3.66987670823233      0.61144971232127
  H   -0.53549615657901      7.80746108467357     -1.83087014056970
  C   -0.17286400224724      5.70958958278092     -1.58696082030464
  C   -0.51755599061133      4.51466889163179     -0.87452998574587
  C   1.87146565064096      8.59642340922732     -4.59378045957725
  O   0.99299678720949      6.83483608910824     -3.31623279367571
  C   0.81045257445226      5.61287537392433     -2.67660861679738
  H   0.85958891161160      8.82113772099836     -4.96452991915878
  C   0.17707499859871      3.18380394326732     -1.14088441602108
  C   1.97464092520768      7.14085986008952     -4.20683554012263
  C   1.39742638542919      4.45994955705366     -3.04086554875973
  C   1.20056388005015      3.15484424747489     -2.32729673206404
  O   2.79974007973323      6.36989416678917     -4.62190121527680
  H   2.05831167435821      4.46376944185122     -3.90154731981001
  H   2.61738312980600      8.82249833252995     -5.36525695392619
  H   0.21239345606887      2.66183543202411      1.01473367903460
  H   -0.61574869030401      2.45375829910388     -1.36614892138213
  H   0.83678620910762      2.43152063356353     -3.07765092664561
  H   3.72556088436800      5.68029686537758      2.45629309043574
  H   5.35621795436546      5.63087867165360      0.57242517546941
  C   2.65927685060479     -0.07959492557406     -1.71178467584815
  C   0.89169556520061      0.07425162728229      0.45683960541870
  C   1.33511793978423     -1.17490966923062      0.00463674444947
  C   2.21015964265409     -1.24861019976930     -1.08100331304352
  H   2.55074016123584     -2.22181258773458     -1.44441828311939
  H   3.33228863281145     -0.17028364309249     -2.56536904212363
  H   0.19156011199650      0.14126711233025      1.29506153547292
  H   0.99213061678297     -2.08898762696876      0.49663032588371
