55
Coordinates from ORCA-job 2142_0.0
  C   -6.16981222890447      8.39974660960099     -1.76288310098667
  C   -6.99380743402305      8.28667966675440     -2.88997230353020
  C   -6.45678478085355      8.39110451279272     -4.16962503720382
  C   -5.08230535054071      8.62005733086917     -4.33213186899394
  C   -4.26369433737492      8.73250364375125     -3.20239661154801
  C   -4.79493781751718      8.61944778123201     -1.91470914965530
  H   -8.06216532478100      8.11526454716746     -2.74411119089497
  H   -7.10696716713490      8.31219545074855     -5.03987773843766
  H   -3.19415929743452      8.90234959845336     -3.32174158797380
  H   -4.15214569785772      8.70693552578887     -1.04356261225582
  O   -6.84536530331317      8.27513574278549     -0.55892762278453
  O   -5.13667210177809      8.54696076939782      0.92067899016620
  C   -6.30024623581767      8.35458039666245      0.68652118160993
  C   -7.38160262450178      8.16597565154499      1.72212432280786
  H   -6.94002044612473      8.22132096257978      2.72436153884543
  H   -7.87557117704390      7.19233229750111      1.57850154777068
  H   -8.15373621877001      8.94255917429690      1.60544167268382
  N   -4.52303444242275      8.74968744692809     -5.64191356995549
  C   -5.11915307017694      9.49651164578741     -6.67230923647138
  C   -4.17840823342886      9.49277071848443     -7.87054875469547
  C   -3.32655626549773      8.13319760840873     -6.04797611318734
  C   -3.09874537499881      8.44119420277521     -7.53600414435390
  O   -6.19218845643397     10.04315713210870     -6.60372929709521
  O   -2.63850777212189      7.45134452746828     -5.32625823672031
  C   -3.55435850772386     10.90356474209298     -8.13924991460012
  H   -4.77959546523369      9.21635420477786     -8.74982713904141
  C   -2.32637903743483     11.13967818652183     -7.27496508770046
  C   -1.36318010525299     10.20712009180342     -7.13993813407409
  C   -1.64263932806731      8.89057088553844     -7.85926541759391
  H   -3.30039655207919      7.50006854584556     -8.07707158583434
  C   -0.60364283935881      7.76879378254738     -7.62864520979435
  H   -1.64247882561223      9.11139745946248     -8.94683296738864
  C   -0.04407212274229     10.48766845838661     -6.45234860036737
  C   -4.46434538690737     12.09206899344266     -7.98973740025696
  H   -3.20776399028184     10.85239261359595     -9.19354704071882
  C   -3.93540754758994     13.07851215137223     -7.24927497312719
  H   -5.44434707933799     12.15122824740673     -8.45357806551794
  S   -2.30588927462713     12.77393383030358     -6.57872414226303
  O   -4.41179126789278     14.30979505172556     -6.89544573686334
  C   -5.52469456859452     14.88254234042282     -7.46377658144262
  C   -5.77676825331258     16.22531587819288     -6.83026443950626
  H   -6.02048085647685     16.08864682430960     -5.76441398640178
  H   -6.61204876519776     16.71834495239424     -7.34179210475200
  H   -4.87145856569198     16.84896978534867     -6.88038872586969
  O   -6.17970417354243     14.36505058092490     -8.32373040480284
  C   0.80743432324288      9.24218962542086     -6.17716183785157
  H   -0.22508343509620     11.05248377084411     -5.51972370151087
  H   0.53581910487589     11.17454377852053     -7.10087720520890
  C   0.80985001586783      8.30648207233667     -7.38960064750841
  H   0.40551237359027      8.69481261446902     -5.30635557433747
  H   1.83187276353072      9.55090294729333     -5.91185199190099
  H   -0.62336230655864      7.08626153487848     -8.49538154674041
  H   -0.89531403298793      7.17442114687878     -6.75157736051098
  H   1.50167495620855      7.46351974457685     -7.22603703646972
  H   1.18127590913771      8.84838221447579     -8.28050651718309
