52
Coordinates from ORCA-job 2143_0.0
  C   -6.12295544215409      7.93327691800745     -1.38129703113143
  C   -7.02988193936136      8.46974152773463     -2.30430181210153
  C   -6.60397567147895      8.84365153591482     -3.57525020035212
  C   -5.25609195416650      8.69081891723361     -3.93174082537408
  C   -4.35355028809034      8.15878735209461     -3.00386359732827
  C   -4.77595095859836      7.77153389137600     -1.72948308554664
  H   -8.07356386810883      8.58774813954936     -2.00652687058001
  H   -7.31480081761569      9.26816224690019     -4.28293218609376
  H   -3.30635927971226      8.03032773920780     -3.27593188225312
  H   -4.06997565191473      7.35228611371337     -1.01840519477872
  O   -6.68951960041645      7.61597337919091     -0.15725257633656
  O   -4.91411201982205      6.65922276252246      0.89881867591525
  C   -6.06338157597151      7.01147949966857      0.89120803603350
  C   -7.03548563771928      6.85547781332053      2.03428356085277
  H   -6.53334089886749      6.36268003769167      2.87543064224735
  H   -7.90506755898958      6.26212861271303      1.71130892339648
  H   -7.41184768626757      7.84291876301374      2.34434830747202
  N   -4.80435816838980      9.07740525928776     -5.23322640239009
  C   -5.20412666780658     10.25636878693541     -5.87949019380357
  C   -4.50431646379589     10.33039351495320     -7.23506991997163
  C   -3.94812080960432      8.29013591857688     -6.02415716478111
  C   -3.71050616246061      9.00193934854074     -7.35934883977294
  O   -5.98643404137168     11.05969041525339     -5.43131628596846
  O   -3.51482673811538      7.21430256349085     -5.68801963471244
  C   -3.59695440087849     11.59707304840193     -7.37139769979458
  H   -5.29779876957496     10.40747758800767     -7.99409133758322
  C   -2.28209715742456     11.41754066970585     -6.63750156283517
  C   -1.59434584078401     10.27868433717226     -6.80721556869670
  C   -2.20705857041475      9.21783671165778     -7.70613910402836
  H   -4.15657098534799      8.35190925543993     -8.13051678070915
  C   -1.23157019587397      8.02102125504980     -7.60654034432525
  H   -2.20339179773598      9.59388264114576     -8.74958563220136
  C   0.11929309395633      8.67384343766432     -7.25159726428141
  H   -1.19192475811041      7.43252075239056     -8.53666723479981
  H   -1.54734138792566      7.34113158500917     -6.80329012202081
  C   -0.25299223026301      9.82370256756257     -6.28946699044014
  H   0.58970971480269      9.09210512140749     -8.15874307026885
  H   0.83438817493085      7.96040918805572     -6.81373881893383
  H   0.49299388755474     10.63513438937679     -6.26307220476675
  H   -0.34580173807421      9.44444105674262     -5.25366848331475
  C   -4.17461237595299     12.90411483892609     -6.89556004713557
  H   -3.38764267279810     11.68416869381999     -8.45808707112154
  C   -3.40593388928205     13.61456941459229     -6.05135302467953
  S   -1.87304129922371     12.82359457694467     -5.63248738263241
  H   -8.07486180192153     13.17955994223832     -7.15987012401065
  H   -8.17194680495686     14.96886495001850     -7.30124272869444
  C   -7.58158817382942     14.08110830645950     -7.55830123969980
  O   -5.86168203115789     14.99805110419768     -6.12678495746707
  C   -6.21210629323029     14.18814263892563     -6.94146025901456
  H   -7.51040075191899     13.96620442124003     -8.65008829971744
  O   -5.40141031251109     13.20543519948637     -7.43498519434224
  H   -3.64318073125401     14.58366125146887     -5.62280189512509
