55
Coordinates from ORCA-job 2144_0.0
  C   -6.00736836829981      8.10582348017423     -1.45100745583441
  C   -6.92541178072823      8.47230140412359     -2.44384124328446
  C   -6.48558623863979      8.80996143307305     -3.72020455052608
  C   -5.11397002552956      8.79142119956553     -4.01199353343171
  C   -4.20084636203450      8.43174207084602     -3.01463742796295
  C   -4.63577255904038      8.08228265993809     -1.73347693332086
  H   -7.98870380395573      8.48494488544717     -2.19650624771424
  H   -7.20600260728474      9.10093535764545     -4.48385557923138
  H   -3.13439768939968      8.41138855111943     -3.23642518862897
  H   -3.92040611456528      7.80240367633853     -0.96560500621482
  O   -6.59222698528289      7.78680014092159     -0.23613478018283
  O   -4.74724040646803      7.37264436210606      1.03223062465093
  C   -5.94081703752847      7.45131940986628      0.91276389582432
  C   -6.94940961552049      7.19716198849841      2.00569597456008
  H   -6.42574621475193      6.91187508928351      2.92593251656377
  H   -7.64371057409740      6.39892979064762      1.70036976798378
  H   -7.55091527581938      8.10330802323540      2.17883065035684
  N   -4.65040774227293      9.13439533557021     -5.32141647259576
  C   -5.12951641300065     10.22679632891766     -6.05778801491745
  C   -4.37136301137137     10.28637587919763     -7.38185949076855
  C   -3.68315974357862      8.39079212482741     -6.02089556688258
  C   -3.48895189066721      9.01627395394847     -7.40904255424505
  O   -6.00237474927670     10.97737657934021     -5.69247086263766
  O   -3.14136351414720      7.40678896807732     -5.57727496485866
  C   -3.51385530076277     11.58327755942566     -7.52250464947962
  H   -5.12603794098689     10.29090254359415     -8.18259380380207
  C   -2.22039393006253     11.46961777187850     -6.74745664564151
  C   -1.44085434203397     10.37472223046329     -6.85193484979362
  C   -1.99176546721045      9.28542381444609     -7.76852016991883
  H   -3.88580841968673      8.28393339562535     -8.13274803929222
  C   -1.14934186284949      7.99177719990872     -7.84921880700310
  H   -2.02102329296846      9.71492824643048     -8.79134961288857
  C   -0.06252566385718     10.29494724936334     -6.23155990410484
  C   -4.15867443730405     12.87663292126484     -7.10186716902932
  H   -3.27187099329490     11.64955482403178     -8.60466764427094
  C   -3.44420896117635     13.64155534836619     -6.25808337902603
  S   -1.88587009747094     12.93192112909973     -5.79262264493685
  C   0.57567562901172      8.90121580299305     -6.27859086414164
  H   -0.10168096319045     10.67451170288239     -5.19429704525394
  H   0.59421716768374     11.00310499405212     -6.77516846344955
  C   0.34701626193947      8.24261058509438     -7.64198696865276
  H   0.13652735420796      8.25725113269542     -5.49608413864111
  H   1.65132062940474      8.98318829640206     -6.05220881696753
  H   -1.33508544423448      7.50866985255266     -8.82373615887959
  H   -1.48746783383596      7.28533352857495     -7.07883717073847
  H   0.89147400785120      7.28580773324555     -7.70486525098699
  H   0.75407601083458      8.88775364368024     -8.44420674642788
  H   -8.04693966948311     12.90598797753091     -7.45508536357348
  C   -7.61110971764020     13.83799864644370     -7.85045360048695
  H   -8.26565928458903     14.68441637360007     -7.60999669126033
  O   -5.98170898319154     14.87431784547952     -6.39339783662401
  C   -6.26431082937987     14.03953205272845     -7.20901610902847
  H   -7.51132351472028     13.72235672629856     -8.93996795576867
  O   -5.38168481634468     13.10817849675498     -7.68084140204741
  H   -3.73230657139771     14.61096768238299     -5.86252965458444
