61
Coordinates from ORCA-job 2146_0.0
  C   -5.69990661383337      7.78369820593322     -1.32119508793240
  C   -6.40080099371779      8.83729567087992     -1.92075646621990
  C   -6.08796154952325      9.25028530328016     -3.21205969695270
  C   -5.05595174803226      8.61448810411864     -3.92048514212063
  C   -4.35730535218238      7.56222367895577     -3.31380459940742
  C   -4.67175391208508      7.13827446260928     -2.02004042252969
  H   -7.19790333076087      9.32628716571222     -1.35730646262489
  H   -6.63470122178801     10.07900025291538     -3.65832776416254
  H   -3.56963101882131      7.04268081517396     -3.85770014270582
  H   -4.12416496034196      6.31931741918183     -1.56251386831794
  O   -6.12524302098601      7.48561693768078     -0.03653170887196
  O   -4.79513568716841      5.70403493295630      0.45038739463869
  C   -5.66045439557120      6.48044189425859      0.75623677028725
  C   -6.41981015720834      6.47569182280075      2.06025248304594
  H   -5.96127177185742      5.75349577107142      2.74656115819382
  H   -7.46840078979172      6.19221178378186      1.87330567960855
  H   -6.42846771580196      7.48133571843084      2.50645831916296
  N   -4.72536216563329      9.03333167951122     -5.24656606330303
  C   -4.81680275506546     10.36423368579888     -5.70703094482813
  C   -4.63424075930617     10.32070549855935     -7.22668433917384
  C   -4.30429903628203      8.16267200279396     -6.27237361449422
  C   -3.85133537078433      9.01367229694972     -7.46101383118629
  O   -5.07233702941681     11.32375208727401     -5.02578279243220
  O   -4.31503589317286      6.95804127010414     -6.20901081698469
  C   -4.00310228949269     11.56138867047872     -7.85497654368273
  H   -5.65405536903079     10.18673205921813     -7.63279876325484
  C   -2.54665436460079     11.65654806873338     -7.45178993232048
  C   -1.74943587548121     10.58399921010779     -7.28861926255601
  C   -2.27604571954956      9.17033474132233     -7.54680193439035
  H   -4.18643111329762      8.48906071893102     -8.36581755593573
  C   -1.53179801611424      8.11476648201066     -6.69499036116315
  H   -2.01882508395011      8.94005432284790     -8.59970661625451
  C   -0.01193996034598      8.26157646176346     -6.76024017521040
  H   -1.84713288398571      7.10810456998679     -7.00712085725426
  H   -1.83695504647930      8.22145283073492     -5.63888444809849
  C   -0.25743496036968     10.74668969729588     -7.07124725104509
  C   -4.64537302622504     12.90865323430619     -7.58868436274897
  H   -4.04040627154493     11.40103473951511     -8.95317892722649
  C   -3.71576080383087     13.92582939821113     -7.31628270021432
  S   -2.03149534984381     13.35640306287665     -7.28428195520611
  O   -7.80003592676602     14.69978841317103     -7.53605826621499
  C   -5.49763162654319     15.55776003800006     -7.17323993847957
  C   -6.42267131897916     14.54169674036376     -7.44801379295185
  C   -5.99782376318829     13.22218577144851     -7.66233486271271
  C   0.40247219262044      9.63894945929003     -6.24302323730135
  H   -0.05738878397713     11.73307935145133     -6.62022183279575
  H   0.22791121856278     10.76848210769664     -8.06834244223020
  H   0.10269044003915      9.73411739174131     -5.18376268019693
  H   1.49816773402407      9.76008718437779     -6.27302009760188
  H   0.33916837200230      8.12912087859523     -7.80115172917143
  H   0.46361084579186      7.46229512990939     -6.16754243814651
  C   -4.13480561902305     15.24038178944010     -7.11112835541400
  H   -6.75471325039217     12.46265183076928     -7.87097588070125
  H   -5.83838368161449     16.57555272170523     -7.00612675756309
  H   -3.41109070971736     16.02905137109071     -6.89193060273366
  C   -8.49734499111256     15.85118652597957     -7.34579096635641
  C   -9.97254525627165     15.58091232019723     -7.52131931425636
  H   -10.15895458286433     15.06322571854251     -8.47450901144337
  H   -10.52378935722288     16.52834369116026     -7.48578854890145
  H   -10.32429624763798     14.91667016227102     -6.71549392916623
  O   -8.01099230445559     16.92412467372643     -7.10254170978785
