43
Coordinates from ORCA-job 2151_0.0
  N   3.70187133557542      6.64693253688267      1.81411956502884
  N   2.29618606856745      6.65108068008548      1.56889797584067
  C   4.15440898378114      5.24477754873539      1.58110424873714
  C   3.52356102950803      4.44241992416369      2.71586794379617
  C   2.20115406692541      4.44104487930372      2.49683229075337
  C   1.95306344615042      5.22767069686046      1.20090758727326
  H   4.05915708265895      4.06293054137993      3.58730571623828
  H   1.40175340295978      4.05954508098663      3.13284559864077
  C   0.58687177178312      5.09763730339367      0.54031048360885
  O   0.39043108384920      3.74357234815370      0.11543540726299
  H   0.52628254657951      5.72010453768196     -0.36051010153166
  H   -0.20695019009999      5.39871697441889      1.23702431626446
  C   -0.34669664811076      2.92117411801913      0.90469817535713
  C   -0.52423898275772      1.57471020863119      0.25052196245606
  H   -1.05122630840836      1.69399813534348     -0.70905706584924
  H   -1.09607888804349      0.91515188478197      0.91411203324512
  H   0.45845023789028      1.13084332673367      0.02784068472401
  O   -0.79023116189587      3.24735879717084      1.97656553770972
  C   3.23176897991748      4.85042498148034      0.40153440808894
  H   3.27507743913216      3.78476315094929      0.14751482949501
  H   3.37853714067914      5.46566704679972     -0.50136400714209
  H   5.24156923116832      5.21787101027856      1.45190305076895
  C   1.97254459038734      7.80277505037014      0.86528230618074
  C   4.26856489521365      7.77397040083792      1.24351969316849
  N   3.17049474378243      8.55511543885503      0.80039969921500
  C   3.28459994895183      9.87914618892639      0.28916916325356
  C   2.40695738728545     10.34267548034304     -0.70712087063742
  C   2.53494848244389     11.64277767589798     -1.18636481113627
  C   3.53338920662138     12.50450054580667     -0.70250985893108
  C   4.40549197591741     12.02530238435641      0.28889076707019
  C   4.28447783420245     10.72965190557791      0.78812503042369
  H   1.62333261784552      9.68980349347402     -1.08637668330627
  H   1.85986809458627     12.01938884025465     -1.95758874970937
  H   5.19394932087582     12.66423834265590      0.69145455086576
  C   3.61571505793979     13.89252162225602     -1.27291839978066
  C   4.70946351747196     14.82114412699785     -0.77438507073169
  H   4.61825703588781     14.99262354313417      0.31085782007959
  H   4.62508743163272     15.77978205410522     -1.30217950718819
  H   5.70797680502115     14.39001414206674     -0.95416432428233
  O   2.82249038305215     14.26243291197828     -2.11734544591384
  O   0.88491115841489      8.09930890754927      0.42463103153541
  O   5.44601313025270      8.02972032890703      1.16026217152806
  H   4.97584471440365     10.37165090341457      1.54946084752988
