43
Coordinates from ORCA-job 2152_0.0
  N   3.56069620904246      6.13601718253969      1.00157043530438
  N   2.21280335102088      6.18115243589160      0.52510966152724
  C   4.12047804624908      4.84939901395234      0.48004176057805
  C   3.35456827115814      3.75185756274480      1.21147070957831
  C   2.08886976145524      3.79692931621349      0.76245128593242
  C   2.03437604686166      4.92869638186344     -0.26955116545169
  H   3.74329766269659      3.13690381745040      2.02231975967421
  C   3.43835032048284      4.79586108102766     -0.91178361910740
  H   3.58952039868996      3.84214203812866     -1.43280958870212
  H   3.70457692812054      5.63659971484693     -1.57263591665105
  H   5.21356717147877      4.86319524676250      0.54637310363071
  C   1.95528617958418      7.45453193835935      0.02796007395753
  C   4.14801892023188      7.37795747788369      0.80241785797697
  N   3.09927944838510      8.22251916726050      0.35374682365149
  C   3.23202188394981      9.62694459957103      0.16100509458452
  C   2.53163076114820     10.27931203954229     -0.86929202777473
  C   2.67756162736280     11.65295082014312     -1.03694610893116
  C   3.51847718818038     12.40583757337038     -0.20043952895078
  C   4.21080380978504     11.73963128327058      0.82438634876607
  C   4.07113649766510     10.36546639697297      1.01092044105168
  H   1.86917997019936      9.71098639660835     -1.51951497762687
  H   2.14198981890453     12.17561469186106     -1.83220522047716
  H   4.87223692919415     12.28967043907569      1.49676297632349
  C   3.63671876106544     13.88300486285778     -0.45164984278017
  C   4.53495426898423     14.70637548466385      0.45533783652719
  H   4.20882185186624     14.63565706810959      1.50606258270653
  H   4.49620752507108     15.75431376398376      0.13127245064388
  H   5.57670219775341     14.34840866076867      0.41176541829170
  O   3.02688995827317     14.40644359330111     -1.36437280653399
  O   0.95363860920486      7.80861644293387     -0.54634457708602
  O   5.30531236335780      7.66772051424159      0.98704091424959
  H   4.62631898505390      9.86277342459137      1.80143650912100
  H   1.59002061661690     -0.31053824240599      3.28259281883044
  C   0.81845398225490      0.34296981936038      3.71992566642340
  H   -0.00342075975061     -0.26646563620368      4.11436644667703
  O   1.26041983173586      2.11318157404589      2.21957570965803
  C   0.28799129417621      1.28073533096717      2.66478830104161
  C   0.88329082116755      3.04802675526276      1.21117758134855
  O   -0.83962013060312      1.30966290133553      2.24294225311547
  H   1.29523370252871      0.91296122265364      4.53183694158017
  H   1.14931227818636      5.01246011920765     -0.91068475649297
  H   0.11997265534360      3.74458634406136      1.60546127863373
  H   0.40276398586676      2.51988938092291      0.36727109518069
