45
Coordinates from ORCA-job 2153_0.0
  C   3.50130150607744      7.09004963538256      1.67153866175180
  C   1.95988948568617      7.09494424943842      1.81115806864869
  C   3.96428332715023      5.79457218038542      0.94278921441853
  C   3.43421008251856      4.63645622392522      1.75802506292115
  C   2.10220339498905      4.62793833318915      1.90172353882080
  C   1.36375723781719      5.76952252469420      1.21705691003391
  H   4.09728676432298      3.87461838483347      2.17676196221195
  C   3.29075350372844      5.73568234050486     -0.45504298294643
  H   5.05938248215337      5.79232435559772      0.85193937725538
  C   1.50709885992277      8.37212053440711      1.10113195393224
  C   3.83793510806993      8.36527994002700      0.91163503312981
  N   2.64679813561823      9.03372705753717      0.63034668181276
  C   2.61032437620585     10.27241745898891     -0.12943750199601
  O   3.09267663298111     12.64152887897143     -0.09361794533173
  C   2.96597762935018     11.49313144035344      0.73057485925068
  C   4.28053489906037     13.03352018253695     -0.64579512370235
  C   5.54979143207549     12.35133058736576     -0.17034033690182
  H   5.74346163122366     12.60380576034276      0.88584807725791
  H   6.37852198261524     12.73201140983842     -0.77905414501507
  H   5.50970092190676     11.25344113062973     -0.23995426926016
  O   0.37896972355652      8.77819681973403      0.94848566123177
  O   4.93318134256245      8.76165159090743      0.57988610834878
  H   4.00692037351318      7.14365102498034      2.64807059841069
  H   1.64247892051187      7.17952088949737      2.86301431432581
  O   4.26593371815260     13.92218759923847     -1.45150418874711
  H   -2.26993213931678      2.95086141326606     -0.57294956370779
  C   -0.14502703277537      5.70747061451757      1.44411778740308
  O   -0.62222554487778      4.46344389125685      0.91105423513483
  C   -1.90748314136033      4.13559875974050      1.17910675412269
  C   -2.28111495724042      2.82902857512169      0.52213824002087
  O   -2.63523840280920      4.82094286542412      1.85101411088157
  H   -3.28398530792286      2.52770880244856      0.84804255802595
  H   -1.54580953988457      2.04876697753161      0.77048803923184
  H   1.54988769989756      3.85396338655246      2.44045872113475
  H   -0.38356018504206      5.75754909050005      2.51945366536744
  H   -0.66311775532792      6.54690080671643      0.95742987550544
  H   2.15180461045095     11.70601414903984      1.44010062037722
  H   3.88085169034304     11.29698449257922      1.30920960206315
  H   1.60072318149458     10.38401188475551     -0.54779705803897
  H   3.33306176547073     10.18417289390111     -0.95477185052994
  C   1.74696379179139      5.71317610254776     -0.29365493914775
  H   1.27425458060675      6.55694888208525     -0.82346626918709
  H   1.31645023977667      4.79724058146512     -0.72045864186282
  H   3.64163071749456      4.83363671267997     -0.97815333959236
  H   3.61909225746132      6.59273858456265     -1.06539213706409
