48
Coordinates from ORCA-job 2154_0.0
  C   3.40877330011235      7.07100051613066      1.60093718741650
  C   1.86489070608325      7.05293003019362      1.55668264618558
  C   4.06598094414342      5.78770223252714      1.02133862412409
  C   3.37172182436527      4.61475566692847      1.68623998960505
  C   2.03236025337808      4.58202595888514      1.68479888415930
  C   1.25344995700412      5.71237312635502      1.01889470305846
  H   3.96293128489713      3.81001030448058      2.13363024184544
  C   3.98129195801244      5.69159395230071     -0.53198223862274
  H   5.12989972376566      5.81827686250930      1.29841512255297
  C   1.47842468163628      8.30831676211460      0.77438109142854
  C   3.81298473523265      8.35628217465650      0.89161520832404
  N   2.65348651439822      8.99495173628105      0.45276876838630
  C   2.68420575789443     10.24429114852542     -0.28896210516515
  O   3.06524449100279     12.62854269840997     -0.15279990093567
  C   2.88142640554999     11.45883298295848      0.62893035741001
  C   4.29506617986184     13.07372856261612     -0.55032028853480
  C   5.52225104826680     12.42026850245064      0.05749773644855
  H   5.58644664958422     12.66111178954432      1.13208140972855
  H   6.40318199228695     12.83517209890770     -0.44663148596175
  H   5.52483586580128     11.32301420159176     -0.03010542066879
  O   0.37047087145091      8.68819844241263      0.47504224753978
  O   4.93130664137578      8.78788440825593      0.71769280781507
  H   3.76035123577767      7.16607475385340      2.64067453800596
  H   1.46404940779428      7.19941709286110      2.57373253353364
  O   4.34452894670636     13.98307802198791     -1.33121943139264
  H   -2.71463825278432      2.95243095649140     -0.20279347965885
  C   -0.22445187479719      5.68223436567474      1.43788926116623
  O   -0.79373269832230      4.43060252667882      1.03080480409071
  C   -2.06179364132280      4.17665850448948      1.43125017481644
  C   -2.55191935307291      2.85830787646107      0.88332148803123
  O   -2.69684825903829      4.93010747089086      2.12389350897728
  H   -3.49804739691645      2.58976819756935      1.36885555988231
  H   -1.80139199794862      2.06855472283472      1.03527033352419
  H   1.47506836879702      3.74682857512360      2.11746464067050
  H   -0.32207834159156      5.78144435134838      2.53142386061696
  H   -0.78027891475498      6.51396614897466      0.97889711547437
  H   1.97660150244666     11.62579698330796      1.23304011104407
  H   3.72371092196597     11.28328450634609      1.31449739289891
  H   1.73837149212556     10.33516325375571     -0.84023507824941
  H   3.51539713958949     10.19129610801081     -1.00828327641193
  C   1.36768220010858      5.60325061797454     -0.53915822390580
  C   2.69615591435572      5.05498262599694     -1.08285521160250
  H   1.14032051958524      6.58729966233471     -0.98182259747060
  H   0.56578413998258      4.93243335752755     -0.88247191056915
  H   4.83556862548856      5.09088643190146     -0.88555762445758
  H   4.13668326714891      6.69379361062370     -0.96662237372229
  H   2.69294449010577      5.15621440836181     -2.18157370205032
  H   2.73237077246710      3.97221070958319     -0.88389799938109
