43
Coordinates from ORCA-job 2155_0.0
  N   3.14493368624747      6.16414265593495      1.54194332319731
  N   2.00690404803346      6.04578740441031      0.71927990328822
  C   3.85584532862112      4.89030513787959      1.73773149720971
  C   2.83682197789762      3.91704111177280      2.29608356948655
  C   1.74251259260484      3.79240014796928      1.53651673008368
  C   1.77877272713246      4.63949893277784      0.27302395330826
  H   2.99918908040763      3.38563670438497      3.23611213086934
  C   1.81314144250274      7.22284075489252      0.02706819697135
  C   3.71638023785733      7.40434099198263      1.36456799077474
  N   2.81714049474359      8.09864197444900      0.51825194331194
  C   2.91369624558023      9.47931424963286      0.18456464540626
  C   1.74945272892256     10.21979990508200     -0.09166630946004
  C   1.84985212939914     11.57002888694279     -0.40795759954923
  C   3.09632776314730     12.21880657670621     -0.44976083000380
  C   4.24862661592013     11.46738104875506     -0.16933526507932
  C   4.16752769651653     10.10976245475785      0.14037649811128
  H   0.77652563192876      9.73158799806739     -0.07127138509207
  H   0.95582917346187     12.15819686087483     -0.62496007903762
  H   5.23525934396764     11.93440692292472     -0.19263098655878
  C   3.12804099339614     13.68223278907742     -0.78808483002804
  C   4.47021277286667     14.39345086373948     -0.81926524872845
  H   4.97450320936735     14.33003906372515      0.15887239372464
  H   4.30424483053543     15.44740254872913     -1.07685286305993
  H   5.14291871256729     13.93646225438027     -1.56355619823346
  O   2.09979687067360     14.28518878184347     -1.03028193189234
  O   0.95416037792316      7.47021281167048     -0.79178227266962
  O   4.75772677083764      7.79516021145273      1.84553019031748
  H   5.06760376480826      9.54240456167276      0.36833747999990
  C   4.29179225587293      4.37829424595363      0.33874524142047
  C   3.02444178757323      4.21459850940311     -0.54620439936417
  H   4.99534775298168      5.09959647434501     -0.10493678276907
  H   4.82971906551019      3.42540261137793      0.45175269307563
  H   4.70509077431046      5.08955895753170      2.40148497594583
  H   -1.42353147579375      4.27127385692242     -1.97234783877530
  C   -1.53824928229292      5.08026288202102     -1.23627642040320
  H   -1.27720476700113      6.02799098554546     -1.73473139261651
  C   -0.58398897588523      4.90445751767112     -0.09117131164253
  O   -0.81972386039684      5.04040313669928      1.07636221966860
  O   0.66533186752924      4.57338269684937     -0.57069121788334
  H   -2.56743495076612      5.12680624554442     -0.86025454367874
  H   0.88594115059211      3.15586550640481      1.75654005156525
  H   2.87948349401921      3.17550960931135     -0.87525272022826
  H   3.06669791587889      4.84502215793050     -1.44714320098265
