60
Coordinates from ORCA-job 2156_0.0
  N   2.94779278790643      5.82408678071766      1.30575792915195
  N   2.03216275714173      5.62731821583701      0.27337185306264
  C   3.52967596461138      4.63210125341577      1.91026731067458
  C   2.35689880230652      3.76386250695212      2.32479313868235
  C   1.37173561000173      3.60833023929701      1.43630522350370
  C   1.50907126259483      4.26530681727989      0.06872809653103
  H   2.33861566896868      3.28518378096805      3.30632562936131
  C   1.86248630530016      6.79173358543682     -0.43758757657274
  C   3.46124128889140      7.09311149178557      1.23959608239333
  N   2.73042715302945      7.71817032527997      0.19765694940465
  C   2.84394772562427      9.09094515080899     -0.16198858665352
  C   1.73668160587579      9.77565821092147     -0.69571666921534
  C   1.85726334823848     11.11641751267713     -1.04385735973254
  C   3.06489821662500     11.81216508363393     -0.86245398988284
  C   4.15859581715667     11.11774850880913     -0.32061284353827
  C   4.05952232861787      9.76963321756758      0.02247124148423
  H   0.79590813453319      9.25031240003016     -0.84858033208613
  H   1.00796450096349     11.66062721139738     -1.46202271667140
  H   5.11373151084073     11.62267612490938     -0.16265390974648
  C   3.11993758050931     13.26001870759615     -1.25775849024250
  C   4.41280764501481     14.02716944019904     -1.03782537784730
  H   4.70156117457865     14.02213913617246      0.02602315229270
  H   4.26837926118976     15.06255361198197     -1.37243313702155
  H   5.24314715019369     13.57331615354863     -1.60353657046162
  O   2.14866022564612     13.80817513155356     -1.74363870669611
  O   1.12321869432719      6.99054277572291     -1.37802677488515
  O   4.34403200544809      7.55605326233826      1.93050491646732
  H   4.91240332065784      9.24717765620894      0.45121468972294
  C   4.46247772778038      3.89127333763380      0.90663386261813
  C   2.55692663149551      3.50816694317606     -0.85609493401767
  H   4.11237903087154      4.99457869899670      2.76704961492225
  H   -1.44398798529025      5.88653636874068     -1.96923693390473
  C   -1.81824055740236      5.14558133474843     -1.24451514883906
  H   -2.75763022254704      5.49743002539828     -0.80121771604074
  C   -0.77558247748523      5.00062871047111     -0.17373499957560
  O   -0.82714384736024      5.41837203165084      0.94887015563454
  O   0.31295203795916      4.31971070858190     -0.67051012553545
  H   -1.96820169470587      4.19704101797458     -1.78020162013815
  H   0.49769042706222      2.98143341783476      1.60706805327314
  C   3.75268859212635      2.93314813319398     -0.06962307268397
  H   5.18872985895637      3.29725261623500      1.48514330693420
  H   5.04960733081003      4.65165261712445      0.36422633278055
  H   4.48841351144888      2.57466277674105     -0.80718505782914
  H   3.40013479409020      2.05054132278869      0.48319061827487
  N   1.93943251074375      2.49819460061311     -1.69982896307159
  H   2.90599111597107      4.26815182893178     -1.57095457015664
  C   1.89141702562705      2.64857810372797     -3.10599691099618
  C   1.11816309299490      1.47617755986158     -3.61249962401186
  C   0.73517492203051      0.69964419345560     -2.51524433437933
  C   1.24726083771183      1.35453241439901     -1.27164474690512
  C   0.77998345666040      1.11678904029035     -4.91234251464425
  C   0.03368541918855     -0.05933144392930     -5.08327063070922
  C   -0.35179901204796     -0.83891101865320     -3.98173212314507
  C   -0.00349052519543     -0.46758025517430     -2.67392060279025
  H   1.08515985482604      1.73215244513960     -5.76175182014535
  H   -0.25310695922555     -0.37507382537349     -6.08967362257739
  H   -0.93281519792103     -1.74978005769754     -4.14777789784827
  H   -0.29756265069603     -1.06690993680588     -1.80921182208490
  O   2.40099693592267      3.55062702085226     -3.72425019633936
  O   1.10468816880614      1.00072497602478     -0.12227512754758
