55
Coordinates from ORCA-job 2162_0.0
  C   8.11500581161326      2.08100303690027      0.10495547389822
  C   6.76408439292190      1.66220686367071      0.01287776250605
  C   9.16342352708540      1.12996696407458      0.63155387578580
  H   8.92601724457923      0.79948571271030      1.65722049237356
  H   10.15961811405436      1.59625961492484      0.65138819922248
  H   9.22915163063045      0.22091838307176      0.00955012015377
  C   8.44535416190727      3.37463854735832     -0.29790919580949
  C   7.44809016557273      4.24219116074093     -0.78252413442266
  C   6.10558866217086      3.80152269194946     -0.85618463932768
  C   5.76122341169182      2.50121258805506     -0.46200683158605
  H   6.50120521409397      0.64756994109025      0.32704804398283
  H   4.72703907745217      2.15315532268479     -0.52119851556918
  H   9.47757366670408      3.72901510477668     -0.23812813961578
  C   7.56655888076046      5.60676304750887     -1.23693084140376
  C   6.38322455510528      6.17381897405115     -1.62351500300288
  C   6.24388154433837      7.61072177246182     -2.02111338562068
  C   7.56673923481335      8.37556436307195     -1.67440357125067
  H   5.43712953819488      8.09205901293204     -1.44161284666260
  C   5.83847328714580      7.80351349129571     -3.49123258314536
  C   8.81521592470098      7.48690326145559     -1.93466760277377
  C   7.57529630840351      8.96285375828768     -0.26839396311751
  H   7.64644323771159      9.22598143429481     -2.36561348820118
  O   8.76000955576133      6.25533816306521     -1.20353529736255
  H   9.69230561487853      8.00765660425852     -1.52238002736951
  C   9.06150378430039      7.20610823073511     -3.43131841247719
  S   5.03677178297265      5.05056068422560     -1.47195644241125
  C   10.38032976441920      6.53346728085188     -3.67826242549497
  H   9.00544667212894      8.15181900971246     -3.99003289843613
  H   8.25216256493376      6.55972349182887     -3.81310659980171
  C   11.31523347341922      6.89439604083158     -4.56487571234819
  O   5.51674075086673      9.08846117077523     -3.72204670367972
  C   5.11367257206148      9.43068112970926     -5.06399975450875
  O   5.80251123581899      6.94411063789379     -4.33518824920748
  H   10.59563517634753      5.64972976681840     -3.06893160776823
  C   7.21655877665996      8.22241275759087      0.87154110826166
  C   7.97128999164173     10.29903931279194     -0.08975717837301
  C   7.25192973099527      8.79964758857605      2.14125585548319
  C   7.65227369000011     10.13123354940668      2.30131561298741
  C   8.01183754218501     10.88240900608618      1.17769360571208
  H   8.24494141791911     10.90089328805320     -0.96122676731603
  H   6.89244946003117      7.18565674046869      0.77241746756464
  H   6.95875815368261      8.21163573600951      3.01346596136032
  H   8.31113405458875     11.92615636788261      1.29179464744406
  C   7.73321070701441     10.73202170278921      3.68249549108089
  Br  11.14895456613557      8.38975117442043     -5.73557906014016
  Br  12.93762752189965      5.92237828982558     -4.76562347453753
  C   4.77863344859991     10.90712380540401     -5.09261329559195
  H   4.25102091135914      8.80422750404476     -5.34300171629008
  H   5.93302811752033      9.17606529068173     -5.75612862284804
  H   3.96198977078533     11.14034583649871     -4.39176413549796
  H   4.45807464175252     11.19793971327396     -6.10536123353461
  H   5.65293129548785     11.51884750194687     -4.81994947065075
  F   7.59884743699880     12.07037368887117      3.65783652809040
  F   8.91667382989055     10.46814245820726      4.27089188342371
  F   6.77859439528925     10.24423142909478      4.49563169782445
