58
Coordinates from ORCA-job 2163_0.0
  C   8.67259638401120      1.93259670417570     -0.89687925405544
  C   7.33376242042383      1.47696705620816     -0.80436390671094
  C   9.81126742087399      0.94176713856004     -0.84462953990213
  H   9.80031490774602      0.36681351075436      0.09712300647692
  H   10.78757887567360      1.44323515020601     -0.92064366827341
  H   9.74434654343695      0.20937528707860     -1.66735540617403
  C   8.90738777821975      3.30026416581203     -1.03673232245095
  C   7.82836574621952      4.20347310622809     -1.08197371439164
  C   6.50132776603962      3.72378307856436     -0.97955997362949
  C   6.25176283608906      2.35083731920157     -0.84600480450745
  H   7.14500633314188      0.40468483299514     -0.69529115303609
  H   5.22928803778872      1.97206713333850     -0.77189742429058
  H   9.92847058660110      3.68371812494432     -1.10887157949534
  C   7.84384372007376      5.63897589537218     -1.22158340389572
  C   6.60649529625740      6.21722115997541     -1.22150505661202
  C   6.37830494016060      7.70641897522639     -1.22474942933390
  C   7.72875129909370      8.49593287010755     -1.32116498912228
  H   5.88039685423200      7.98111715231169     -0.27951560379233
  C   5.32084884706630      8.05874921455946     -2.28266487859524
  C   8.91995774052607      7.64442581926997     -1.85747167723071
  C   8.05883080914023      9.35157757122639     -0.08772106860650
  H   7.57239777733816      9.23412655940630     -2.11531238358779
  O   9.01187594865687      6.32963433366568     -1.28376562078880
  H   9.85391588910765      8.13617926562360     -1.54911135711807
  C   8.90774820670771      7.52563798398461     -3.39539911584880
  S   5.32028986071552      5.02213769021025     -1.05582259105194
  C   10.09560569856198      6.78240601253041     -3.93419310617746
  H   8.85119705390133      8.53108531393540     -3.83634156148331
  H   7.98241677419746      7.00678775266757     -3.70252276390863
  C   10.75937519575753      7.04654766596129     -5.06494330464950
  O   5.82964203878135      8.55987462801817     -3.41962576498923
  C   4.89406388969022      8.84840598993613     -4.48073708338180
  O   4.14350331945894      7.86273214795413     -2.10897617166785
  H   10.43977589435268      5.92296869453856     -3.35034712164277
  C   8.25027430383273      8.88070445347404      1.24208680243095
  C   8.18244645402945     10.73147302869232     -0.33269555776201
  C   8.55322557045851      9.82280562666344      2.23970646668478
  C   8.67525194109248     11.18875520425767      1.97262270750745
  C   8.48888874969096     11.65067279320129      0.67254956186236
  H   8.02876316525885     11.09915330045752     -1.35187350279496
  H   8.70090031810092      9.48094500189999      3.26476277767991
  H   8.57543444452589     12.71437625449409      0.43610801029629
  Br  10.30549740270666      8.47112463669845     -6.24754791177600
  Br  12.23693566112565      5.99276334878432     -5.63654001095985
  C   5.66680918260242      9.41306376635580     -5.65426205388102
  H   4.13894813808166      9.55516000355262     -4.10096055842204
  H   4.36396112084293      7.91784867952966     -4.74010247814225
  H   6.18221797202246     10.34665328017887     -5.37899871714495
  H   4.97458803897106      9.63543234431094     -6.48160451188474
  H   6.42045611748036      8.69836790317188     -6.01977745796843
  H   8.91342802415206     11.88321158192668      2.78286625417407
  C   8.14414320019433      7.40593090531557      1.60469760599584
  C   8.34002075116723      7.03674855348656      3.07600673902815
  H   8.87468933801754      6.84663133337311      1.00003016145557
  H   7.16109164227652      7.02501117938537      1.28340885294390
  H   9.34326472022782      7.30772588572777      3.44323447181484
  H   8.22703242820372      5.94879372611141      3.20394361134287
  H   7.59904862489424      7.52402190440175      3.73060253144463
