41
Coordinates from ORCA-job 2167_0.0
  C   2.76379598183842     10.02389098634852      2.54487822503034
  C   1.37914159103186      9.82549383973193      1.86267632768288
  C   3.67151728624607      8.77748409550054      2.27712788190051
  C   3.74690177169335      8.56217112147897      0.78491664286238
  C   2.56012819535822      8.37361850845693      0.19038468729715
  C   1.36485523547334      8.41716977763035      1.12163028887754
  H   4.70066544025455      8.55408445448973      0.25050073121559
  C   2.97413051483534      7.55182423954101      2.91089057096660
  H   4.65372131855422      8.96013863912787      2.73224305645102
  C   0.03976789833845      8.14401274339492      0.40234586337142
  H   2.43473552082411      8.17738164356353     -0.87776573762053
  O   0.10721965660803      6.82298308967305     -0.13881107362387
  C   -0.92504061202599      6.25448094871421     -0.81906563183348
  H   -0.80073379252476      8.23403923017009      1.11099790659228
  H   -0.12963564861672      8.87113950710494     -0.40437998414930
  C   3.54808261776311     11.28414126704924      2.18349610402552
  H   2.62362902370601     10.09086543646123      3.63654287145113
  C   3.06717457992270     12.18975098497651      1.12385145410244
  C   1.85762405832798     12.02997699304180      0.53859791541227
  C   0.89689075626671     10.95450666309704      0.95895872968475
  H   0.59788398515055      9.76577943788091      2.63865329855359
  H   3.72911802365053     13.01165785611497      0.86033621026587
  O   1.30023217360394     12.80753968005566     -0.43125798272320
  C   1.86622574833433     13.92868518454625     -0.99772738584678
  C   0.92570066745565     14.48858262832100     -2.02967907440123
  H   0.71365838292120     13.72635975387050     -2.79546793629656
  H   1.37427101028946     15.37682171686152     -2.49013288887295
  H   -0.03490684775007     14.74639080133347     -1.55715463455491
  O   2.93975972806266     14.36763037448477     -0.69573290562678
  O   4.59101664740590     11.53164142012447      2.76182150642803
  O   -0.25693721204182     11.00061373847348      0.58162945697832
  O   -0.78692927633158      5.14573013157063     -1.25876250560715
  C   -2.19483886787924      7.06869903957642     -0.96990023035109
  H   -2.00429660415143      8.02376303593523     -1.48401247511860
  H   -2.63004549087902      7.31098261083908      0.01264447565934
  H   -2.91384151328895      6.47788206908256     -1.54954787040558
  C   1.59329619247953      7.35388805518340      2.24357117760203
  H   2.87460754884871      7.70838757856950      3.99737870446151
  H   3.60727306372425      6.66256813148159      2.77217100966830
  H   0.77601789669187      7.43948767599025      2.97993600627015
  H   1.50994334982848      6.36000491015153      1.78521721422103
