47
Coordinates from ORCA-job 2168_0.0
  C   2.81479577090040     10.45416661556269      2.31488824207490
  C   1.40607694226044     10.22829985363234      1.68518563057601
  C   3.72851049104830      9.21716782100501      2.02725805106495
  C   3.76671051310442      9.00821904389089      0.53240822546690
  C   2.56672402123080      8.80790065937119     -0.03051550325791
  C   1.39680408418854      8.82588646690511      0.93348840931363
  H   4.70584131558162      9.01577204605444     -0.02738463092731
  C   3.06430808087803      7.98310834334658      2.67925226405034
  H   4.72013336849090      9.41129803726535      2.45549099122007
  C   0.05998143392687      8.52803095643424      0.24533253895078
  H   2.41473845251285      8.61729791754528     -1.09623494051728
  O   0.13794096488208      7.20503841526480     -0.29199413742242
  C   -0.89358859257452      6.62249962363297     -0.95938069808856
  H   -0.76615086955582      8.60763894351791      0.97138914335780
  H   -0.13878800807134      9.24851319138695     -0.55990031010165
  C   3.58526508183830     11.72122048219459      1.93854208485373
  H   2.70815647066147     10.52549735762159      3.41092993297948
  C   3.00667255970096     12.68065294456670      0.95953423950633
  C   1.71163314565694     12.50982131984637      0.43288117234391
  C   0.84420458184135     11.36125080552430      0.82741517624083
  H   0.66468211344634     10.13513548581135      2.49658506731603
  O   4.67304441347906     11.92750287371628      2.44536728716429
  O   -0.32454398476284     11.33020389694489      0.47887245835501
  O   -0.74630305796831      5.51486145768207     -1.40004070452821
  C   -2.17690299254762      7.41830722063671     -1.09435800232936
  H   -2.00839946908867      8.37162527259898     -1.61926431815189
  H   -2.59774562458471      7.66331122888065     -0.10627908644014
  H   -2.89783142967322      6.81331052495887     -1.65678946118470
  C   1.67470058242579      7.75766723085773      2.04026118424512
  H   2.98344019324552      8.14384481267178      3.76681876262614
  H   3.71012338174852      7.10404428386062      2.53359886991648
  H   0.87140529973672      7.81812451564666      2.79419724072145
  H   1.60516223328727      6.76614029903870      1.57493710037580
  O   2.31121271002513     17.33997675645162     -1.07789590787619
  H   -0.30299812319788     17.17440918437083     -2.74032023725796
  C   1.58824684311484     16.74363819305177     -1.82614863360000
  C   0.76773395571496     17.33880874814943     -2.93979443539294
  H   0.97425375859159     18.41322941795288     -3.01240479210663
  O   1.37969491092232     15.38702964118153     -1.77644419902325
  H   1.00128068381557     16.83767409497711     -3.89172867906335
  C   1.96232590853185     14.55408121746142     -0.84285231128260
  C   3.26103321047802     14.73182892203137     -0.33107923551388
  C   3.76384832053746     13.79729633671255      0.56879239368432
  C   1.19358146141223     13.45578254161422     -0.46132770064093
  H   3.85608415096568     15.59400750322101     -0.62481242480156
  H   4.76322746483814     13.91377280579279      0.99274039872131
  H   0.18523327700357     13.32563468915632     -0.85622651561689
