53
Coordinates from ORCA-job 2170_0.0
  C   1.36370471624829      1.74841842079608      0.13198995516775
  C   2.18658036942764      1.57145853590526     -0.98881486065370
  C   4.74285039085126      4.16751601233546      2.52467554453732
  C   3.30509747168773      3.83655521834862      2.36015336109423
  C   2.87794531149197      3.43323226645748      0.99222688344453
  C   3.72501654059283      3.29972550041747     -0.05627677499192
  C   5.13929193565695      3.75067707944426      0.09435398785059
  C   5.57979131640129      4.12410135760892      1.47526481900724
  C   3.00911974446283      2.84016165574365     -1.37452311529514
  C   1.41879781667938      3.17115622993810      0.68303351863618
  O   3.78539133043927      2.71264653263841     -2.51272064803349
  C   5.84719339692480      2.40026125642600     -3.59963934346887
  O   6.88684116137649      1.43229679603482     -3.78879937078247
  C   7.85210624197133      1.74301474481568     -4.67932180051420
  C   4.88374940298473      1.80869816687040     -2.58512689473286
  H   4.56346739986387      0.81147070894679     -2.92807943775515
  H   5.38149708719739      1.67997065581189     -1.61294786360677
  C   -0.27547210646480      5.81173842490369     -1.70090961333154
  C   -0.05137877444918      5.01140603089642     -0.46946632272380
  C   0.51611723006463      5.66724678978223     -2.77705228638708
  C   1.09368931059158      4.06623576085088     -0.50781339312128
  C   1.66644314433919      4.70754101663430     -2.83007498991730
  C   1.90252136283291      3.91429260803651     -1.58289415010644
  H   0.76388152092952      3.35188827289436      1.54123549930376
  H   5.06275631421540      4.45280569936910      3.53035601374042
  H   6.63922872798165      4.38256044472865      1.55426614790090
  C   2.15423068167072      0.38254186497840     -1.71058325675693
  C   0.55096735667205      0.71523118972204      0.58716206157080
  C   0.55201128822597     -0.50652808224306     -0.09774424335692
  C   1.33852829252990     -0.65994130466507     -1.24061817160290
  H   2.73014242637472      0.25578755281490     -2.62016697907769
  H   -0.09225426444344      0.85781999135702      1.45908697553882
  O   -0.76456636206987      5.12141010467769      0.51395326602142
  O   2.32668264533992      4.61951552866394     -3.84606370635551
  H   0.36981962476132      6.24246693866208     -3.69541647266457
  H   -1.11479567797625      6.51181774479343     -1.67216291930644
  O   2.51649500597593      3.89031923191270      3.28783744223787
  O   5.92756808188103      3.86306864866298     -0.82801088501973
  H   5.32821796917208      2.59618240142972     -4.55129387282990
  H   6.26553939930490      3.34795450332421     -3.23504319515728
  C   8.87908616323949      0.63915456838311     -4.76956600159971
  H   9.33607347641103      0.46927711939613     -3.78212095104709
  H   9.65082769869980      0.91374049863080     -5.49880706211834
  H   8.39348783447512     -0.30297398943539     -5.06850181623001
  O   7.86832932590725      2.77152635420515     -5.30734187442050
  H   2.62097234251473     -4.31456497806879     -3.59557816741766
  O   3.37773630302243     -2.08672473660124     -2.53400712892497
  C   2.25330865088402     -2.50765296538633     -2.51055610650245
  C   1.77642652377068     -3.79955990031673     -3.12240451638416
  O   1.20393794523668     -1.86697522954159     -1.90996237870707
  H   0.99292841668609     -3.59227138549774     -3.86811287667848
  H   1.32614335678477     -4.43961849375912     -2.34793032824131
  H   -0.07394286935027     -1.33934936273484      0.22855829976992
