55
Coordinates from ORCA-job 2170-2_0.0
  C   2.13461224140522      1.45268313966248      0.81725653602871
  C   3.02460636981239      1.24648282998849     -0.44668953280993
  C   4.66964160471193      5.27528523935940      2.23703793026276
  C   3.38838256012439      4.52532859815802      2.26453540637897
  C   3.07114317402407      3.72186968721828      1.05222183949786
  C   3.91693050563117      3.58228070874134      0.00073085883444
  C   5.20677649190209      4.33469720222004     -0.01390424350693
  C   5.49561641290965      5.18768032621810      1.18114404708843
  C   3.35444080003470      2.68586990840580     -1.12399385499675
  C   1.76573168744715      2.99472285463947      0.92647624524762
  O   4.13877089191258      2.57401088504908     -2.26307273262705
  C   6.13844276134311      2.25314281005314     -3.44991044687946
  O   7.27435809893719      1.38273398125965     -3.52354864118554
  C   8.14222846882516      1.59660163108805     -4.53528087458011
  C   5.32612504604285      1.79941721451716     -2.25025609399804
  H   5.10031882848614      0.72230953571827     -2.34881595329741
  H   5.91095891227349      1.94947524712589     -1.32896562967275
  C   -0.73624702435244      4.20837187637078     -1.84229335881691
  C   -0.25197461309000      3.84766262937126     -0.48588712156043
  C   0.05739463159675      4.07743693879677     -2.91864892773686
  C   1.15750892885408      3.38302417810165     -0.39558665747816
  C   1.46299302489820      3.56332673522252     -2.84618424211948
  C   1.96937239539125      3.24656673322726     -1.47246125402327
  H   1.09528818164097      3.19288550751993      1.77019695528933
  H   4.89163271245528      5.88650174098720      3.11592192536681
  H   6.44610215473900      5.72580602390716      1.13018945871331
  C   2.47858596768946      0.30740375133308     -1.49605172005986
  C   0.88603188462202      0.61222438921520      0.87770320343363
  C   0.51778332770911     -0.22367562436096     -0.10241187448849
  C   1.33120505170724     -0.37122516766633     -1.31376955355049
  H   3.05002640439349      0.17879365902685     -2.40964782000956
  H   0.26873386977247      0.71951248418765      1.77457574946118
  O   -0.96840180134467      3.92520833566775      0.49859946794182
  O   2.10192878992189      3.43041664825834     -3.87113733097166
  H   -0.27683240814005      4.32796793345125     -3.92932025252370
  H   -1.76513681652027      4.57310598529327     -1.90446251273363
  O   2.63617432211865      4.56650840632911      3.22370340052538
  O   6.01946100902645      4.29701021063346     -0.92189313440497
  H   5.53925029946774      2.18319348814719     -4.37133904070828
  H   6.46013623791876      3.29701193358107     -3.32680232314871
  C   9.26812574558808      0.59028428753280     -4.50263312186191
  H   9.71574821489894      0.54625349630205     -3.49833480031394
  H   10.02517837074683      0.86156928750451     -5.24844507242110
  H   8.87159570579055     -0.41301146235203     -4.72762334011283
  O   8.00691502312843      2.47337181729799     -5.35059213039190
  H   -0.55794713562377     -2.23714257114226     -4.24469921518554
  O   2.42348540640199     -1.47739331979368     -3.71726880341612
  C   1.32769168527869     -1.77205032464061     -3.32209402512348
  C   0.38488646129850     -2.74432131642957     -3.98658290286389
  O   0.74765716145955     -1.27176546532955     -2.19258852156510
  H   0.13489593188559     -3.56202953222604     -3.29268934603555
  H   0.85480374018366     -3.14720578453599     -4.89177129979897
  H   -0.39392885428148     -0.82160022845568     -0.03565739102523
  H   4.00554479914278      0.85849135868708     -0.12840682386314
  H   2.72667635780284      1.22917916155684      1.71917889779694
