91
Coordinates from ORCA-job 2172_0.0
  C   1.43167246397763      2.60788821232374      0.19897644553723
  C   2.20440565321673      2.50564008933623     -0.96613327277345
  C   3.62347299623210      4.03284835019994      2.65216632676461
  C   3.14728954206286      3.97253263419610      1.24639194801259
  C   3.95336849963089      3.87672571708928      0.15833024430083
  C   5.43018570762728      3.85484183996930      0.32050900520479
  C   3.15338725102576      3.72411153174012     -1.19236177678086
  C   1.65879462169748      3.91160028945475      0.95415714811216
  O   3.86316873651733      3.74735011041981     -2.37835686234794
  C   5.86687794093612      3.36649486966745     -3.56899615299691
  O   6.57191422362480      2.31885441372964     -4.24880303474390
  C   7.70978571309474      2.65918727096340     -4.88679382867494
  C   4.70448792677036      2.69944394472381     -2.85265888383844
  H   4.16342466232531      2.07662543175163     -3.58436792486646
  H   5.06623848295060      2.05264659560143     -2.04227924407351
  C   0.02514010223604      6.97998317718126     -0.96281293510828
  C   0.39768689269143      6.06323210719824      0.19472148632226
  C   0.97057229363321      6.96999281487796     -2.20157216479376
  C   1.40278054957646      5.00766459551261     -0.07027222341322
  C   2.21248079810774      6.07156238435756     -2.15716839987575
  C   2.19031266190645      4.94847220583927     -1.17184209598127
  H   1.04987167145231      4.02348627739303      1.85616147384198
  C   2.03900830098218      1.42417277039500     -1.82907037512000
  C   0.51921591148677      1.61396073271618      0.53988906850983
  C   0.37443714255198      0.50359917150240     -0.29764676204759
  C   1.12416253728550      0.41953002302972     -1.47297015714081
  H   2.59315397697781      1.34200135309105     -2.75461036441129
  H   -0.08236188404384      1.70338776323280      1.44760244167201
  O   -0.12459931727233      6.18145740844578      1.28526758295252
  O   3.16191986712244      6.33440400915510     -2.85911973169079
  O   2.88035287726993      3.77902725288594      3.57823779288957
  O   6.19559248233916      3.43101255976077     -0.52154517416521
  H   5.49139546930845      4.10686556120351     -4.29377339533043
  H   6.53268999302389      3.88133564036184     -2.86428998674609
  C   8.34035381567242      1.45410285963465     -5.54498632556930
  H   8.52552987606546      0.66818085258212     -4.79649755546494
  H   9.28072112128889      1.74820339490891     -6.02670720892129
  H   7.65072041073884      1.03285624561764     -6.29340782492306
  O   8.14396261323034      3.78322146476799     -4.91830295968161
  C   -1.38280668773246      6.63267525621558     -1.58888309340522
  C   -0.00722955482852      6.61608907049549     -3.38018643075174
  C   -1.28887278968917      7.43513280378169     -2.95015722245289
  C   -1.33839933551552      5.20690303503740     -2.11218358100688
  Cl  -2.74227973054736      7.02080181434114     -0.50995010290190
  C   -0.51767156448392      5.19753555804534     -3.17737942085929
  Cl  0.63546473611977      6.95275602861310     -5.00293262758642
  Cl  -2.07235877793521      3.86560312607085     -1.33715994971284
  Cl  0.03059875504250      3.84374586461796     -4.07270643940465
  O   -2.26821417817625      7.23245207814358     -3.89676402785115
  C   -3.59951219853538      7.65800325587805     -3.61930977594826
  H   -3.61736914469252      8.61245325995948     -3.07022997031141
  H   -4.14363860839438      6.90071770411934     -3.03319710475825
  H   -4.09259992271011      7.78544956484175     -4.59364467866407
  O   -1.09637689854768      8.77329202109737     -2.64211731516595
  C   -0.87117350677290      9.69582636345718     -3.70739927574882
  H   0.17397777574941      9.66263363854189     -4.05381247369476
  H   -1.08918791117231     10.69351264071115     -3.30143863520067
  H   -1.53189901722568      9.49325585316352     -4.56381753653572
  H   1.34868526639559      7.98311161041280     -2.38969520068242
  H   -0.05526397431859      7.99633177409958     -0.55652713357025
  Cl  5.10522001015315      7.45104939295739     -0.32583904046028
  Cl  7.97211539988502      6.04713622837323      0.49636939767605
  C   5.38878494873292      6.77784828735833      1.22213794201691
  C   6.55032917161762      5.84916868595796      1.54267350524096
  O   7.23958309936458      7.46017890279483      3.18066315590016
  Cl  3.06191078046082      7.58588837125188      2.45656909614402
  H   8.03468789172325      8.87736999324551      4.39729942201105
  C   4.59485116638938      6.83039638621075      2.30631526867711
  H   9.16339364058116      4.63215507383176      2.74812122349358
  C   7.27438109411050      8.08593589187151      4.46092333776861
  C   6.75112156279272      6.17735655714184      3.07605737680200
  H   6.30026051078907      8.53680474638992      4.70774625333630
  C   6.00731173357808      4.37445169780234      1.63977888422869
  C   8.88849410664107      5.20004407477049      3.65112692042395
  C   5.21407117722599      5.93236139252385      3.36289056496617
  H   9.32701843371459      6.20670644614987      3.57919156287323
  O   7.47239244547452      5.25620625595779      3.82001856276029
  H   7.54836513838695      7.37470839935343      5.25576324692253
  C   5.07282457708094      4.43338946715096      2.88236490466667
  H   9.28433936550858      4.68772771710187      4.53908888433605
  Cl  4.64695660412893      6.18552315770091      5.02831033862904
  H   5.46666160145653      3.80312891116251      3.68997455894459
  H   6.87134606985932      3.73161437128085      1.85254780298890
  H   0.75318147466835     -3.18577508178896     -3.03019843337162
  O   0.84531433919511     -0.67984309094618     -2.27206990462452
  C   1.11650176211658     -2.46337679032064     -3.77766318370717
  C   1.75849551484029     -1.28710362897562     -3.08704902156207
  H   1.84701595984097     -2.94154252672001     -4.44106273094683
  H   0.24173908719472     -2.12688768277731     -4.35575741084708
  O   2.89655224235442     -0.92634539303410     -3.22115004616485
  H   -0.33028822721739     -0.29636246223976     -0.06257478554803
