87
Coordinates from ORCA-job 2174_0.0
  C   0.49597759959516      0.62704066809656     -0.71800669393849
  C   1.20864736477980      0.29177584232122     -1.88455149794756
  C   3.60163877509035      4.03210069266835      0.32906103718698
  C   2.30439144503564      3.52712549291861      0.47201342006652
  C   1.76882468054308      2.70638352271001     -0.52126061411193
  C   2.52182111390362      2.38120000301374     -1.67191976784896
  C   3.80882704483349      2.90722407052535     -1.81704918469368
  H   4.39729394663896      2.68279005567040     -2.70412952478542
  C   4.34421176373120      3.72473996283367     -0.81286410322502
  C   1.72007759971773      1.52000943131589     -2.66609078388136
  C   0.36977619247183      2.11952217768099     -0.49762647711968
  H   1.70774434272807      3.77466406852472      1.35434202176659
  C   -0.39247347127181      2.65983865826165     -1.75560716082362
  C   0.44215229070936      2.37526359020073     -3.01504222447376
  H   -0.17799428544040      2.37088786306399      0.42023284875881
  H   4.02761351893120      4.67093715368076      1.10700631786505
  C   1.39321330488100     -1.04986431055523     -2.22220575887471
  C   -0.02498249401027     -0.37141830787361      0.10432204885597
  C   0.16936302903706     -1.71715897943051     -0.23296246365276
  C   0.87444251616275     -2.05232712278809     -1.39120218396560
  H   1.02548303180521     -3.10234680065169     -1.65463080995717
  H   1.93655762690110     -1.33129291135793     -3.12590926947840
  H   -0.57779219581736     -0.10204768599780      1.00877551898272
  H   -0.23088857097838     -2.50405339198310      0.41154699840643
  C   0.82362406099732      3.74912761658100     -3.56750305275283
  H   -0.12026080226022      1.84141828281548     -3.79436504107200
  C   -0.59112856855611      4.17054538565630     -1.71714075428380
  H   -1.38836282026460      2.19414699364683     -1.78811598885832
  N   0.14394715015893      4.72597983447716     -2.79383631465532
  C   0.23826372532106      6.12018185555916     -3.08837926561417
  O   1.59268713277335      3.98816022045237     -4.45689601738577
  O   -1.26831402723608      4.78576203759920     -0.93815307702554
  O   0.18181893592993      6.56954341423626     -4.19377623714754
  O   0.41904472866878      6.79219811685852     -1.94325967188018
  C   0.38950003493852      8.18467952380553     -1.89112358496265
  C   1.11638254728032      8.99173292657648     -2.76980370814299
  C   1.08371115913333     10.37320840384143     -2.58980464622697
  C   0.33950716051368     10.94128443330384     -1.54697156113327
  C   -0.38925258258811     10.12610875045086     -0.66976896747138
  C   -0.35571470884871      8.74092652156088     -0.85312929527752
  H   -0.91041616194722      8.07368325940619     -0.19034552983995
  H   -0.97252595172665     10.56535251966321      0.13451005026751
  H   1.69148151337362      8.55168300123796     -3.58372761208495
  H   1.64006121535041     11.03510489319284     -3.25639968198755
  O   0.42423335211820     12.32385359862156     -1.48758709124493
  C   -0.26555068623726     13.13900063344367     -0.64215595461288
  C   0.12438875966017     14.57411035698371     -0.89679696147972
  H   1.20885485274280     14.70055499601088     -0.75348644224511
  H   -0.42615705792726     15.22869928498620     -0.21055901898714
  H   -0.09983208936530     14.84574598428347     -1.94021507973804
  O   -1.06154978064044     12.76666715058391      0.17845522074027
  H   4.06847832700957     -0.90225648204908     -9.61160259564593
  C   4.57351703532385     -0.64493815401840     -8.66576842583125
  H   5.63042812808273     -0.43420626656469     -8.89137230869344
  H   4.11763178993179      0.28246921212545     -8.28465727326672
  H   3.36254340883581     -1.96516887451918     -7.45427627902469
  C   4.43106050454530     -1.79187431533288     -7.65809601339332
  H   4.80503547816329     -2.72952589639477     -8.10243906842768
  H   3.93732573438407      0.96602964372745     -5.95592406471905
  H   6.82277295335741     -2.46475329538280     -8.26322853751921
  O   1.72134933777156      0.83268135394070     -4.97441951363349
  C   4.37159450856320      0.44466698797972     -5.09176433814152
  N   5.08957256376566     -1.57833269033989     -6.37231175067404
  H   5.41337633714462      0.76460313193191     -4.95585941068546
  C   7.25722010275302     -2.29480180590339     -7.27891154591784
  C   2.36494784470973      1.06559746681779     -3.98052634790941
  C   4.28474709528699     -1.07897368751756     -5.27488774494554
  C   6.45398338544730     -1.81479526276096     -6.21146761361545
  O   3.68807132237969      0.86571601710518     -3.89384956380294
  H   9.17282713731321     -2.92890650586075     -7.97120333550834
  H   3.23488849463376     -1.34522872425721     -5.46552306743309
  C   8.61126440509957     -2.55914375669521     -7.10954161923970
  C   7.11270630910180     -1.60474301003993     -4.97575419582555
  H   4.57252785035352     -1.56718013043557     -4.32861106314115
  H   11.28865361034946     -3.29812560917062     -7.56767862756777
  C   9.26751867758517     -2.36077033798114     -5.87865290426594
  H   6.56851534037529     -1.22518942616679     -4.11117560226707
  C   8.47127624997084     -1.87550819596805     -4.82559780763972
  C   11.60308811955685     -3.07843102856447     -6.53943190769290
  C   10.69654889087827     -2.62200702339847     -5.65602618244761
  H   13.33092473929191     -4.37518049761013     -6.41634063511545
  C   13.05114195708320     -3.32110697755660     -6.23507766610872
  H   8.93263572783876     -1.69907048329962     -3.84893639584806
  H   11.04341059169001     -2.41156393658488     -4.63552558506052
  H   13.29498107985723     -3.08088463604749     -5.18801993812538
  H   13.70751504779322     -2.71366586593606     -6.88503190483658
  H   5.35435265243057      4.12560532404394     -0.93130557403668
