46
Coordinates from ORCA-job 2175_0.0
  C   3.42188211205004     -7.34231100519306     -0.62555056796514
  C   2.86952842145896     -7.76318139823046     -2.00088490904232
  C   2.96698035775523     -6.62628650925969     -3.04502641831489
  H   1.81575365013445     -8.07406039801484     -1.89839232963868
  H   3.41678421737533     -8.65177763687648     -2.35635446764511
  C   4.06327923552596     -5.60016833296161     -2.68063925718345
  H   2.00119310113664     -6.10203944648196     -3.13902925134535
  H   3.19031025929244     -7.04220489502117     -4.03849362318998
  C   3.71947706634934     -4.84786139351985     -1.34410474033907
  C   3.10911574880283     -5.87254977484869     -0.32092519906107
  H   2.01261691413291     -5.75610141895137     -0.33637200860068
  H   3.41189447563699     -5.61785565846137      0.70728019927657
  H   4.50931551718475     -7.51379500850693     -0.58884188395044
  H   2.99418209647928     -7.98074885382430      0.16542225954976
  C   4.37120368739135     -4.64471112289134     -3.81229984879277
  H   4.98105939889098     -6.18997733244434     -2.53601037591359
  C   2.65676450912607     -3.72960010971918     -1.61368754851812
  C   5.05821526761837     -4.27164047888547     -0.82614975898782
  C   2.90160079507061     -2.82150094200052     -2.86344332855733
  C   2.31516892804963     -2.87734084399646     -0.36907665963177
  H   1.73830053108534     -4.29460098535206     -1.84716751853976
  C   3.85453495597056     -3.40125077386434     -3.86191499328976
  C   1.39800946325879     -1.70711630240547     -0.74236948413619
  H   3.23440176447856     -2.48403580588364      0.09131607775366
  H   1.82637259182546     -3.50942608201751      0.39002737071000
  C   2.10353663844647     -0.70227915814666     -1.68341868018432
  H   1.04447240658577     -1.19352200042349      0.16677493597942
  H   0.49253066839313     -2.11006923308673     -1.23161292611537
  C   3.23452094093128     -1.35732850998763     -2.50212744796512
  H   2.52665175536975      0.13000415732345     -1.09616608586657
  H   1.35757059974581     -0.24813667982931     -2.35845428099273
  H   4.17565807817648     -1.35039534283465     -1.93684142859970
  H   3.41133227430850     -0.78084475501254     -3.42657035247054
  H   1.93214497033032     -2.77298998743023     -3.40287384764005
  C   6.06225808931366     -5.20215561205168     -0.15706659712404
  H   5.66332273918786     -5.59766272785660      0.79029983424977
  H   6.97602087362290     -4.62983200533251      0.04971881884414
  H   6.30917512589494     -6.06725431430668     -0.79070150357186
  O   5.34492642689417     -3.09978607452639     -0.96376249451502
  H   4.11205261467937     -2.74253902720194     -4.69793606703387
  C   5.29459681137703     -5.16317022846869     -4.87027519527339
  C   5.65385133504941     -4.28458868121366     -6.05934311175761
  H   4.75685667397844     -4.01304190027505     -6.63882862267656
  H   6.34521350941243     -4.84273578788087     -6.70386311869994
  H   6.13363584180326     -3.34756920464976     -5.73512412380368
  O   5.75762656041791     -6.28893041719599     -4.78105943942952
