78
Coordinates from ORCA-job 2177_0.0
  C   3.94340626603434      5.34973996904776     -3.28663319355588
  C   3.90996713841120      6.66611508569119     -4.08572623975727
  C   2.91464945218860      5.55907946314772     -2.16858090485851
  N   2.49674044323080      6.90229049573640     -2.19471381617587
  C   3.05970689473543      7.62414238416190     -3.26934935495379
  O   2.54115079885543      4.72572846541661     -1.38213333625411
  O   2.86549542618824      8.79159188192806     -3.49747752556335
  C   1.59192339256868      7.46881316728000     -1.24306528397969
  C   1.69724472697328      7.13894066471993      0.11415582295495
  C   0.81511609330220      7.67907458289409      1.05248377477998
  C   -0.17770655836177      8.56748343244557      0.62371884851261
  C   -0.28711850966223      8.90225682193334     -0.73057495415432
  C   0.58944903679556      8.35506290744539     -1.66378058259020
  H   2.46333912933009      6.43971113985603      0.44736203250734
  H   0.91112464638209      7.42029181781461      2.10382535353217
  H   -1.07385300305204      9.59294999362979     -1.04027916833809
  H   0.50357725883588      8.62838467128978     -2.71456347852039
  O   -1.14287567405027      9.13398863758674      1.44146387469679
  C   -0.99466446004334      9.36047269946416      2.77941486228907
  C   -2.24886920317104      9.99554881801156      3.32569667771743
  H   -2.46377469413081     10.93221254529671      2.78837871443880
  H   -2.12100492463097     10.19374235291080      4.39661345143909
  H   -3.10751907329542      9.32462550085685      3.16537542592667
  O   -0.01003088631721      9.09229991809830      3.41307111070249
  H   4.89965191966121      7.11138163662273     -4.26264739919045
  H   3.43453453482382      6.53508338543715     -5.06996392222925
  C   3.72403631756158      4.08187210652960     -4.07536948451456
  H   4.90932183254872      5.25841849869794     -2.75834971672600
  C   4.73692189435546      3.27579792042511     -4.44658311647474
  C   4.51127424659217      2.03100917988881     -5.28882035227338
  C   3.25051601968264      1.27929212987552     -4.79169362723343
  C   2.05463026400780      2.20988203378388     -4.51696940870420
  C   2.33614543080827      3.73767590663157     -4.59651295668043
  H   1.57456141321680      4.22144267613583     -3.95990666452081
  O   2.20565932123792      4.19032732699900     -5.94215115933519
  C   5.81039019269689      1.26618562540765     -5.31289787604240
  C   6.84411400612743      1.90123238266241     -4.74988570791178
  S   6.45546656028706      3.48306932143368     -4.03836007322868
  H   5.89579221783482      0.28588920491734     -5.78439118006339
  H   7.87546426747099      1.55085784805736     -4.68982948515916
  Si  0.81044635688139      4.83060065158313     -6.67244671331623
  C   1.30031459202615      5.08239971947042     -8.46652092359438
  C   0.34994794645332      6.46228871174606     -5.84555514652655
  C   -0.63362628008044      3.62592055383150     -6.51518105805293
  H   1.14692826626393      7.21751918018277     -5.94558690120055
  H   0.13811768830766      6.32969255316838     -4.77103222810159
  H   -0.56174473992302      6.88037324500026     -6.30564196525850
  H   2.16178612994024      5.76489422128602     -8.54984525689202
  H   0.46791602359247      5.51425342640182     -9.04714816894594
  H   1.58150938478170      4.12615805688212     -8.93750522404741
  H   -0.42633950962273      2.67028465991457     -7.02547578215329
  H   -1.54083516341227      4.05511715929950     -6.97399982216602
  H   -0.87042476592344      3.40719443334164     -5.46027685160824
  C   3.46495423392747      0.51998171164812     -3.47961118352481
  H   2.98765650452611      0.51601235913387     -5.54256742404020
  C   1.56330808317197      1.82879094565281     -3.12232431860888
  H   1.22232806878386      2.01049005496996     -5.20571321546003
  N   2.44373752940214      0.87820774556392     -2.58177823135609
  O   4.33820809163383     -0.28073358086021     -3.25435335109506
  O   0.57447902945528      2.26106040250095     -2.58453810051024
  C   2.30933801354552      0.31796459731941     -1.27289751834269
  C   3.44156241710133      0.14831873129165     -0.46276090448703
  C   3.30573644240396     -0.40543054731144      0.80622487047273
  C   2.04442068541417     -0.78529735363260      1.28328893688451
  C   1.05174837623559     -0.06408189279125     -0.79275646424673
  C   0.90719843494048     -0.61263835399520      0.48469305344068
  H   -0.07262633910951     -0.90478037025758      0.85113649249683
  H   4.42571793721667      0.43925063017767     -0.82789568317198
  H   4.17531838519221     -0.54790652351399      1.45078457763017
  H   0.16640149239541      0.07957519649312     -1.41124539427926
  O   2.06425475702486     -1.30927136719694      2.56669437920082
  C   0.99963197097101     -1.81182084368682      3.25093441224888
  C   1.45207292398225     -2.27987477254826      4.61236562387707
  H   2.22369800294016     -3.05835666232213      4.50524019052289
  H   0.59210588249514     -2.67575651070312      5.16582119033343
  H   1.90738737120102     -1.44420168951524      5.16632035232094
  O   -0.12534656678714     -1.87337587565711      2.83097929288060
  H   4.27173818662056      2.36105279696258     -6.31822552183057
