78
Coordinates from ORCA-job 2178_0.0
  C   0.16061492488190      1.94917473104138     -0.48422505396304
  C   1.43296429940706      1.96102255895277     -0.94622955608803
  C   0.46470086366936      4.15554161907880      0.53647346654330
  C   1.71936104892585      4.16133457698526      0.03595030832054
  C   2.00071851476255      3.32913497476179     -1.22628338387489
  C   -0.51649306914364      3.30269552802838     -0.33473427913071
  C   -0.79928354615040      5.40640108513289     -1.83739358257884
  C   -0.42116363415538      3.92969644230623     -1.79884949614810
  C   1.33561654413384      5.30479172983989     -2.78961713400462
  C   1.01396900874425      3.88036589944637     -2.35112887949288
  C   2.00535544206649      0.59594734182575     -1.04354879149194
  C   -0.26278889570395      0.55354888331368     -0.17052486599154
  S   3.16696540291440      5.00655704212179      0.59555980857550
  O   2.32215381626862      5.67969051687241     -3.36901472671368
  O   -1.83682729141274      5.89971557419737     -1.45449074847381
  N   0.25205188977687      6.12406330827097     -2.42038562042559
  C   0.22065060186911      7.53647943836022     -2.64248491254514
  C   0.45160921359031      8.05274672472200     -3.92417759258359
  C   0.41925962425197      9.42872745988777     -4.12921028159964
  C   0.14833871984811     10.29663889959245     -3.06248747408272
  C   -0.08294911974739      9.78854477870904     -1.77725995221536
  C   -0.03758513867516      8.40610341188115     -1.57917038366107
  H   0.66341020242136      7.38080921606788     -4.75656841539600
  H   0.59838993109781      9.85350359263086     -5.11874844244652
  H   -0.28668332536061     10.46019168418316     -0.94838274217142
  H   -0.20260940952972      8.00497727427992     -0.57855954093730
  O   0.13706454655316     11.63440337395581     -3.41939116778225
  C   -0.07637058689184     12.69352259340298     -2.58772852522555
  C   -0.01599554664683     13.97527014561798     -3.38106275141947
  H   0.96406207770012     14.06717202024967     -3.87465902640558
  H   -0.18266542101681     14.82706757347458     -2.71091919488220
  H   -0.77976261955514     13.96246339367871     -4.17431038529690
  O   -0.28095660670353     12.61179552887118     -1.40606961352259
  H   -5.86809526471379      4.67853421896865     -2.18255664101930
  C   -4.93845137046149      4.83263496636753     -2.74777018212483
  O   -3.97041685723857      3.42003292847334     -1.13522321725446
  H   -5.13213535137295      4.85572884214986     -3.82755685016278
  C   -1.94539497421383      3.21687614358013      0.23764307169064
  C   -3.92600367446683      3.76279269525290     -2.43298890264859
  H   -4.50658800666595      5.79842572522332     -2.43781087680199
  H   -3.58183450527327      1.80240017228289      0.02557949309734
  C   -3.00632828689913      2.48792983758077     -0.60805906005128
  O   -3.14955909672521      3.28886678336440     -3.23405485359729
  H   -2.58191608854476      1.90495139007972     -1.43551446986078
  C   3.46823215041854      3.44580308269431     -1.52332245190179
  C   0.94650473617266     -0.36314122961696     -0.44821275671502
  C   0.68480127580692     -1.60055709785052     -1.27895972049667
  H   1.33529547740420     -0.67585621149077      0.53889100723375
  C   -0.29094273901905     -1.61844010107121     -2.28797741161940
  C   1.46954516235206     -2.74670218733498     -1.07999241983446
  C   -0.48216356529739     -2.75897354028568     -3.07253075010354
  C   0.30276463126683     -3.89685063065743     -2.86384820348536
  C   1.28122070072595     -3.88665144302561     -1.86533570912591
  H   2.23768209520616     -2.74481705564840     -0.30185064757666
  H   -0.92049414141657     -0.74180858737163     -2.46041497688636
  H   -1.25175486528111     -2.75784244578781     -3.84903960779556
  H   0.15039792641377     -4.78961847019114     -3.47606082604193
  H   1.90025435913552     -4.77129719017694     -1.69375604902630
  O   -1.33930655402525      0.19360186383513      0.24980616115214
  O   3.08587733997772      0.28654403516874     -1.48677563431597
  C   0.08032955640230      4.85046613500143      1.79676420439657
  C   0.73468310222315      4.50170281458290      2.99489261555144
  C   -0.89088772085320      5.87071105141841      1.84116963767174
  C   -1.19331580111837      6.51517267781986      3.04383465400581
  C   -0.53632154113972      6.15697757320945      4.22497603812099
  C   0.43006279454271      5.14760917576210      4.19572890660196
  H   1.49067661226585      3.71273641501187      2.98043143907753
  H   -0.77564332602746      6.66341686965676      5.16376882088923
  H   0.94996148484382      4.85772410644495      5.11285897241802
  H   -1.40761892298228      6.17144006029178      0.92765377047874
  H   -1.94687699519227      7.30725338792187      3.05421134629173
  C   4.13443921313293      4.25494720146130     -0.68963783091093
  H   3.93343159391050      2.91276787189328     -2.35230575037535
  H   5.19784138375756      4.49555200212535     -0.73295320535867
  H   -1.87262819282246      2.72281133001903      1.21731517580506
  H   -2.32915028140078      4.22582518048606      0.42490524953004
  H   -1.12951306761477      3.40637690059529     -2.45856024631954
  H   1.11450713261738      3.23004383004349     -3.23236837549007
