98
Coordinates from ORCA-job 2182_0.0
  C   5.45956521884950     11.25011370889640      4.79564394936271
  C   4.04836010973078     10.73520573381737      4.43178652908978
  C   6.28767520224715      9.89463601050936      4.77192437695518
  C   5.80944005406410      9.10807020340674      5.99640585288996
  C   4.58524058514517      8.66686613892106      5.68769292666025
  C   4.31554081269278      9.19377449446108      4.28319943939873
  H   6.35506945441431      9.01990916549167      6.93624017645457
  O   5.62041697159437      9.20957274676656      3.70462742792025
  C   3.71873074711425     11.38168919454724      3.09050924562261
  C   5.82670903540976     12.20498576580029      3.66368579420042
  N   4.77912872188476     12.22709528489802      2.74587961884143
  C   4.83526456934618     12.98455132557666      1.50430635298144
  O   2.73269693035361     11.20024327369116      2.42102329343676
  O   6.84777559198869     12.84422544262171      3.55005687912488
  H   3.87234983866187      8.12955523741495      6.31455782194996
  H   5.55161475893310     11.77221434191432      5.75796150372765
  H   3.25219944465181     10.96094195503803      5.15509903458262
  C   3.87345653796130     15.25266050058970     -0.40629190831301
  N   4.23616405752227     16.03271878612874     -1.46475797840470
  C   4.54900714531201     14.47326514349487      1.73250412959333
  O   4.83327408378787     15.23430391537973      0.55844056318285
  H   3.59760678722305      8.66084093312433      3.64820641085032
  H   4.08697677553526     12.55770757090011      0.82318927768129
  H   5.84318382949415     12.87500984142069      1.07566713656623
  H   5.22089756970421     14.87206867055423      2.50478149551528
  H   3.49925088786216     14.61834703514607      2.02893815969686
  O   2.82628982829993     14.64647083145528     -0.32705692692743
  C   5.46301654328397     16.79098698872243     -1.63896666904454
  H   3.54580562594315     16.03141112432812     -2.20632894826040
  C   5.36041394093379     18.32647239374405     -1.40568862327180
  H   5.82985696748333     16.62144754984413     -2.66670390388417
  H   6.21473694057389     16.37236792532577     -0.95639508803457
  C   4.88480570044987     18.59441436272084      0.03600719183704
  C   4.36819492469663     18.95288532624280     -2.44063792890934
  C   6.78643181751345     18.87851846692620     -1.61653167815007
  C   4.62211140953573     20.07942139924539      0.37956284711886
  H   5.61265829499092     18.19043996227475      0.75575859225736
  H   3.95134297907994     18.03777706192847      0.20181532365928
  C   4.24241751743024     20.92586954948210     -0.85799548685535
  C   3.48464197969396     20.14341408253541     -1.94991743640328
  H   5.16762740461117     21.33216926791849     -1.29665407713910
  H   3.64857570326824     21.79804499528233     -0.53482646380718
  H   3.68641833919084     18.17750771687061     -2.82864287169618
  H   4.95746336678053     19.28434080601535     -3.31194552139383
  C   2.12117832047397     19.64477541665610     -1.42286977237127
  H   2.21393989363252     18.90371760348201     -0.61514994843922
  H   1.54527648337697     19.16860782572586     -2.23379628442230
  H   1.51857019404108     20.48515013777461     -1.03938038944827
  C   3.21439861241341     21.08837649929248     -3.13611330349299
  H   4.15038041221974     21.52379508494913     -3.52317498413681
  H   2.55184195926756     21.91935896944340     -2.84175714649945
  H   2.72592638512158     20.54970674056070     -3.96524352583431
  N   5.76378021945868     20.66132865936809      1.05749727279844
  H   3.78151010860329     20.10172159269632      1.09417504936040
  C   6.17067362595718     21.65239039200136      1.60239751938233
  O   6.67350936501308     22.56117675361623      2.15543385950986
  H   7.15247736212660     18.63719593022321     -2.62887526012081
  H   7.48978462318882     18.43983221432615     -0.88979339264966
  H   6.83700519514511     19.96958028427121     -1.49658332069709
  C   7.77642551778586     10.02036702740217      4.54834494737745
  O   8.35533754649423      8.72322678199853      4.67332722923938
  H   8.22107458023158     10.71145962683975      5.28060790627149
  H   7.98266688563401     10.43137850915759      3.54848281441435
  C   9.70502529964137      8.67927353958470      4.84185369519938
  N   10.12833570173081      7.38264935444038      4.85322362618651
  O   10.40642611525260      9.65924714924766      4.96795643320314
  C   11.53365803254385      7.01943068472481      4.86590394046399
  H   9.42701621742615      6.68028709926636      4.65129079407910
  C   12.11279185851002      6.48586081670785      6.21163849089355
  H   12.09866998510855      7.91668271264373      4.57232504754521
  H   11.70180717302961      6.25347190254270      4.08886322976974
  C   11.98054255084153      7.59068210903121      7.28500862670978
  C   12.21610813785347      7.14521277644906      8.73917719944484
  H   10.95263513353792      7.98646846293966      7.24979992634226
  H   12.64183957341355      8.43871032932711      7.04491991464633
  C   11.36006474529420      5.91151217297091      9.08081312526350
  C   11.46289172647257      4.71668977161723      8.10086171008571
  H   10.31213841055650      6.26077420078716      9.08814565805489
  H   11.58392504639179      5.58077830803708     10.10911409849575
  C   11.29588750674584      5.24132864993495      6.64733946345054
  C   10.29407807140566      3.75303362169289      8.39412674264407
  C   12.76998548109608      3.92237698398393      8.30620012895039
  H   10.22958412033447      5.50512189100609      6.53429451309317
  H   11.48404274171142      4.41309942708779      5.93968407637263
  C   13.58976511730548      6.16045606997367      5.90743638386947
  H   14.09199515930554      7.03886324799127      5.46843727200407
  H   13.66799969694039      5.33349383079831      5.18166705965276
  H   14.15512655729599      5.88258438333254      6.80318053577798
  H   13.67038714485423      4.53904510808947      8.20847506298262
  H   12.83868263213110      3.09576165169832      7.57925151767958
  H   12.78895264706479      3.47808499138789      9.31542303478954
  H   9.31732194457870      4.24938638890448      8.26837679533432
  H   10.34650568793549      3.37027869569231      9.42696484938238
  H   10.31938948908122      2.88394898222180      7.71563400051728
  N   13.62503847986144      6.92771364456503      9.02277880856689
  H   11.87776336722913      7.96953838155346      9.39089766757909
  C   14.52866418697065      7.25598412505880      9.74372875056594
  O   15.48028196511710      7.50433025354834     10.38941870949848
