68
Coordinates from ORCA-job 2183_0.0
  C   6.28250966852153     10.08236431001050      2.96323832825321
  C   5.67906683895046      9.94396739141662      1.55432722151473
  C   5.73801078032651      8.76369543276339      3.65012858608960
  C   4.23554453629163      8.92861158640854      3.84307945424541
  C   3.70936159437720      8.81001811280135      2.61821090811527
  C   4.89637449322814      8.56910381479129      1.68415672317206
  H   3.73823173685007      9.18269275274049      4.77978138792846
  O   5.80539643476113      7.86754626677063      2.54176907173607
  C   4.82966651290038     11.18662221193672      1.34982915796578
  C   5.75404522893999     11.40574689063763      3.49555706315226
  N   4.94650518973497     11.97269991209600      2.49979215976485
  C   4.23141011348194     13.22673744184234      2.68389977216456
  O   4.15016387464409     11.46673888272857      0.38957503421650
  O   5.95627471198079     11.90801580426691      4.57487097681233
  H   2.67434401283537      8.93702336208827      2.30070233703946
  H   7.38158192637357     10.08272020015831      2.98475579456445
  H   6.42691918270845      9.86469529095491      0.75137527418401
  C   5.08616395858900     14.43580575457281      2.28620593462609
  S   4.09433717131156     15.97079579931162      2.55398179247576
  H   3.94843475856815     13.29669227358346      3.74490112378682
  H   3.32248181997961     13.17886751871565      2.06576362953256
  H   5.37418576597544     14.36702379353181      1.22648334247138
  H   5.99100794975251     14.49082375472517      2.90861640096223
  H   6.33221082461960      8.40324447302149      4.49739184778786
  C   4.65688504372406      7.87421244807352      0.36850241729037
  O   3.85089977070474      6.71906455835001      0.59726617613395
  H   5.61701214144429      7.58434348496364     -0.08786880714068
  H   4.15012231738503      8.56437208944711     -0.32623129284737
  C   3.56176362788382      5.96311394300723     -0.48761466140846
  C   2.71314956425569      4.77507929386672     -0.10825715135353
  H   3.24500000200434      4.15660262593224      0.63143237790301
  H   2.48849305054454      4.18310605755269     -1.00356231359546
  H   1.77874312650396      5.11495970774153      0.36497986151491
  O   3.94924617063145      6.23322572548056     -1.59606917604467
  C   4.98703627817218     19.95322422731801     -3.64643901347710
  C   6.43938958007924     19.46657665563358     -3.79525267616858
  C   5.10896705306096     21.42776333243233     -4.21062648667983
  C   5.90600646503160     22.24448997670039     -3.20101690716866
  C   7.16950019969915     21.82105392309127     -3.32645590882628
  C   7.13609979495204     20.74993342460310     -4.41764527495935
  H   5.48842679911521     22.94797604633925     -2.47987190128226
  O   6.06436554978617     21.21277480256156     -5.24879575699029
  C   6.88402661351961     19.07260450480153     -2.39748111179749
  C   4.66687585071291     19.80437026606688     -2.16635365667341
  N   5.80223689713563     19.27807100362298     -1.53589348256864
  C   5.87489996781607     19.05163170803690     -0.09976485775207
  O   7.97214816477058     18.67203228126719     -2.05470520355419
  O   3.64109680764309     20.08524463921592     -1.59409148440806
  H   8.04638079339022     22.09259818614352     -2.73870542226230
  H   4.25878891148713     19.38783148149406     -4.24511497263601
  H   6.56066533544272     18.61630970872265     -4.48266785707197
  C   5.24563912629159     17.71214665235608      0.30027799450785
  S   5.45899910840921     17.47728800442048      2.12038459146573
  H   5.34995027586027     19.87661171640579      0.40457727447675
  H   6.94063107618358     19.07876266206389      0.17236502991540
  H   5.73133298600978     16.88422806592116     -0.23864190181640
  H   4.16908976778548     17.71137211103735      0.07830645256451
  H   4.17753931025144     21.85318174091235     -4.60087732479463
  C   8.39884743325412     20.44967686124015     -5.18368022444561
  O   9.00259972007651     21.68076620312352     -5.57941840552437
  H   8.17090044323129     19.83546527578019     -6.06889170240952
  H   9.08843025248799     19.87411230414428     -4.54353726894399
  C   10.05254712152372     21.59246991424621     -6.42895485595742
  C   10.58878237974039     22.96075138069240     -6.76864107148629
  H   9.79464560779934     23.57084661094252     -7.22644332127399
  H   11.43554945671866     22.86266251182792     -7.45849374095209
  H   10.90742419848807     23.47853025625012     -5.85046710713644
  O   10.47626677328931     20.54249859429296     -6.84097319692667
