71
Coordinates from ORCA-job 2185-_0.0
  C   9.26920105721451     16.54502075325473     -0.35327504911305
  C   9.69556879096934     15.04708573374306     -0.55134886451340
  C   8.40967489500881     14.22781241363701     -0.40998750223530
  C   10.61739804841643     14.74432898309550     -1.71002788464954
  C   8.10633830452735     14.24099650391978      0.89321634318169
  C   9.21054082737449     15.07473678866862      1.55012052677501
  C   8.93971579742649     16.58723081775018      1.16918624813736
  H   10.12541389230994     14.97902534588702     -2.66739669925645
  H   10.89668751749777     13.67952105211618     -1.71329285264390
  H   11.53768559368589     15.34391824951059     -1.63442119193348
  O   10.33054369170738     14.79082254692997      0.71191740987661
  H   7.82571806939686     13.82165861823495     -1.23841298877160
  H   7.23002153987470     13.84250739578571      1.40412418290186
  C   9.54515326072856     14.83491391688982      3.01608795305662
  N   9.90864245314392     13.45707982620250      3.30623526163385
  H   8.67871750607238     15.09518407710901      3.64163513729382
  H   10.40516655751529     15.46086959164301      3.29394735009528
  C   8.97621041306543     12.46220000889163      3.59213774021473
  C   9.73245628713424     11.15085428201334      3.75204451105932
  C   11.22563246759578     11.51132496669659      3.65487680477019
  H   9.40514791999668     10.47416390345303      2.94553758588594
  H   9.44410129935091     10.67657342878961      4.70199813528424
  C   11.23302646635166     13.01551372559878      3.35656679209439
  C   12.01203487972055     10.69957732183668      2.61090176238547
  H   11.71577761191469     11.39265758727125      4.63756394768697
  O   7.78414356557243     12.64293088304449      3.68459477525094
  O   12.19904706534646     13.72506298906615      3.21420217562307
  C   13.51508604037281     10.93478190213976      2.64820916348968
  H   11.63117661388471     10.92858881286123      1.60029743030309
  H   11.82098382014074      9.62667967926225      2.78422102690334
  O   14.09643007261073     10.07786356078598      1.65315871867066
  H   13.93782175146086     10.68739853886616      3.63695641889303
  H   13.77396364498408     11.98282046343667      2.43947937017489
  C   15.44372527604160     10.07339295799683      1.56695601473500
  C   15.91262548828230      9.16105229086102      0.45833271457247
  H   15.47193953739502      8.15917665874492      0.57457940336727
  H   17.00760324275161      9.10013686691452      0.47107260727682
  H   15.57396470224394      9.55522384284778     -0.51319892341193
  O   16.15569852062792     10.72550717461295      2.28851139418963
  H   6.78818045690703     19.83046519132135     -2.72325069557871
  C   7.03108569503780     20.30728351817940     -1.76242708746574
  H   9.11579415169736     19.84446163785710     -2.17485583762104
  O   5.44435774175641     18.94783683181209     -0.46927821114752
  C   8.53514740825476     20.51229293136756     -1.51174397720976
  H   6.47154628590686     21.25747186135908     -1.72630198074702
  H   8.66921312928833     22.32633526875225     -2.67320150051800
  C   6.53810422971726     19.43804989271635     -0.61319470577806
  H   11.02253723341595     21.46730610926087     -2.46851635776824
  C   9.03780897240239     21.95136504134896     -1.70303699870895
  N   7.58409205523418     19.32000749003642      0.30567485485489
  C   10.55393500626697     22.08036788153373     -1.68003950402699
  C   8.75034173823722     19.96788200311072     -0.09439905672150
  C   7.55918186159841     17.12701988370709      1.56224529628666
  O   10.86361496536833     23.46376713994236     -1.90435061034784
  H   13.41428280263563     25.48184636063532     -2.41888469685874
  C   12.16865027605621     23.77466869760994     -2.06311606877132
  O   13.04938359571775     22.95191856718890     -2.05342424635306
  H   8.60286814089367     22.60639608644891     -0.92821332523055
  C   7.43096642561676     18.65638372413667      1.59800582356097
  C   12.35391251051445     25.26206219571754     -2.24562154821466
  O   9.75113058205465     20.05729845619414      0.58077843667382
  H   11.74748904407198     25.62018892097020     -3.09182627556347
  H   10.97593917311531     21.75288352063805     -0.71879875812278
  H   8.19266862874914     19.09321714310123      2.26081221982191
  H   6.43371554219665     18.92486060206641      1.97818550004902
  H   12.00371203631520     25.79377677157029     -1.34668319451457
  H   9.71690745029435     17.17764478185320      1.68142213881172
  H   8.41401402005144     16.81668330260071     -0.99088064326814
  H   10.11311375055909     17.20770871388635     -0.59663243237646
  H   6.78048387681067     16.71363667348480      0.90095248641149
  H   7.30680672354137     16.78179833922088      2.58112400718796
