20
Coordinates from ORCA-job 2186_0.0
  C   20.36433225014134     19.10078882342471     -1.78583318109773
  C   19.84684123815552     17.91055442209313     -0.98573353009972
  H   19.74607006313492     20.00185791459355     -1.62630569300917
  H   20.37618656248901     18.88153087592742     -2.86578589044427
  H   21.39056017258079     19.35140371235980     -1.47575562771450
  N   18.49310481518462     17.56329934898783     -1.38821042796361
  H   19.88975513643085     18.12451542248781      0.10000892552501
  H   20.47617084083877     17.02172207460316     -1.14062094689121
  C   17.88873364296876     16.36762645268250     -1.11368911083983
  N   16.58056150103274     16.30488790222293     -1.50694696725126
  C   15.75162522427332     15.11361571115834     -1.40947627459562
  C   14.27472189238254     15.46570829867656     -1.54455454815465
  H   15.96191248807090     14.64217871879242     -0.43798420538169
  H   16.04517357338398     14.36888401716997     -2.17462251189254
  H   13.65693900029320     14.55841584085563     -1.45916063171428
  H   14.04991676606553     15.92177870253824     -2.52497931337249
  H   13.95769356994193     16.17122788725976     -0.75944898211568
  H   17.88899377618790     18.34321805182058     -1.63183669935894
  H   16.25399969816907     17.02169206526806     -2.14888501264273
  S   18.67955778827404     15.09305375707735     -0.36328937098503
