63
Coordinates from ORCA-job 2189_0.0
  C   2.23757332323890      0.13725506109959      0.04325491224863
  C   1.84301768567516     -0.90480791504337     -0.79570559347719
  H   1.03709527454035     -1.57534567769372     -0.48985152388059
  C   2.49331894495985     -1.08645350684805     -2.02378503135908
  C   3.52295145502662     -0.22544549423829     -2.41279877919130
  H   4.02333720248850     -0.36963085533212     -3.37400986324666
  C   3.91523131951124      0.82601930529162     -1.57456679446167
  H   4.71166171262974      1.51001050134917     -1.87970201289151
  C   3.27832268441056      1.00116378436051     -0.34619482495783
  H   4.15834423072677     -0.50457420746777      5.35257115034722
  C   4.06681828900754      0.04076200743638      4.40936818454031
  C   2.92854600675435     -0.14143958723102      3.61061897439854
  H   2.13338493307327     -0.82195660316246      3.92337198410599
  C   2.81901849295743      0.54944295162345      2.40504545591106
  C   3.84248582347783      1.42581486420823      1.99617037840849
  C   4.97077251103500      1.60882744323911      2.79494737499913
  H   5.76459283076338      2.28938932625545      2.47346877646427
  C   5.08249572507917      0.91114234619850      4.00557927980916
  C   3.56908464636343      2.09445397639757      0.66385215863412
  C   1.63760315022543      0.48135744339209      1.41691541273190
  C   1.10822037858983      1.98059911330509      1.34081512236062
  C   2.24028813266085      2.90204361965228      0.84166016624668
  H   2.19054818997238     -1.90650131753753     -2.68045221002996
  H   5.96813865935668      1.04696754094948      4.63210699917276
  C   -0.04351733262495      2.22952266931776      0.33946686688630
  H   0.77370991780776      2.24179778396473      2.35281193377351
  C   1.74982041518207      3.44947680050592     -0.49729073575107
  H   2.42447422602808      3.74901718227124      1.51979445211969
  O   0.50685720377830      2.97783199694096     -0.75839468155767
  C   -1.19054853995625      3.06015431919315      0.91433875913207
  O   2.34593725601779      4.16566361055835     -1.25113524261799
  C   0.57498342862483     -0.43126738168408      1.83433276948942
  C   -0.32185635003338     -1.17688428083425      2.18061201071984
  C   -1.37616268976829     -2.05339411093122      2.59299536170252
  C   -1.67043309597983     -3.22736825211602      1.87511677070262
  C   -2.69997488963279     -4.08458111375479      2.26927754638765
  C   -3.46667108354688     -3.78120360403685      3.40697370960767
  C   -3.17998667726531     -2.61140515052166      4.13668881765404
  H   -3.78462774922965     -2.39232067314675      5.01944518411219
  C   -2.15587515097869     -1.76414023754719      3.73721429571678
  H   -1.94495282016204     -0.85830079929555      4.30924850551349
  H   4.37989502690357      2.76055253755915      0.34084190996699
  H   -1.08029322392379     -3.47332639784932      0.98937352154791
  H   -0.44356464302006      1.28735311780945     -0.06461467986509
  O   -1.78860044100432      2.35136000770987      1.96362570043841
  H   -1.91441472194122      3.27829161098050      0.10285290881788
  H   -0.79300496918540      4.03874435315934      1.26359275025920
  C   -2.88744093419999      3.01090377031177      2.55816910119617
  C   -3.42755203380917      2.15743505863689      3.69031761617886
  H   -3.74414487768115      1.17176239639149      3.31556077532922
  H   -4.29365018032833      2.64769484515060      4.16246447161938
  H   -2.65501838777010      2.00057446060345      4.45984212048983
  H   -3.67624897259885      3.19411822278033      1.79832873986918
  H   -2.57437093770871      4.00712678738181      2.93706542305859
  H   -3.97851060805495     -6.42731617356831      3.16773569929188
  O   -4.48587435390503     -4.54063953052010      3.87259694961960
  C   -4.84446795862225     -5.73887823894764      3.19842289456813
  H   -5.72406810522460     -6.59844189336272      4.98207324325677
  C   -6.00653650124824     -6.36800883277380      3.94314632114162
  H   -6.31308306688982     -7.30330503199553      3.44913162278790
  H   -5.12487358566772     -5.51269221137588      2.15197659669309
  H   -6.87016322685247     -5.68539078945319      3.96455587177258
  H   -2.89450096805242     -4.98306094771615      1.68329442148754
