48
Coordinates from ORCA-job 2191_0.0
  C   6.63503686819579     10.20722304204154      3.57929386641212
  C   5.54328538034054      9.68919622530779      2.61692502807214
  C   7.43696075082974      8.84463416565689      3.86918479356177
  C   6.49130807456746      8.03854041206747      4.76535783170450
  C   5.51506457442022      7.60444169497756      3.96054518933111
  C   5.85647902354749      8.15314079627045      2.58136220486811
  H   6.57948250073962      7.93884156781711      5.84712960798102
  O   7.28186511074914      8.18068850809403      2.60585716855048
  C   5.84876082317260     10.34822616377757      1.27507467168750
  C   7.40468106152005     11.25253302765303      2.78141156746744
  N   6.91986528631863     11.22719876716953      1.46351034811477
  C   7.44815583860641     12.05873808917812      0.42381352629267
  O   5.28852649954262     10.15482446671402      0.22527554986870
  O   8.26319480228865     11.99843919568232      3.17676511029688
  H   4.60890299303015      7.05793462774769      4.22447933797919
  H   6.28599503808487     10.66041662057006      4.51606429167978
  H   4.50560961859901      9.90979438013573      2.90608280003574
  O   6.72565815416446     13.29484673487288      0.43048437249477
  H   5.48025346951035      7.62734861053353      1.69566508150391
  H   7.31146180914821     11.55287908239468     -0.54247466179161
  H   8.51261437964636     12.24970559491603      0.61381279126408
  C   8.85381966813615      8.92777069885021      4.29754633204495
  C   7.22653816917960     14.27554493347488     -0.35647832718766
  O   8.21161809201520     14.12938694615637     -1.03556081555379
  C   6.39410136858116     15.52903785906934     -0.25690137792448
  H   5.35472929425051     15.31318718941934     -0.54949646382014
  H   6.81705229418593     16.30250249026754     -0.90917520259335
  H   6.37348761492101     15.88292793583805      0.78565805357787
  C   9.49738035857105      8.62651767246820      5.46969671366536
  C   10.87919547479401      8.92598363658353      5.26433196488790
  C   10.97865368837111      9.38511245451578      3.97036906927507
  C   12.09042269013653      9.82933152376362      3.17206639507046
  C   12.20753311054225     10.30094160318843      1.88790095435215
  C   13.59644784786137     10.57901269856831      1.67201966095164
  C   14.20969936725944     10.25126897076288      2.85260268310447
  O   15.47201075960029     10.26750752607810      3.33951729425259
  C   16.54042151123763     10.66181462887666      2.57111908233645
  C   17.80698662573304     10.57216227728602      3.37866192278676
  H   17.73415316364564     11.22137268999441      4.26525899079657
  H   18.65668053428940     10.87768115923619      2.75675277779055
  H   17.95183210246360      9.54221469579091      3.74026605723636
  H   11.69841999290238      8.81614006098663      5.97028130750559
  O   9.75288226049964      9.38652249660174      3.38390952237194
  H   9.04276343697974      8.23262789737155      6.37579462405179
  O   13.32664201096016      9.79909128926653      3.76447696302316
  H   11.39232865717710     10.43480089603447      1.18113210045403
  H   14.07950849436604     10.96439746918734      0.78177513409415
  O   16.43752935431698     11.01852852678425      1.43089410607440
