98
Coordinates from ORCA-job 2193_0.0
  C   4.87264155085422     10.62519691116926      4.16680255710206
  C   3.37082207738529     10.37477771853474      3.91977067107922
  C   5.30529467985580      9.26901128307906      4.80412011374453
  C   5.30027254303780      8.15647905793250      3.78543481312576
  C   3.85460829663087      7.73154292331681      3.66424809419642
  C   3.17289924383181      8.91011095806482      4.46198213005336
  O   4.11594341119741      8.96186080854997      5.55597031329775
  C   3.12768820757947     10.76153173951382      2.47157466964922
  C   5.43343712338539     11.05634286200771      2.81892800418662
  N   4.35479153165046     11.13234760696830      1.92119914110536
  C   4.51540943733069     11.58399964168729      0.54730066284952
  O   2.06893289227501     10.78827864535787      1.88675570629050
  O   6.56995967129199     11.33709872692060      2.53605588720390
  H   5.06468119783233     11.43096611906571      4.89169762467927
  H   2.73006354428108     11.02319351355931      4.53600258997974
  C   4.49407926618812     13.10721592827994      0.45469530469355
  H   3.69681558556732     11.15541660450628     -0.04715745856047
  H   5.47778211381097     11.20549652960309      0.17295487323961
  O   4.68835337256718     13.43778970426669     -0.92104881394464
  C   4.81104094734947     14.75544870225194     -1.21369289638962
  H   6.17992042320770      9.32508056204061      5.46170941699659
  C   6.24824150378792      7.46467041573553      3.13045612043571
  C   7.74348578761536      7.60400158852898      3.24536274513052
  C   8.27538421149455      6.71017253069572      2.09442990498797
  F   8.19681424048691      7.11450266682830      4.43343157083058
  C   7.18260276751294      5.61016891843488      1.91088023300501
  F   9.48818282632791      6.19832673109591      2.33870289383454
  C   5.90275657162371      6.29724164013079      2.31608326835738
  F   7.49964592281460      4.54655989398816      2.70751546716762
  C   4.59164520613533      5.98207081714491      2.04646579900421
  C   3.54876398087669      7.10313090761785      2.29291081658852
  C   3.99509301127138      4.77857723463413      1.50797177769332
  C   2.61655985054840      4.78976875427622      1.57153942409824
  S   1.90977121719693      6.23257669519293      2.29755725897512
  C   3.58052257519226      8.00534293573428      1.04288725118947
  H   3.47788188047075      7.37937773387667      0.14476180514840
  H   4.54351889667818      8.53259895283284      0.97307776152796
  H   2.75673983377461      8.72769464606407      1.04342694243519
  C   4.79772290954585      3.57389967379122      1.08982541904169
  H   4.16614341113323      2.67921532192856      1.02001736524076
  H   5.59071504672860      3.37182039076202      1.82469402561863
  H   5.29646284480831      3.72465392903980      0.12019979692186
  C   1.67526381690930      3.73676937225094      1.13803451782421
  C   0.58772204178215      3.36842643920934      1.95605558380389
  C   1.81402953456053      3.10952262835767     -0.11630515975311
  C   0.90240336889533      2.13652758048271     -0.53076535269470
  C   -0.16355859743134      1.77082623405722      0.29714788535458
  C   -0.31779742648828      2.39107320665618      1.54128502623338
  H   0.46290156243550      3.84447477703647      2.93166832449687
  H   -0.87575616325306      1.00830748339186     -0.02874711579673
  H   -1.14862433178021      2.11198893273286      2.19452905802431
  H   2.62774988688072      3.40666524176669     -0.78087205787503
  H   1.02180550131395      1.66665858031615     -1.51052897316249
  F   8.33110853065784      7.44919043259183      0.96442920489283
  F   8.18558892477068      8.87412051316403      3.14494639519968
  F   7.20297707671448      5.16181918602259      0.63277785308919
  H   3.53231572653564     13.51526841849231      0.80675556795870
  H   5.29620661932805     13.55245384466158      1.06357653651623
  C   5.03412425372992     14.99424458220809     -2.71525456125210
  C   5.17581802705778     16.52294358887377     -2.92511370540779
  C   3.81694559238947     14.42695161161579     -3.48017648410297
  C   6.31542063049983     14.24239631942850     -3.14121945487224
  C   5.41364910415788     16.99010834503643     -4.36283530692718
  H   5.99796137409753     16.88021344937719     -2.28332877896664
  H   4.26928946753344     17.00760537947234     -2.52666599419607
  H   6.34898956710993     16.59006339298934     -4.78640446531069
  H   5.49071867102474     18.08877830907656     -4.39336751393443
  H   4.59161585129260     16.70593078239464     -5.03946290765004
  O   4.74603985492558     15.60715609911358     -0.36233580307403
  H   2.88736617484667     14.94503750025764     -3.19229076230554
  H   3.68898232336595     13.35406506954214     -3.27649874169575
  H   3.95107677276176     14.55202874990216     -4.56551170172443
  H   7.20042795370649     14.62695067520732     -2.60810460250300
  H   6.49195682356065     14.36354591671270     -4.22089855881913
  H   6.23004623149704     13.16663561699748     -2.93119123416944
  C   1.76550552923165      8.68233112796406      4.97446359506447
  O   1.68937448150367      7.42389792450681      5.63547511766857
  H   1.05221000325270      8.72340876281169      4.13325612438151
  H   1.49108045783397      9.48388668344883      5.67653504851756
  C   0.61814670315593      7.22683731914010      6.44504908992284
  C   0.67002238407445      5.86124606423474      7.14781746091254
  C   -0.55504026987636      5.78108373914847      8.09402270039362
  C   -0.70940224920518      4.48440376644594      8.89223038631402
  H   -1.46306050606496      5.95268427778285      7.49312894943957
  H   -0.50535023310792      6.63498084661460      8.78992202986347
  H   -0.82692104039590      3.60154818881709      8.24326478616392
  H   -1.60797914274824      4.53879259020701      9.52742112753709
  H   0.14674730258653      4.29644830759443      9.55992586398160
  O   -0.24956239824021      8.05503234544146      6.56894022708007
  C   1.99759100853380      5.76267528922299      7.93193552192645
  H   2.05513004486282      6.53446844394381      8.71695484832561
  H   2.86304730874439      5.89126623356402      7.26686985533759
  H   2.08477580851861      4.77906795145708      8.41809939169804
  C   0.61716865908648      4.76108647276789      6.06368916012001
  H   -0.33401738921317      4.80015231261220      5.50706897005987
  H   0.69997910989022      3.76477832194277      6.52416773995525
  H   1.44040415660573      4.87293038960948      5.34348654551166
  H   3.72642391244689      6.89543545631380      4.38124769081296
