67
Coordinates from ORCA-job 2197_0.0
  C   1.31895009901554     -0.08809476683576     -2.04361959035165
  C   2.52199347992942      0.01811861873181     -2.77711242452269
  C   3.09179511054375      1.40490241761134     -3.07701889119224
  S   0.47095983349575      1.36499875451443     -1.48804099391138
  C   0.63359510099569      3.87499701581823     -2.56817881019336
  C   0.67600698401602      2.40864740917926     -3.00020124891352
  C   2.42902901483365      3.68657421819295     -4.06779491418016
  C   1.98109332047312      2.24583453442363     -3.80691329543996
  C   3.17401633247608     -1.15304046441673     -3.16938999618928
  C   0.81132852036155     -1.35536906974219     -1.68554649821342
  C   1.46715767274303     -2.52144366819446     -2.07528094873718
  C   2.63793709226624     -2.39075197789206     -2.81883123109293
  H   4.11185945339955     -1.11203448485868     -3.71994885338504
  H   1.79237386857760      1.76965535667777     -4.78093754232881
  H   -0.20539611510602      2.22603407075783     -3.63549259584834
  H   1.09551143821013     -3.50869705741721     -1.81309375352203
  N   1.66157376361993      4.53092810403434     -3.24498484443051
  O   3.27291704813058      4.07953721965859     -4.83024137310401
  O   -0.14715267703804      4.39810766999827     -1.81520541987244
  C   1.94589385030938      5.92560384938054     -3.07110808702332
  O   2.90849262049990      6.03749066789565     -2.02991321450169
  C   3.33875641970835      7.24018354058856     -1.54328568699746
  C   2.68292925018445      8.48653483357945     -2.09944518163515
  O   4.19645145848726      7.24258395801321     -0.70653262206131
  H   1.60255179661780      8.49315108593107     -1.88190478338682
  H   2.80391096689255      8.55170115055807     -3.19260161049342
  H   3.14980184596805      9.36070390158343     -1.63042433311224
  H   1.00595298441851      6.43002792630062     -2.80156204502410
  H   2.35035130427964      6.31227631113008     -4.01939878305212
  C   4.37482072256134      1.38687164145036     -3.85854659113436
  H   3.24403841057970      1.88804030840451     -2.09843489085712
  C   5.60609718805077      1.77493049131223     -3.44285692994213
  H   4.27228473563687      1.05487334960013     -4.89528040156110
  C   6.06625547539842      2.29078280429064     -2.05668951493012
  C   7.56535190706612      2.46557614131151     -2.28251168966283
  C   7.88047588142181      2.14038656134760     -3.61238501405139
  N   6.71722607936039      1.76149646783236     -4.28722881515726
  C   6.64577095918353      1.39214728092191     -5.67840478998773
  H   6.38980862177692      0.32407656072212     -5.80715921770459
  H   7.61319371462941      1.57332531542383     -6.16279915010822
  H   5.88170339944391      1.99380559830462     -6.20037076165218
  C   9.19348415990360      2.22033127081344     -4.08529033323567
  C   8.56202630306398      2.88375059814474     -1.41083101446379
  C   10.19074815092180      2.64345454119762     -3.19370434867261
  C   9.88779127312701      2.97364638012159     -1.87024478636263
  H   9.45089538326243      1.96097346620599     -5.11400223745239
  H   11.22335797908523      2.71193969796484     -3.54690278650692
  H   10.67979836240706      3.30039400366403     -1.19226842974198
  H   8.32358963117805      3.14349269710382     -0.37535684149373
  C   5.80643858828607      1.26092657794532     -0.93615241772823
  H   6.26359634949868      0.28912213753795     -1.17695102234230
  H   4.73115285295273      1.10080106627469     -0.76447693135096
  H   6.24374197589255      1.61674958612650      0.01041284870249
  C   5.42311173109772      3.65513346344385     -1.71891088869470
  H   5.56002401827960      4.37310876599711     -2.54044164619440
  H   5.88213447821447      4.08597214968331     -0.81541540446201
  H   4.34393132589093      3.57297642978712     -1.52347150268550
  O   -0.38079866428839     -1.36793278832795     -0.99429662446629
  C   -0.59651321296692     -2.19281252831671      0.08833738272612
  C   -1.97040615741800     -1.93961423967228      0.64700531102535
  H   -2.05183103997599     -0.89056251121577      0.97209177052695
  H   -2.15155551772351     -2.61349027133422      1.49273083978226
  H   -2.72863923745096     -2.09594671205219     -0.13583598069378
  O   0.21352602510668     -2.97455266138868      0.49715812914293
  N   3.34017466499357     -3.61873194442910     -3.24940456711495
  O   4.36075643537211     -3.48330574193156     -3.90611826928131
  O   2.85365520787053     -4.69051707946750     -2.92689290949612
