70
Coordinates from ORCA-job 2197-2_0.0
  C   1.80580753469227      0.10290147047803     -3.05604438323826
  C   3.03904863487213      0.56587662091015     -3.56904345226404
  C   3.41617041130922      2.04015559975701     -3.42498979775664
  S   0.70891834640733      1.26013268405367     -2.27086710465633
  C   0.52813313938561      3.95549533744570     -2.68742474823587
  C   0.87912284895757      2.67639440825125     -3.44898274474602
  C   2.52688640826608      4.40926850579467     -3.83265999294657
  C   2.27641896385021      2.91593730212585     -4.05668977421577
  C   3.90456179343531     -0.35451167117435     -4.16309256741801
  C   1.44759636128736     -1.26794010866984     -3.09253098663090
  C   2.34149499260658     -2.16456713242156     -3.68638497475791
  C   3.54417534409792     -1.69807848670599     -4.21546633745157
  H   4.86473484829189     -0.03922017623473     -4.56354180134017
  H   2.27777574431824      2.72851693323279     -5.14120058376572
  H   0.12033471688004      2.53315942975344     -4.23400609521500
  H   2.11063889724448     -3.22806625702559     -3.75081997888475
  N   1.52494453403572      4.88898845433308     -2.97064670735491
  O   3.40628675214766      5.09532750753716     -4.28485828681071
  O   -0.43231036965760      4.15667165694254     -1.98958529349782
  C   1.56750916934431      6.19166046637229     -2.37445831196766
  O   2.33806195319708      6.08469205843724     -1.18224839062064
  C   2.54151442510853      7.13774558010541     -0.33519853800010
  C   1.86007373197031      8.44505206871826     -0.68080723648968
  O   3.23728092263368      6.97082722370902      0.62608630322095
  H   0.76479072724730      8.32716057416537     -0.70678100186319
  H   2.17918237610186      8.81229987009319     -1.66946245446140
  H   2.12579599445979      9.18525997000948      0.08310667620743
  H   0.53386039445993      6.49795589167443     -2.15441685906540
  H   2.04540500232655      6.87877977114839     -3.08950249151178
  C   4.75129446660584      2.37705716603889     -4.02765140969055
  H   3.40348727679816      2.25768942687977     -2.34466106676669
  C   5.87814893899770      2.75597936036321     -3.38919300557358
  H   4.78234275663712      2.29966859816251     -5.11804183063264
  C   6.15365505012034      2.91182016474170     -1.87240213840170
  C   7.64609843297643      3.23234863194600     -1.86239753895719
  C   8.12203479954018      3.31342580762616     -3.17860169534518
  N   7.06619885898749      3.09547373373329     -4.07489848499539
  C   7.20829486632984      3.18448795720703     -5.48541192702515
  C   9.46512578575662      3.57942115975921     -3.45561268497812
  C   8.51235417091148      3.44320139573550     -0.79631779391173
  C   10.32842171197918      3.79100822140714     -2.37041303437103
  C   9.86416358959329      3.72825365262640     -1.05335619683210
  H   9.84576918921995      3.60383879251948     -4.47844032682450
  H   11.38415518321065      3.99942084531530     -2.56415512573706
  H   10.55388052061962      3.89374731413992     -0.22224568437798
  H   8.15134470412338      3.38900697395439      0.23475201721022
  C   5.88365398397976      1.60867720244538     -1.09003958457816
  H   6.44291868609312      0.76406953900046     -1.52049897684136
  H   4.81561278623584      1.34499703349906     -1.08106450387581
  H   6.20227330616642      1.72759282407651     -0.04212137425007
  C   5.35440232319158      4.09279491450585     -1.27307021978615
  H   5.51673984748861      5.01399621769252     -1.85139152464064
  H   5.67166148787083      4.28208137984279     -0.23556005862106
  H   4.27214379389814      3.89757250301276     -1.25109402779149
  C   0.14602727811056     -1.76206993616109     -2.51264805811615
  N   4.47216547211490     -2.65923552306940     -4.84168161813081
  O   5.53926428979739     -2.23029093482960     -5.25924498582732
  O   4.12320609366639     -3.82690395416945     -4.90459745191609
  H   -0.00711599862299     -2.82633885531403     -2.74125450878322
  H   -0.70822625043469     -1.18808719007979     -2.90675597262323
  H   0.12159028490580     -1.64731710496172     -1.41539553659910
  O   7.69198626468201      1.95212798463312     -6.06888482522765
  H   7.96921628326726      3.93983022707070     -5.72508937529069
  H   6.25408886282674      3.45457617420718     -5.95353405844919
  C   6.86293965474132      1.23382369175288     -6.86335245117830
  C   7.50130742404375     -0.05435635126154     -7.31278101416435
  O   5.74106706665683      1.58224139372672     -7.14865531977657
  H   8.59408528932226     -0.02251971701023     -7.21762321092677
  H   7.20286255630700     -0.26224574237983     -8.34973956497471
  H   7.10773431200590     -0.87067053120180     -6.68415593468182
