77
Coordinates from ORCA-job 2198_0.0
  C   0.51604367131330      0.19805576363145      0.95390873023065
  C   1.14492515690957     -0.19101531642631      2.13235311517128
  C   2.43929656995869      0.27416469806250      2.44913158002365
  C   3.12733458209381      1.13459197250623      1.59565773795255
  C   1.18577515183903      1.06820835103283      0.07148896745784
  C   2.49463981867989      1.52855137833613      0.40556560671398
  H   0.63412774507933     -0.86616171332495      2.82406038266761
  H   2.91401437840882     -0.04679676196903      3.38019625855442
  H   4.13035731492183      1.47935034912621      1.85825995659723
  C   0.85131597726274      1.65889526185165     -1.19432197045513
  C   1.92282787028988      2.42576804764777     -1.57686890443691
  H   -0.06978786961099      1.52665147581440     -1.75871558155499
  N   2.92975026209403      2.36254885118114     -0.62141559547315
  H   2.05698516905182      3.01697834361643     -2.47672695513232
  C   4.20786296520027      3.05789384765692     -0.62941387493997
  C   4.07191753897303      4.61233679622920     -0.44421417422623
  C   6.53967877556571      4.59471634158271     -0.95794656299768
  C   3.33276396796733      5.41884540757748     -1.50740961115980
  C   5.22239842859747      2.54404740012975     -1.71950230182376
  H   4.68706496549284      2.75494152380027      0.31146056020930
  C   4.68692398439171      2.24286119465381     -3.12213178897183
  C   6.44200773643997      3.43025128001360     -1.68857079871746
  C   1.94514109503526      5.62221572999220     -1.37418090809038
  C   1.23291016479654      6.38807461383539     -2.29271234655659
  C   1.88368144743655      6.99196116083044     -3.38210683885959
  C   3.27014771081152      6.81246628639651     -3.51119002626295
  C   3.98018156928261      6.04299035084485     -2.58680698360318
  H   1.41630842631875      5.17157239768849     -0.53027083352665
  H   0.15698623433980      6.54138651201076     -2.18565876855149
  H   3.81440773520541      7.27441317311020     -4.33768934503101
  H   5.05825837628731      5.92960002245716     -2.71262823621323
  C   1.06149491933229      7.80396179440785     -4.34414712775710
  C   1.75261648784132      8.44170735646855     -5.53715930421965
  H   2.53937336707130      9.14287013557789     -5.21356148979538
  H   1.00378892376766      8.98375096333932     -6.12895994177601
  H   2.23556361257097      7.67773598406820     -6.16836068382881
  O   -0.13408146647427      7.94306955382346     -4.17160179417921
  C   4.82333991396864      3.13189486595478     -4.19869431511942
  C   4.07564319694062      1.00011065059976     -3.36708835883855
  C   4.33857169109582      2.80566385057091     -5.46951406137506
  C   3.71473032584153      1.57503944045937     -5.69184076727042
  C   3.59035774864546      0.66872054549321     -4.63424017709477
  H   3.97666499093769      0.28001876906659     -2.55006253851779
  H   5.33534656407037      4.08234796934712     -4.04847173278746
  H   4.45993878587524      3.51529815157010     -6.29265168478871
  H   3.33959442022335      1.31801177866280     -6.68613919099623
  H   3.11624463726582     -0.30314383326317     -4.79560490635759
  N   7.82209223236974      5.12295687343939     -1.07322780180971
  C   7.73053223905499      3.21005256477315     -2.30307777760016
  C   8.56585725098755      4.29048376114412     -1.90093333918404
  C   8.26215495917785      2.21235710450309     -3.14225494543206
  C   9.58919587857979      2.31315154264232     -3.55319522852002
  C   9.90050098582675      4.40129926282418     -2.31859130896843
  C   10.39760740297109      3.39609086230108     -3.14759082458089
  H   7.64176024587554      1.37469182298791     -3.46999696625889
  H   10.01233472318967      1.54428813854934     -4.20499791472809
  H   10.52681937462371      5.24548453585419     -2.01939601900733
  H   11.43361978130656      3.45240382745145     -3.49206905213308
  C   8.33908259071046      6.31433027321155     -0.43357101199042
  H   -0.48648080048318     -0.16573414159345      0.71179862320545
  C   8.35093193502945      7.52642638212774     -1.37495160813496
  H   9.36717727589889      6.11568498069903     -0.09428889817263
  H   7.74046987699828      6.54368894815374      0.46022727211703
  O   8.95638220218521      8.66003947997103     -0.74360998750953
  H   7.32659905573110      7.83768203591560     -1.62635557633583
  H   8.89267778892575      7.27929270662986     -2.29975074421726
  C   10.30904237627881      8.72840283085835     -0.76524918691598
  C   10.79691048233764      9.99670079558841     -0.11294643391903
  H   10.41849544431330     10.86937684136696     -0.66817796690656
  H   11.89331745658913     10.00661442756125     -0.10084414192823
  H   10.40322115719562     10.06996033027414      0.91253490986863
  O   11.00759228226060      7.87476262426143     -1.25443678868396
  H   5.52932771628732      1.55660327667492     -1.32940905092067
  C   5.46808658315959      5.18897959398655     -0.09846673658476
  H   3.45779068545172      4.70535384104308      0.46504139608914
  H   5.68698991354824      4.97511146092358      0.96553987225835
  H   5.44142586421042      6.28806029983241     -0.18212517738781
