48
Coordinates from ORCA-job 2199_0.0
  C   -0.22021421213036      0.67041617353625     -0.31240653911579
  C   1.13784312000075      0.88336645839754     -1.14699328718792
  C   0.97819376962221      2.12549910350653     -1.99685633512724
  C   -0.11310315383684      1.85342371786381      0.71213265024273
  C   1.29959808621931      2.51384756059027      0.26435908654670
  C   1.07629173802241      3.18599110632590     -1.08454103331158
  C   -1.50528917588079      0.97498911377648     -1.11086427832462
  C   -0.26542047306496     -0.67157575862360      0.25910707117656
  N   -2.04545355271751      2.16581350273760     -0.63007046402697
  C   -1.33314158151084      2.74680981892081      0.40856348982023
  C   -0.10535592067594      1.47048985163213      2.12070283367222
  O   -1.95795405189690      0.31951922275296     -2.01147981278160
  O   -1.59532125454729      3.78417109237350      0.96227615620537
  O   1.99897903629713      1.32633931097137     -0.10666676865278
  C   -3.25202326042703      2.76053944614590     -1.20290600054080
  C   -4.52657052396833      2.27145112768927     -0.51739020098205
  O   -4.51384927019144      2.56408484657143      0.87905744467808
  C   -4.87565211250647      3.82354216979352      1.24618362589134
  C   -4.70174977687522      4.02535085382743      2.72627408714861
  H   -5.03589196327825      3.14138094762328      3.28779942041272
  H   -5.24750956314816      4.92249177384394      3.04345770079600
  H   -3.62658395096763      4.16409680757285      2.92669861476959
  O   -5.25577709813861      4.64864579453799      0.45446022087675
  H   -4.61529594624680      1.17853825949668     -0.59470762117347
  H   -5.39331552401414      2.74722831816502     -1.00071592765341
  H   -3.28153473830995      2.48705712619311     -2.26761651793426
  H   -3.16662996329003      3.85143694282970     -1.10894937332398
  N   -0.09195009580229      1.20913555090129      3.24944238205745
  N   -0.29110383794246     -1.75026851599581      0.68036748243888
  H   2.89925198691255      4.83910849064847      3.43720467642831
  O   4.91494783453264      5.19878746943368      1.04720749763893
  C   4.03336657604859      4.59860339364493      1.59269596424663
  H   4.67252603572068      5.07968225485475      3.56495549251789
  C   3.88313486219691      4.48139904823088      3.09508191563482
  C   1.98986572019834      3.28536453030424      1.37015388723530
  O   3.09958183480002      3.96733515232450      0.81627005120591
  H   3.98396672254732      3.43327813211336      3.42035587141566
  H   1.50600883224292     -0.03409705426783     -1.61782972921202
  C   0.73697374426085      2.34823076726554     -3.34726413040570
  C   0.62118571861848      3.68125084378145     -3.77379558450369
  C   0.72154355617636      4.74104766075134     -2.86345441458540
  C   0.94085200722515      4.50627191807721     -1.49640567537331
  H   0.63725890554334      5.76924769854511     -3.22398163031090
  H   1.02073995351928      5.33812789090131     -0.79427270502205
  H   0.64733022573782      1.52226472505586     -4.05687601311117
  H   0.45725334012082      3.89554751203021     -4.83288547697008
  H   2.29221244871814      2.57261023129334      2.15278874397718
  H   1.26247494608626      3.99263761105424      1.80751315259687
