71
Coordinates from ORCA-job 2201_0.0
  C   2.63017144711693      0.47017170500789     -0.00343885656752
  C   1.94639192360842     -0.70431451504071      0.20750785977471
  H   1.26761085586531     -0.80286153841743      1.06012242204073
  C   2.10732971578926     -1.80678346500084     -0.68103942477252
  C   2.98891698920400     -1.66342971450442     -1.80426776258378
  C   3.68294131542565     -0.43167739807745     -1.99477174937318
  H   4.35511962482309     -0.34937608241741     -2.84971649631818
  C   3.51838320240640      0.61611167124410     -1.11529448125366
  C   5.67291756278930      2.72161759055328      2.83836184070071
  C   4.32855245997172      2.34050223980055      2.56005318052951
  C   3.91764530765721      2.11827699227674      1.26533294044765
  C   4.82750662214829      2.26853229338234      0.17095735840258
  C   6.12944295869796      2.64931555863858      0.41235880801185
  H   6.83961052338658      2.76562409251085     -0.40722712719868
  C   6.58668408134418      2.88151553402747      1.74276286526583
  C   4.18249756819508      2.00277139778559     -1.19591013139433
  C   2.51862867068589      1.72317123154712      0.83911514693260
  C   1.99104952445263      2.82722768551815     -0.13028071104534
  C   2.97134285828599      3.01799941149672     -1.30535295489878
  C   1.88256803467368      4.19027738090454      0.54032079948780
  C   3.37171997707035      4.49419285145283     -1.24050911029200
  N   2.69078744528968      5.09672379409086     -0.16901554396994
  O   1.22213008220684      4.45387987613538      1.51417247204634
  O   4.12658427204745      5.06850846490607     -1.98808760319971
  C   5.10897534720714      2.17988110360163     -2.39749315798265
  O   6.20255394270717      1.25500893211756     -2.29797424364061
  C   7.03374121711979      1.17719749106817     -3.36288676480253
  C   8.14998273747148      0.19387060065760     -3.10551839373027
  H   3.62419128924919      2.22617469734843      3.38929265549936
  C   2.81364488495084      6.48279652945041      0.16868670034332
  C   2.97683684021534      6.87129956979586      1.50633076374393
  H   4.56192179839351      1.99779373941595     -3.33603333624918
  H   5.49473280348766      3.20688612822157     -2.44999911500879
  O   6.87709908949516      1.82032531502375     -4.36971974597094
  H   1.83703626068854      1.60618338371338      1.69173620727186
  H   2.48107400535032      2.85665680901096     -2.27873072055245
  H   0.98325291309149      2.54200425811656     -0.46884405442818
  H   8.76980184684082      0.09878854632428     -4.00526473661753
  H   7.73710370391059     -0.78582006697491     -2.82014815598206
  H   8.76777647442526      0.54111774379183     -2.26218731115896
  C   3.08372771831776      8.22315488083208      1.82352313233750
  C   3.04149588631768      9.22187904198112      0.83407081913912
  C   2.88494566360192      8.81030032035205     -0.49676720541925
  C   2.76711126794547      7.45819556685493     -0.83190047407003
  H   2.65209516965706      7.16571823224105     -1.87560491467039
  H   2.84964996840652      9.54819834956968     -1.30028335375114
  H   3.00914680766675      6.11839348242342      2.29347226516654
  H   3.20684284164584      8.51203935672540      2.87191352678417
  C   3.16433904839220     10.67920648520675      1.24485625141615
  C   3.12321877174562     11.71603639897235      0.12348498408027
  H   4.10439693586028     10.79709017522709      1.81430115343778
  H   2.36099555887925     10.89921165647198      1.97173097670795
  H   3.94311641905969     11.57186656413778     -0.59901708951717
  H   3.22196352094105     12.73201459438486      0.53710882188352
  H   2.17382138595727     11.67823033172261     -0.43523316060273
  C   1.42269952777757     -3.03994121103839     -0.49649050600391
  C   1.59842535240370     -4.08615837916705     -1.37948567808966
  C   2.46854374717299     -3.94543590229662     -2.48998690320293
  C   3.14720774100418     -2.76137608691798     -2.69568137997103
  H   0.75152423739142     -3.14663165824045      0.36064205077047
  H   1.06586962972047     -5.02839610936696     -1.22539000115742
  H   2.60018603543492     -4.78001759683946     -3.18372733848405
  H   3.81964159703038     -2.65128954127951     -3.55152967847955
  C   6.14022712353077      2.94896260354248      4.16304067075605
  C   7.44911882616755      3.31800476333414      4.39797534268944
  C   8.35176406219256      3.47843029858862      3.31615542595602
  C   7.92878152875378      3.26521353950668      2.02001804036770
  H   5.44213894778089      2.82482387623203      4.99600055320023
  H   7.79505594604156      3.48893096197466      5.42089923741570
  H   9.38586926342420      3.77298696042361      3.51369722301459
  H   8.62314129203233      3.39029620593709      1.18415687678902
