46
Coordinates from ORCA-job 2202_0.0
  C   -0.85586190380105      2.23179467918354     -1.83241306861203
  C   0.43917670603051      1.33413541442233     -1.89575784293806
  C   1.42204208457936      2.27055844690788     -2.59743888070274
  C   -0.60366524527637      2.95453033534795     -0.50548932612966
  C   0.94560394063852      2.84163955070043     -0.37886751219284
  C   1.68281228009203      3.27557383522960     -1.64450918239831
  C   -2.36712353648589      2.06933312717164     -1.76841751853592
  H   -0.75885631857797      2.96483380885667     -2.65238177798632
  N   -2.77800906460436      3.26838002535065     -1.12618413855140
  C   -1.71802138428105      3.97995338818046     -0.50072362842016
  H   -0.93711210124458      2.26027952265423      0.28777616647372
  O   -3.11951806146386      1.23877803831420     -2.20965948121452
  O   -1.79847546323472      5.08555467659572     -0.03133659474355
  O   0.95683365412389      1.39015659078383     -0.55390264578662
  C   -4.17173070224866      3.67379695592804     -1.02135615957788
  C   -4.94598095329955      2.88238650094971      0.02296365639657
  O   -4.28857733925315      3.05513364479448      1.28426779168360
  C   -4.98269062902223      2.71282384034678      2.39484222985510
  C   -4.15544581972734      2.93117049327325      3.63797530702178
  H   -3.33889110637667      2.19145567001181      3.66994116691989
  H   -4.78855176466193      2.81018556492886      4.52540950997466
  H   -3.69443493908596      3.92996852588167      3.62343650073897
  O   -6.10806107928077      2.28482933829466      2.36250003110563
  H   -4.97307712710704      1.81156310025783     -0.23452252334595
  H   -5.98549865071986      3.23991842986936      0.08806815675544
  H   -4.65970653975008      3.53866198030549     -1.99928343886584
  H   -4.17174628665114      4.74428666406827     -0.76877055979534
  H   2.27928282113962      4.51178257532378      3.28697231131051
  O   4.82679007633208      3.14717223794832      2.05544818630961
  C   3.63548973980817      3.26492551518115      2.12359153796769
  H   3.63040167248509      3.75961286776640      4.19594545715480
  C   2.89165023233598      3.60349828156206      3.40105749772228
  C   1.48705381342977      3.25588902677394      0.97074533865335
  O   2.89321359053119      3.08059452408536      0.99534422632489
  H   2.21555927568256      2.78372909930836      3.69297585130030
  H   0.34785936772263      0.29799213709671     -2.24057245784645
  C   1.95311874717456      2.33731751388476     -3.87723466589108
  C   2.78130300689026      3.43084289076520     -4.19029388259266
  C   3.03725036725685      4.43051297115220     -3.24754979107734
  C   2.48201935754243      4.36576964616819     -1.95690392051806
  H   3.68821090505848      5.26783268469363     -3.51161236279382
  H   2.69924640370233      5.14526629370246     -1.22301404659250
  H   1.74731586010249      1.56413086662249     -4.62229899063614
  H   3.23419885060374      3.49670795261161     -5.18305859983976
  H   0.99097775307960      2.64343539126783      1.74223924039020
  H   1.21320550981210      4.31283537547610      1.14145283352593
