21
Coordinates from ORCA-job 2203-_0.0
  O   -0.28351797476353     -0.22509437204900      4.93421353300191
  C   -0.97808069372072     -0.04388836738832      3.69857570455008
  C   0.39431705069297      0.49358235712401      3.90186026938077
  C   1.58517075075888     -0.14897907196974      3.30335587978325
  H   0.48452429969795      1.57528907082352      4.08402765767539
  H   -1.07229791434883     -0.95694452288159      3.09135696286886
  C   -2.17349313931242      0.82787999516375      3.71863286275101
  C   -3.27869101780778      0.60245544836704      2.99497492875665
  C   -4.49997826606641      1.47138003639692      2.97683710597556
  H   -5.39698536215794      0.90321657835814      3.28151069411335
  H   -4.70476911994710      1.85161869450271      1.95992887226392
  H   -4.39674521203443      2.33603615562332      3.65062765759853
  C   2.67650714928455      0.51733021913563      2.90195148289222
  C   3.89093334801445     -0.09810426136029      2.27509255731609
  H   3.79576506158480     -1.19135979435523      2.18475115456475
  H   4.79792037011813      0.11996054077583      2.86680390521963
  H   4.07279512501854      0.31459679629028      1.26652669017188
  H   1.53241814591358     -1.24011660414920      3.19871098606532
  H   2.69858829717475      1.60780468346540      3.03581843333350
  H   -2.11262747226325      1.70152785393584      4.37999155326415
  H   -3.30814342583621     -0.29092143580903      2.35579110845312
