21
Coordinates from ORCA-job 2203_0.0
  O   -0.10438651133089      0.85769022016840      5.03512959880216
  C   -0.88878463369365      0.87456659572946      3.84141725086002
  C   0.58784118496937      1.08348432789891      3.80710890981350
  C   1.56431613543355      0.06137895687211      3.36768260507964
  H   0.92244430647560      2.12275019606037      3.66255409045705
  H   -1.50510973605049      1.77906933441192      3.71952251016361
  C   -1.56336837045552     -0.38174765153533      3.44469687012980
  C   -2.78517704919915     -0.42209791023510      2.89489405157230
  C   -3.50883386782783     -1.66313376121569      2.46768265116796
  H   -3.74737770574097     -1.63514876748305      1.38931789217266
  H   -4.47410236363316     -1.76250711367316      2.99559275342474
  H   -2.91671392835130     -2.57062810825237      2.66332417731556
  C   2.70918038855919      0.35680996127557      2.73625809348219
  C   3.72251587528632     -0.63795715022718      2.25662627520284
  H   3.42701995083410     -1.67165190803959      2.49453887830153
  H   4.71147499716664     -0.44998788352934      2.71152084328181
  H   3.86603662687386     -0.56594550402392      1.16354104586706
  H   1.31445870943545     -0.98272390047188      3.58760868915641
  H   2.93958277834028      1.41432267902226      2.54576409138026
  H   -1.01593006627186     -1.31287108337623      3.62930775762401
  H   -3.31579672081954      0.52731847062385      2.73765096474484
