22
Coordinates from ORCA-job 2204_0.0
  N   -0.10068874332061      0.86636893850293      5.16593390168968
  C   -0.90139420899591      0.88987729299691      3.93852391263269
  C   0.59766988889899      1.10196992621573      3.89940393168636
  C   1.56705228195003      0.07858161321762      3.44202081920868
  H   0.89720170238302      2.13380887819550      3.66750772095505
  H   -1.48691488983679      1.79607110904937      3.72852644493384
  C   -1.57182770416068     -0.36693294708145      3.52955253313050
  C   -2.70840962399045     -0.41870805682146      2.82153295076264
  C   -3.40695712675986     -1.67340354906144      2.38811894454981
  H   -3.49282968304472     -1.72554658359690      1.28770494208108
  H   -4.43860432312726     -1.71488876796695      2.78152609458767
  H   -2.87533853579161     -2.57491958304747      2.73096514623246
  C   2.63033892300243      0.34117619646550      2.66983960914360
  C   3.62257447453815     -0.67147394871239      2.18010396134108
  H   3.37943653033471     -1.68542474801851      2.53468216935135
  H   4.64586293998698     -0.42735683936678      2.51794049190650
  H   3.65872585876173     -0.69591433177398      1.07595302636136
  H   1.37612348997043     -0.94813218047064      3.77547701645217
  H   2.80637061525715      1.38075276727682      2.35917016914639
  H   -1.08512897083809     -1.29670537691140      3.84640569649838
  H   -3.18363136297016      0.52725299363574      2.52570521965226
  H   -0.20870153224747      1.73030719727324      5.69810529769642
