23
Coordinates from ORCA-job 2205_0.0
  C   -0.11924630598196      1.02508985857521      5.16755036029117
  C   -0.94849797826145      0.91907095394708      3.94007038384206
  C   0.62483136017380      1.14314553760665      3.88787736747818
  C   1.56026615446687      0.09366000161595      3.42819890495217
  H   0.89535644982730      2.16883329926967      3.61704551150750
  H   -1.51119161719226      1.82529661499920      3.69379332637048
  C   -1.58118115250440     -0.35488094550224      3.53356289730666
  C   -2.67906366387720     -0.43564672206536      2.76795640568334
  C   -3.35183756182366     -1.70895164267502      2.35055936201551
  H   -3.38187224029049     -1.80311332293116      1.25006448897860
  H   -4.40198058936442     -1.73783127604745      2.69245164965903
  H   -2.83782129987843     -2.59509861671101      2.75469230515599
  C   2.60296725535919      0.32133665329139      2.61656401402997
  C   3.57682800444178     -0.71690186418449      2.14583579055073
  H   3.33256482346779     -1.71591372838913      2.53975113974827
  H   4.60739739095176     -0.46958066175960      2.45800157620406
  H   3.59375238856992     -0.77877899096792      1.04287563634565
  H   1.38183355453639     -0.92285973118975      3.79636922582754
  H   2.77609161067576      1.34635743906880      2.26097217254648
  H   -1.11798472766994     -1.27675329498916      3.90280269776925
  H   -3.13836854555697      0.49632683044459      2.41081585736365
  F   -0.24421851965558      2.10157440398398      5.96873958721362
  F   0.06389520958621     -0.08188079539025      5.91859933916005
