23
Coordinates from ORCA-job 2205-_0.0
  C   0.04801986394761      0.85210107148055      5.15131794423664
  C   -0.78160842454358      0.79821763607976      3.89439406592940
  C   0.76250689677559      0.83336140076563      3.82443590749179
  C   1.48930238156676      1.99125266399382      3.25695279528816
  H   1.22215809716009     -0.13633517853772      3.60316627112722
  H   -1.26080803485803      1.75535883051411      3.66033445663159
  C   -1.55483777354401     -0.38643743825401      3.45837794382292
  C   -2.72183383044895     -0.31227778951844      2.80154318044049
  C   -3.52517853440919     -1.48595067705155      2.32786918571483
  H   -3.66879201315217     -1.45606747026643      1.23284695367215
  H   -4.53630288607548     -1.48233917307481      2.77282684407310
  H   -3.04320957508729     -2.44239054040637      2.58351281593285
  C   2.59624537106943      1.88219339284504      2.50765562260435
  C   3.34806448822878      3.02951471433645      1.90301184509615
  H   2.88549899293281      3.99787755891874      2.14945389525920
  H   3.39432928933429      2.94181937934640      0.80266430141171
  H   4.39460463082046      3.05034450081356      2.25614621417827
  H   1.07415271736623      2.98320783561628      3.46947770912373
  H   2.99860297847832      0.87932216072851      2.30963257625064
  H   -1.12356264196966     -1.36731722129096      3.68938058250320
  H   -3.13801448893565      0.68069398963104      2.58314664355828
  Br  -0.00986343458063      2.48835434951821      6.20139753568788
  Br  0.20385592992428     -0.72053399618782      6.28476470996542
