23
Coordinates from ORCA-job 2206_0.0
  C   -0.12381922610632      1.04149860840874      5.15263867177420
  C   -0.92586867300061      0.88709304444609      3.88680026962340
  C   0.61235983483802      1.10700103205174      3.83964207162947
  C   1.56204207962403      0.06347977632139      3.38996965256695
  H   0.90111299766863      2.12438032017526      3.55696335951112
  H   -1.50367904934019      1.78047465581876      3.62938283838270
  C   -1.57267412897454     -0.38443029295330      3.48943328579845
  C   -2.70662722625828     -0.44444123836399      2.77594485054159
  C   -3.39564624637746     -1.70553038902902      2.34976073305124
  H   -3.47589692225731     -1.76467315551263      1.24945429844494
  H   -4.42906154504390     -1.74680224292591      2.73780447109584
  H   -2.86303652616508     -2.60266376039003      2.70180799718421
  C   2.63419327841461      0.32021419085171      2.62640139024994
  C   3.61693180292928     -0.70224109303351      2.14101945711176
  H   3.36029716745951     -1.71529375407532      2.48797679090644
  H   4.63959119908558     -0.47029376914734      2.48842668762981
  H   3.66199602445802     -0.72002250307625      1.03726415162455
  H   1.36428239830673     -0.96486721926841      3.70942766980278
  H   2.82289365656240      1.35838660834587      2.32078928637705
  H   -1.08981267565128     -1.31343679725904      3.80959454750528
  H   -3.18311165360449      0.49685326726860      2.46977027447561
  Cl  -0.31430305828371      2.55677847928617      6.07247530640544
  Cl  0.11035649171636     -0.35896376793957      6.22241193830717
