21
Coordinates from ORCA-job 2207_0.0
  S   -0.10604713134930      0.98947243805753      5.50958762001861
  C   -0.89663757970081      0.90261159815675      3.83105071465571
  C   0.58507081378955      1.11251117679247      3.79117702191976
  C   1.53919145480584      0.07428081208855      3.34499962688198
  H   0.89339464209462      2.13418202043423      3.53822470452702
  H   -1.48971848294323      1.79651632522153      3.60315016328435
  C   -1.54759637558363     -0.36377951755692      3.43195794600962
  C   -2.76530865976046     -0.42676691053684      2.87210746917768
  C   -3.46673697700463     -1.68570112974173      2.45951031680430
  H   -3.70336718613858     -1.67666652819440      1.38038501102028
  H   -4.43125249888640     -1.79538712520052      2.98714595460596
  H   -2.85973803038151     -2.58023952883702      2.66906983630743
  C   2.69130832298166      0.34889282776348      2.71468498015577
  C   3.68886114741292     -0.66809517390979      2.24805965087704
  H   3.36808074100815     -1.69479534011236      2.48383342822816
  H   4.67588686726287     -0.50195588223019      2.71594349173760
  H   3.84808020563884     -0.60094253588125      1.15687898827157
  H   1.27985309348476     -0.96646799236251      3.56765543098160
  H   2.94144987135411      1.40056879092636      2.51781320115930
  H   -0.99651607996215     -1.28904495421408      3.63214668283296
  H   -3.30897815812262      0.51179662933670      2.69635776054326
