19
Coordinates from ORCA-job 2211_0.0
  C   -0.18265207153295      1.44084241355290      5.06353511620765
  C   -1.01853506971643      1.39591778988229      3.82706353356592
  C   0.55290669995889      1.62454894612549      3.77735382419993
  C   1.44299604034425      0.62190787764941      3.26097300053185
  H   0.81988286848950      2.66623896729538      3.56434694133493
  H   -1.58261168563447      2.31765181803831      3.64240206770893
  C   -1.61858370577973      0.18051689181676      3.35085307185184
  C   -2.14708659462042     -0.82888274154203      2.93380653688089
  C   -2.77440298182491     -2.04854860921897      2.43714012267749
  H   -3.49351237871943     -1.82766565785870      1.63048780575141
  H   -3.32031921636887     -2.57525567428216      3.23793276154542
  H   -2.02178610760515     -2.74518180055916      2.03128725701661
  C   2.20743200367800     -0.20821789789430      2.81521335819659
  C   3.12126344937092     -1.21617985638016      2.28915791425747
  H   2.57478725098394     -2.12056496856231      1.97321325480117
  H   3.86277417879537     -1.52104946665056      3.04670313086151
  H   3.67350820267298     -0.83716954566996      1.41288072987898
  F   -0.31158330461538      2.50338953175177      5.87984255657117
  F   0.00429242212389      0.32906198250602      5.78000701616023
