19
Coordinates from ORCA-job 2211-_0.0
  C   -0.28178453446908      1.37830608413060      4.56757852660416
  C   -0.99688220282544      0.50071627076024      3.56160294090852
  C   0.35926843926576      1.16838285615876      3.21138072815403
  C   1.55054920078631      0.38456274354793      3.02174331281299
  H   0.26029335735918      2.04280610025380      2.55805185110479
  H   -0.91084291790443     -0.56632490361976      3.79677345918132
  C   -2.21512054044699      0.89318571529095      2.90487251377256
  C   -3.24312773034829      1.20294582040509      2.33893299686820
  C   -4.47975533633584      1.58092099090489      1.66340883413742
  H   -5.31234005966424      1.68463478476463      2.37950167803038
  H   -4.77313653965782      0.82439772683101      0.91646497542523
  H   -4.36844685632060      2.54404142097378      1.13794126838418
  C   2.55564387532709     -0.27158105170723      2.84219708716850
  C   3.76310620926403     -1.06340312828502      2.63339368429454
  H   3.87010347885226     -1.35762958983848      1.57582633875426
  H   3.74002771648282     -1.98668533972332      3.23586691815706
  H   4.66701848589146     -0.49955112085884      2.91884982785269
  Cl  -0.93061979837159      2.98578274391399      4.92483961433793
  Cl  0.42258575310920      0.58978187609271      5.98682344405900
