19
Coordinates from ORCA-job 2212_0.0
  C   -0.19206654747640      1.42905820008756      5.06843442113269
  C   -0.99343207204010      1.37266800568875      3.78390212076325
  C   0.54488888418059      1.58874648849019      3.75413257210689
  C   1.44907889496150      0.59515030997674      3.24200018578391
  H   0.83464225516124      2.62360930085150      3.53817795802604
  H   -1.56443387834363      2.28700565039731      3.58544002843321
  C   -1.61078800128658      0.16711522267503      3.30218557113552
  C   -2.16452871740179     -0.82609168164766      2.87918466332132
  C   -2.82072022231236     -2.03048317581992      2.38337967123318
  H   -3.45987299131527     -1.80775011170480      1.51263495458035
  H   -3.45909939263775     -2.48538656076936      3.15939979606199
  H   -2.08152809250695     -2.78715998616933      2.07159611340911
  C   2.23161413143683     -0.21493935135766      2.79078005967766
  C   3.16445414181164     -1.20315336298315      2.26110157297892
  H   2.73188362623651     -2.21685931794705      2.29999835659470
  H   4.10421207700127     -1.21733736465813      2.83836327744518
  H   3.42058434289574     -0.98881102485000      1.20990028292502
  Br  -0.40028423770236      3.02796614375671      6.15504530299326
  Br  0.05418579933787     -0.16199738401674      6.11855309139773
