19
Coordinates from ORCA-job 2213_0.0
  C   -0.17423526796958      1.41216031650463      5.04562511804283
  C   -1.01082856917274      1.38283059010979      3.79759710575400
  C   0.54241210531321      1.61138716749433      3.74015251740730
  C   1.43643728071878      0.60553079664270      3.23431752729858
  H   0.81656722383995      2.64724726476064      3.51344680255138
  H   -1.58570137880755      2.29502306700499      3.60499520306851
  C   -1.61411451424897      0.16182170183188      3.33678317584240
  C   -2.14330338393992     -0.85015904545363      2.92679581868568
  C   -2.76969613450780     -2.06883317686979      2.42637020858096
  H   -3.53500500414099     -1.83967825200507      1.66584584507640
  H   -3.26175448495563     -2.63101083505565      3.23780827718740
  H   -2.02513895560747     -2.73596518962382      1.96052710833356
  C   2.20349800948404     -0.22621414780289      2.79616438757325
  C   3.12064105609313     -1.23544462143320      2.27855367526147
  H   2.57125414564027     -2.10059739379326      1.87104288670422
  H   3.79358734205747     -1.60812614512751      3.06899135368664
  H   3.74855023144259     -0.82707251848671      1.46904953142212
  Br  -0.34782929593590      2.90013006506549      6.28064726923087
  F   0.02343959469709      0.25832035623709      5.69947618829237
