19
Coordinates from ORCA-job 2215_0.0
  C   -0.19007093872199      1.44876694973647      5.07147589583316
  C   -1.00636901016468      1.38128827053244      3.81093361870173
  C   0.54828873761056      1.60067583581444      3.77113079810465
  C   1.44713960945776      0.60809132354502      3.25068068647826
  H   0.82468610513058      2.64269946191565      3.56896121455468
  H   -1.57014114510618      2.30464684590371      3.63013900064891
  C   -1.62007805892421      0.17544063129526      3.32790895071565
  C   -2.17096546992898     -0.82309337764411      2.91402625840871
  C   -2.83497026969380     -2.02288784067568      2.41655641874741
  H   -3.45349879475250     -1.79844194017497      1.53142924898462
  H   -3.49435547641668     -2.46337807452313      3.18326254943667
  H   -2.10086282030988     -2.79246310251713      2.12475195407391
  C   2.23149516272674     -0.20354458808043      2.80579823476430
  C   3.17501772604234     -1.17961062327878      2.27195854766840
  H   2.69864547191062     -2.16660904185415      2.14856433668334
  H   4.04125948179692     -1.30804152552567      2.94264656890430
  H   3.55781565641075     -0.86761359085551      1.28572323141147
  F   -0.32955002478116      2.57825144723887      5.80554475776174
  Cl  0.03530405771380      0.03721293914771      6.09267772811807
