21
Coordinates from ORCA-job 2216_0.0
  C   -0.10671634530590      1.46599836865654      4.94442536892276
  C   -0.92379981558527      1.10682864132474      3.72847327672462
  C   0.54779595884325      1.58056329027466      3.58395796262914
  C   1.60706970591160      0.69794469107791      3.17028241650413
  H   0.64857874973296      2.61190216155085      3.22678134125476
  H   -1.65802350546040      1.86808767014229      3.44774946236865
  C   -1.33471087636869     -0.28291536798742      3.42861410991032
  C   -2.51381638673364     -0.60229893979512      2.87614206902023
  C   -2.96504585912840     -1.99406608996545      2.54972393522816
  H   -2.20682848355950     -2.74455600899986      2.82207054133674
  H   -3.18175913908623     -2.10038758424636      1.47162492063448
  H   -3.90100247895519     -2.24401267752386      3.08070979290841
  C   2.51479874155480     -0.02404055484036      2.81282169790846
  C   3.61100704548680     -0.88635373967176      2.38450165952121
  H   3.26793942496975     -1.92220931430725      2.22425989144208
  H   4.41609793291691     -0.91330376957543      3.13814313867034
  H   4.05073848536147     -0.52983232248170      1.43793445465588
  Cl  0.41472022444254      0.19643325230492      6.05562733648942
  Br  -0.53659405903993      3.12828387778921      5.86456664192179
  H   -3.21820184685673      0.20580952002403      2.63567157433652
  H   -0.61676747314017     -1.07147510375058      3.67589840761190
