21
Coordinates from ORCA-job 2217_0.0
  C   -0.07812478402484      1.06963779773553      4.88737047249759
  C   -0.52366514794670     -0.35642713027498      4.88411782675740
  C   0.98399453462883      0.00657499016986      4.99611530663872
  C   1.89197374493472     -0.22859707065337      3.90329117979464
  H   1.41030869144896     -0.11693616272670      5.99763919558707
  H   -0.95545298260155     -0.69443426298083      5.83360698363325
  C   -1.07041371855656     -0.99333295399985      3.64794359810863
  C   -2.28287259351093     -0.74428139115514      3.13259540184284
  C   2.67127730636524     -0.43812682428325      2.99667237994323
  C   3.61013567512944     -0.67110080843736      1.90430970778484
  H   3.43929378282408     -1.65016725198353      1.42596264444325
  H   4.65232290904143     -0.65281475628458      2.26478836227819
  H   3.51314069992760      0.10355702282106      1.12517894712705
  F   -0.16215047813861      1.76579704500346      3.73889525513445
  Cl  -0.43309087899940      2.10492699644405      6.28606647673236
  C   -3.29866518370853      0.22793315697750      3.65484034794546
  H   -0.41804258161629     -1.72068201646628      3.15270197665037
  H   -4.24530070719113     -0.28599310262148      3.89996740374354
  H   -3.54537672373397      0.98271380828479      2.88755087166781
  H   -2.95601403895622      0.76176299035564      4.55312042849888
  H   -2.57059752531556     -1.30037007592452      2.23137523319037
