23
Coordinates from ORCA-job 2218_0.0
  C   -0.09644338328389      1.20830519407230      4.77885167145973
  C   -0.51727190361150     -0.21902219686901      4.82091989262355
  C   0.98536926729325      0.16414511424946      4.91202414374888
  C   1.91785238113262     -0.16613579379093      3.86585522967214
  H   1.40036680248522      0.13332295852487      5.92744823856414
  H   -0.95560104188653     -0.48618670616092      5.79054393260774
  C   -1.08009381413168     -0.97956868116615      3.64034201917968
  C   -2.60141976716278     -0.83267290206995      3.50589465484052
  C   2.72160646276848     -0.46300758316641      3.00601730448528
  C   3.68669441167203     -0.81280653200419      1.96877117195947
  H   3.50517678084548     -1.82690081564741      1.57432490221196
  H   4.71803976449736     -0.78638448886246      2.35876502767338
  H   3.63292431436599     -0.10957066922861      1.12077443087059
  Br  -0.27314760945384      2.29352627930332      3.18692729675609
  F   -0.34217017112309      1.94732528267796      5.88838255039453
  C   -3.17448796231549     -1.60735993453105      2.31826379116864
  H   -4.26785873171474     -1.48909263320039      2.25066924448238
  H   -2.96018851021578     -2.68668297549493      2.39960659462848
  H   -2.74218466335884     -1.25601419490763      1.36619059441384
  H   -2.85104003008973      0.23816337229700      3.40684920592552
  H   -3.08454319481030     -1.17319626999948      4.43998386060738
  H   -0.58623010153430     -0.64362145298118      2.71474104738940
  H   -0.81585930036794     -2.04618437104420      3.75796319433661
