35
Coordinates from ORCA-job 2220_0.0
  C   0.05545607721175      1.07849789836347      4.31075363048402
  C   -0.49111336781289     -0.26834127674006      4.69643148104406
  C   1.01172910421690      0.02944553696531      4.84830275425090
  C   2.15069639408220     -0.60242317115509      4.11076379357968
  H   1.28861816752666      0.24184372764941      5.88507784797434
  H   -1.01483446598074     -0.23163266397899      5.66044615768031
  C   -1.10323573800140     -1.27634556072639      3.76821154436288
  C   -2.16022993286961     -0.92939407825915      2.91035293020813
  Br  0.14149270086143      1.66161293562253      2.46963175372694
  Br  -0.36492996229910      2.57223151865058      5.49570076778382
  C   -2.78480213972113     -1.89660629530052      2.12191730016595
  C   -0.70570638684587     -2.62044400050531      3.82100593878171
  C   -1.33658486053683     -3.58508537198459      3.03049963272000
  C   -2.38537121803003     -3.24315985237091      2.16426696277803
  H   -3.60287203735033     -1.59839934073455      1.45882771013240
  H   -2.49557508724277      0.10880092731509      2.85816199473058
  H   0.11064554173387     -2.91641271772021      4.48446163036645
  H   -1.00291603414344     -4.62555307028215      3.08717171878759
  C   -3.07802517192301     -4.28260607889383      1.31626436753588
  H   -2.54591143782439     -5.24548177022773      1.34070390047366
  H   -3.15088152949821     -3.96123747456815      0.26410862859892
  H   -4.10883102530220     -4.46282636204864      1.66826876973178
  C   3.38038531655012     -0.70170301391871      4.78504083626332
  C   4.49843833924337     -1.28181697691910      4.18223677898157
  C   4.43556128474091     -1.78969717424641      2.87721535571420
  C   3.20730717854618     -1.69049562412290      2.20294123762225
  C   2.08662711333015     -1.11327601017816      2.80043222377215
  H   3.46562590212019     -0.31552727833397      5.80505002872270
  H   5.43795830826037     -1.33962456071721      4.73997807125795
  H   3.12179901492481     -2.07740416281759      1.18269573274212
  H   1.15666118399148     -1.06409408423354      2.23606842566606
  C   5.63295876578812     -2.42892608343471      2.21701113703463
  H   6.53137909100416     -2.35502103827777      2.84806337510166
  H   5.85979484449260     -1.95225796876553      1.24857956817802
  H   5.45421606675666     -3.49882948310448      2.01256601304525
