37
Coordinates from ORCA-job 2221-2_0.0
  C   -0.17632944371552      1.17897959209067      4.36032334839182
  C   -0.54901525535234     -0.17204069046356      4.89736638948122
  C   0.92551678285279      0.27930782411633      4.89266707010833
  C   2.04554984698237     -0.29253329553112      4.08680980846282
  H   1.26537950658300      0.60931405337552      5.87804336157579
  H   -0.99010722450718     -0.10180664970857      5.89974612337839
  C   -1.12638373553003     -1.30405380753967      4.09817316550501
  C   -2.25637035176848     -1.10452795347034      3.29066253799882
  Cl  -0.28127221764521      1.54235105412802      2.63113264342864
  Cl  -0.60070789661993      2.60064906509365      5.34994500458023
  C   -2.86933726886390     -2.16649403067266      2.60753998143458
  C   -0.60487688822111     -2.60042310268760      4.23255163589717
  C   -1.20286150198332     -3.66698182872995      3.55765958980962
  C   -2.32204601657683     -3.45164332267906      2.74931650619077
  H   -2.66620495547297     -0.09672853804217      3.18696752104413
  H   0.27176457123687     -2.77214844073148      4.86198072661718
  H   -0.78998817027784     -4.67432170304208      3.65897763278269
  C   3.33177743423466     -0.23431716701575      4.65072544596535
  C   4.48440930622274     -0.73462252023715      4.02553154092559
  C   4.29041632272818     -1.31100105639745      2.75174251765908
  C   3.02619312439582     -1.37527968379475      2.15711520089024
  C   1.90711319343592     -0.87989852825266      2.81594187466579
  H   3.45051572917385      0.22674601854552      5.63500939948303
  H   2.94238698390897     -1.82451609251450      1.16818398862938
  H   0.93424259846298     -0.95059179444895      2.33412473778949
  H   -2.77849877448853     -4.29347824686739      2.22004973051611
  C   5.80850585436993     -0.61169769951423      4.73779038867720
  H   6.57481361882321     -0.14632509768594      4.10110394411983
  H   6.20790280589654     -1.59913354011978      5.01272143580513
  H   5.68829524615612     -0.00884048519439      5.64979822245433
  C   -4.10286530318973     -1.93228354793284      1.76847706537555
  H   -4.18198638197499     -2.66530389859622      0.95075365131215
  H   -4.10684572371189     -0.92400002752373      1.32621284573727
  H   -5.01964935844823     -2.02411073639906      2.37783327543176
  N   5.40978147815032     -1.88067896911423      1.97264094378289
  O   5.21483724550895     -2.11826382475606      0.79069010594144
  O   6.46641481922480     -2.09201132768631      2.55073063815105
