36
Coordinates from ORCA-job 2221_0.0
  C   -0.10087026784273      1.13271566040774      4.37369981936816
  C   -0.49342499061434     -0.22270038418106      4.89189914536518
  C   0.98708411668872      0.20396090732283      4.87635906404383
  C   2.09900874226747     -0.37488607445228      4.05991576820141
  H   1.33742405518494      0.51147704325757      5.86589984390887
  H   -0.92840666324742     -0.16062795842726      5.89757996650460
  C   -1.10239661284719     -1.32719380361253      4.07869045962395
  C   -2.24109109173954     -1.09485746680880      3.29278202176209
  Cl  -0.22155996535236      1.52365567362369      2.65002210132784
  Cl  -0.50544029713523      2.54685006679664      5.38831614962813
  C   -2.88214113189241     -2.13343367925281      2.59887503174490
  C   -0.59911943163977     -2.63442352618189      4.17684805379994
  C   -1.22588505742589     -3.67803131853602      3.49282978114468
  C   -2.35531546314341     -3.42975466149143      2.70763252724650
  H   -2.63488208157939     -0.07823586186521      3.21497472776563
  H   0.28687392184383     -2.82998565608779      4.78548920509167
  H   -0.82811363354901     -4.69383062515127      3.56856665736101
  C   3.39189788669428     -0.35224656775447      4.61981785717776
  C   4.51908911250371     -0.85341106602146      3.96390595916111
  C   4.33860365367725     -1.40564733808969      2.67939503509815
  C   3.06504945127272     -1.44380985743383      2.10204361852062
  C   1.95540171735714     -0.93690665351387      2.78124504738360
  H   3.52795993904978      0.07850604330849      5.61684955544921
  H   2.93744372901348     -1.87877629132909      1.10491004162431
  H   0.98034971378528     -0.98256009231070      2.29889592007300
  H   -2.83560109051777     -4.25377688974860      2.17126718789935
  C   5.89425534804426     -0.81927193439565      4.57780444642966
  H   6.59621477015846     -0.24284356071022      3.95196063921326
  H   6.31892034293933     -1.83361000843544      4.66322266315853
  H   5.87226981177392     -0.36642621516147      5.57992539096460
  C   -4.12319665128864     -1.85892606584525      1.78274213118465
  H   -4.28492851303086     -2.63322267130815      1.01707403207347
  H   -4.06572398963135     -0.88297819443374      1.27535546298769
  H   -5.02296655415881     -1.83834021086711      2.42314473131225
  O   5.44431909150936     -1.88999247956850      2.04940886483144
  H   5.19574808287217     -2.23282828174131      1.18082109156882
