22
Coordinates from ORCA-job 2223_0.0
  C   0.02830760458993      0.66878206260128      4.55022180589661
  C   -0.52355889880354     -0.74399891246238      4.45272481263695
  C   0.92176548424550     -0.51373809506853      4.84552495958755
  C   2.07175235661436     -0.91554644344605      3.94092174296093
  H   1.12643333953395     -0.63634397606164      5.91554063881972
  O   -0.75257710644915     -1.30731047397674      3.21736819249136
  C   -2.03917672742129     -1.05113657366763      2.65216751318939
  Cl  0.25976414089575      1.59723982058857      3.05732003200107
  Cl  -0.50028660865488      1.67885203072073      5.91678279289247
  C   3.34618694177411     -0.11218145066729      4.21277831749838
  H   4.17127903141588     -0.45057908626069      3.56563921277981
  H   3.67711207452849     -0.21959454503811      5.25942701684205
  H   3.18518839408457      0.96045989028482      4.02018462408403
  H   2.26054371990336     -1.99234915717677      4.09700394997472
  H   1.76441906124735     -0.80869679923108      2.89084982865114
  C   -3.11682699518596     -1.98480081183024      3.18884750802718
  H   -1.91432687205084     -1.19805181195789      1.56768838025272
  H   -2.31396706787196      0.00747745979812      2.80939496898337
  H   -2.83507080817628     -3.03694989782482      3.02505008325454
  H   -4.07163874103667     -1.79775405423154      2.67068995031958
  H   -3.29155081991991     -1.83903448549159      4.26713278726986
  H   -1.22724150326278     -1.02064468960053      5.25109088158650
