49
Coordinates from ORCA-job 2226_0.0
  C   0.17046113885911     -0.53645372603475      5.20808400103573
  C   -0.28224591197939     -1.87878234770318      4.76713310475306
  C   1.22646726771404     -1.56070374785421      5.01971707894724
  C   2.27484806385804     -1.44486709509126      3.93191954665907
  H   1.60311746720048     -1.97876638717419      5.96150752814805
  H   -0.73844559906599     -2.47506167873240      5.56706073885535
  C   -0.89693446219433     -2.09928909255530      3.40001923869672
  F   0.09700823783716      0.49277924462176      4.32924595892089
  F   -0.12943120775085     -0.08601442450911      6.44501459381191
  C   -2.38224184880250     -1.70060988031596      3.31920708568665
  C   -0.89672707745299     -3.57091910746549      2.91473278591535
  C   -2.13065157066578     -3.71408775248489      1.98226039343590
  C   -2.85627586269836     -2.33450585226368      1.99470052213761
  C   -4.34903074936976     -2.43130231982622      1.85034352724345
  C   3.43131338385836     -0.48967917640685      4.28376413733332
  C   4.51643265518757     -0.83667507951197      3.24408244768286
  C   4.43979598673281     -2.38937933773503      3.16992738122493
  C   2.99457760417235     -2.77611925275200      3.58627958777179
  C   5.88548872579542     -0.30972149016793      3.56948891064154
  H   -0.35597778097450     -1.48433938731278      2.66179992116233
  H   3.13243813879354      0.57001371841040      4.26333532897862
  H   3.80367708977364     -0.70769708321149      5.30257605560724
  H   -2.44494987505548     -1.72316885069671      1.17468443833904
  H   -2.93632653203790     -2.14247896123244      4.16887284752099
  H   -2.53624670383871     -0.61096579607701      3.35769460341001
  H   -1.85805140636306     -4.00704227488487      0.95645220106316
  H   -2.80965331044016     -4.49785963451454      2.35678368583649
  H   0.04718142816963     -3.83746256093896      2.41466104726214
  H   -0.99173056053884     -4.24482914031437      3.78252964742916
  H   5.17253265192283     -2.82930135548172      3.86682030173972
  H   4.70907451111334     -2.75406363564986      2.16654741837110
  H   4.18339607181265     -0.43027055676704      2.27446873005916
  H   3.01119646798732     -3.43230432525271      4.47224106918752
  H   2.46327125607860     -3.33216246051637      2.79828893053680
  H   1.79998617840971     -1.05253219838934      3.01785444312871
  C   -5.13436060993945     -1.87496216929327      0.91453368913005
  C   -4.72904560277365     -1.00221719562512     -0.23912579837332
  H   -5.20935384260028     -0.00987853837322     -0.16763985020124
  H   -5.06216050809420     -1.43771580266461     -1.19802451257678
  H   -3.64256545627656     -0.84377705596368     -0.30086562616639
  H   -4.84122850692168     -3.04022983224814      2.62173762461488
  H   -6.21213844389141     -2.06970287101465      0.99009607817940
  C   6.67888529770486      0.46878767527235      2.81686881618744
  C   6.40504226553190      1.02332237613502      1.44786589392793
  H   5.41995036814702      0.73387844327421      1.05409497647134
  H   7.16973769293015      0.68357647121407      0.72659372357047
  H   6.45528609992989      2.12679836904054      1.45340044920546
  H   6.27021437879126     -0.61935514274964      4.55143754731717
  H   7.65387300141407      0.74302827978871      3.24045775017971
