42
Coordinates from ORCA-job 2228_0.0
  C   1.12239398724726      0.52343158425260      3.11628253943199
  C   1.05008780483831     -0.90098406959946      2.66579117388296
  C   2.20732689826373     -0.44640337066920      3.55616042663530
  C   3.60288070842906     -0.44621544928203      2.88423020524768
  H   1.41350372157514     -1.00554480389895      1.63147983137321
  C   0.01215195895549     -1.91136892813729      3.04996384671310
  Br  1.48115367753102      1.92472912521108      1.82551627195198
  Br  -0.10478604857787      1.15807178033850      4.48995031308588
  C   0.40142318779887     -3.19585913446460      3.46299465677190
  C   -0.55060046857094     -4.17313467262384      3.75827481581407
  C   -1.91089598731757     -3.87909328057875      3.64296590407314
  C   -1.35594826547325     -1.63318345502105      2.92219145103533
  C   -2.31280843693061     -2.60423128954642      3.21555884096530
  H   -1.70147622333788     -0.65400999758073      2.58765677958925
  H   -0.24681087273842     -5.17205956918847      4.07619901462573
  H   1.46260629339007     -3.44638453621910      3.53823947926781
  H   -5.94318334365283     -1.16898474411599      2.83679668187210
  C   -4.41703673568025     -1.98078365909991      4.11800681795029
  C   -5.85703974838777     -1.83696072386329      3.70691497324706
  O   -3.64877162520455     -2.31727015160788      3.02419095832282
  O   -3.96098669753139     -1.83861978890027      5.21586196598311
  H   -6.44412423736826     -1.45212069401393      4.54930719361314
  H   -6.24236757597278     -2.82296017406983      3.40164892757112
  Cl  -3.10483099707206     -5.09575684276891      4.00200687469353
  C   2.40175895597537     -0.80506520781372      5.03501077052468
  C   4.54549775400559     -0.69298007820299      3.95831122507359
  N   3.85476302266146     -0.89332675769268      5.13917554473328
  H   1.92682239167592     -1.76032031235335      5.30902535530203
  H   2.00832858692044     -0.02867000266052      5.70702906424741
  O   3.79368567288274     -0.32126082189281      1.69367246645391
  C   5.90621840396423     -0.82756723325069      4.22625073954187
  C   6.03494041120393     -1.11258480276030      5.60601052827247
  C   4.73410141521051     -1.14650172317351      6.13361982328104
  H   6.94444272759556     -1.27718608360547      6.17277938969182
  H   6.71274393683029     -0.72556628686656      3.50315700147840
  O   4.20368154182709     -1.36770475313393      7.36893155080844
  C   4.98363523545996     -1.63846683494353      8.46944830082905
  C   4.10960683933267     -1.80650063173555      9.68299137282219
  H   3.56969172170287     -0.86822791492543      9.88711787078176
  H   4.73280652020017     -2.07275535752674     10.54482366042823
  H   3.35297985947403     -2.58583259325767      9.50395543202812
  O   6.17861402886460     -1.71485575875677      8.42817995998371
