40
Coordinates from ORCA-job 2229_0.0
  C   0.71112098983382      0.53213537066441      4.50422085347768
  C   0.16827305198399     -0.79411406154345      4.93976227177907
  C   1.68689061367882     -0.58387726735173      4.84075491655031
  C   2.52054227783071     -1.26417882432061      3.72672777480239
  H   -0.18028535242597     -0.76046062506483      5.98171555746183
  C   -0.62435195514323     -1.73398706852536      4.07873441475996
  Cl  0.54991667440387      1.10700887107485      2.84430277212041
  Cl  0.57175697482576      1.88525516929293      5.66997917746319
  C   -0.30511123153892     -3.10234875910640      4.02456800783522
  C   -1.09327778999423     -3.99622544942837      3.31021949965841
  C   -2.23208675483875     -3.54323058994528      2.62017238340403
  C   -1.76414623488917     -1.29481747988152      3.39673096434289
  C   -2.56552659412267     -2.18146295745943      2.66829099268460
  H   -2.03621314833756     -0.23724042761989      3.42088501862779
  H   -0.84448315717125     -5.05839315632847      3.26104701479061
  H   0.57989106703990     -3.47518253773813      4.54703155314065
  C   2.56278692417402     -0.50984996762650      6.10070138909610
  C   3.81788575783183     -1.52433720701702      4.33308861054094
  N   3.81711685951527     -1.09499424655512      5.64568546405438
  H   2.14042385127010     -1.09130841373262      6.93675565521791
  H   2.71098875331953      0.52523475923863      6.44346832819738
  O   2.13885258343948     -1.52391061504095      2.60788191927397
  C   5.07186255416122     -2.06062526224807      4.05448145820368
  C   5.84669354424254     -1.94880825610829      5.23489091898402
  C   5.02661655562932     -1.34318504038854      6.19814384397095
  H   6.87304716836937     -2.26070282030150      5.39230833019201
  H   5.38903043999169     -2.48248688898112      3.10308004391548
  O   5.18521316977682     -0.97291655112221      7.50161079578743
  C   6.35315596173012     -1.19062986392283      8.19134964699472
  C   6.22203984703055     -0.66269918846461      9.59518322930919
  H   6.07699054267930      0.42913403044299      9.57174809266221
  H   7.13118823681019     -0.90369226620721     10.15873312542816
  H   5.34001270568491     -1.09958073944810     10.08789681451122
  O   7.31549654606953     -1.71996337960178      7.71162668779137
  H   -3.44119127413069     -1.79676925992129      2.14467666515431
  O   -2.93656812451730     -4.48602995717109      1.94521131520498
  C   -4.07969559688644     -4.10413976503535      1.21426577482785
  H   -4.47516569536883     -5.01840184814752      0.75082516012780
  H   -3.83569204679109     -3.37638824678108      0.41881743886140
  H   -4.85950869516659     -3.66818921257751      1.86562611879339
