25
Coordinates from ORCA-job 2231-3_0.0
  C   0.04198522876377      0.76395554381149      3.81876164917850
  C   -0.49138592628453     -0.61088196894906      4.17431812858816
  C   1.00932679521001     -0.30662791508376      4.24371017235380
  C   1.90854963155863     -1.06180508361439      3.26862691651040
  H   1.43205980561802     -0.15024363502041      5.24375249949187
  C   -1.30230385220605     -0.79898935430900      5.44435769384714
  C   -0.83574669917160     -1.58927177905620      3.04976689712495
  Cl  0.01884649757555      1.36911315343786      2.13849007134550
  Cl  -0.23998354891026      2.11159331691078      4.95569624218911
  C   0.03825930067590     -2.85951609739796      3.12936398798542
  C   1.55322016910742     -2.56401287243496      3.32348866979106
  H   1.69354720575083     -0.69445761289722      2.25205683705969
  C   3.39192556252784     -0.80583964001364      3.54919452240082
  H   -1.90216647976615     -1.86168502677607      3.10835696693428
  H   -0.69740067274135     -1.10358505171719      2.07378800421501
  H   -0.12260033794908     -3.45081777819497      2.21318014659277
  H   -0.31923306459459     -3.49310613559761      3.95819136708307
  H   1.88730605245015     -2.95707390288856      4.29997211334507
  H   2.14825332657561     -3.10007961403337      2.56546873516596
  H   -2.35860366785144     -0.53138609369447      5.27432098897122
  H   -0.92680110631047     -0.18562390867355      6.27425285279477
  H   -1.26947529496596     -1.85599272337294      5.75688706918165
  H   4.03047958384511     -1.34206319650536      2.82825108793891
  H   3.67132639639528     -1.14745559823701      4.56091031522295
  H   3.63111509469737      0.26755297430759      3.47907606468786
