25
Coordinates from ORCA-job 2232-2_0.0
  C   0.28101800649580      0.55662305467499      3.88792445559527
  C   -0.50023205653119     -0.65805538153368      4.36539085768933
  C   0.98003677534947     -0.47597806579014      4.72582451310485
  C   2.06239555344412     -1.45343759073409      4.26077427559851
  H   1.15959336695548     -0.10908665123805      5.74370035108743
  C   -1.55047267146210     -0.48342667056588      5.45003438840444
  C   -0.83703321631195     -1.75431771048324      3.33872729792192
  Cl  0.65761902633811      0.78060405415093      2.15538538570076
  Cl  -0.03774922703697      2.14821131943682      4.64008838779597
  C   0.19041295891107     -2.89468903271420      3.31584371522996
  C   1.61481491343590     -2.37241310512735      3.10786327772482
  H   2.21789824645165     -2.11571175442430      5.13389421088925
  C   3.39327487531305     -0.74429857057492      3.97783195643747
  H   -1.83449867093242     -2.15638498146159      3.57652545777855
  H   -0.91437526142934     -1.31173471119952      2.33271315240448
  H   -0.07406734638827     -3.61032734468829      2.51935899811636
  H   0.14107086132407     -3.45622929634205      4.26771009929051
  H   2.32399732486320     -3.21492970199958      3.03844323691961
  H   1.67442299439088     -1.83610596580203      2.14639589365212
  H   -2.51980666445596     -0.19279227092226      5.01143298882669
  H   -1.26692337046626      0.28233822134936      6.18409856304036
  H   -1.69444158848091     -1.43794953614595      5.98311541719220
  H   4.18253267325716     -1.47501565011992      3.73538663665063
  H   3.73141132624418     -0.16344341135376      4.85163562586788
  H   3.29929117072122     -0.04982924639126      3.12867085708053
