31
Coordinates from ORCA-job 2233_0.0
  C   0.07874072870609      0.75773827028681      3.79501739903348
  C   -0.46009987060942     -0.61042207830365      4.16910571834823
  C   1.05444404740589     -0.29506045081539      4.28707736302581
  C   1.91840603988411     -1.06595455569733      3.26165903505479
  C   1.70883500975775     -0.12799073865932      5.65045627148211
  C   -1.32188866670114     -0.76101745155998      5.41375650577065
  C   -0.78313286103408     -1.62578531894695      3.04838297155644
  Br  0.08774380968584      1.39417450201954      1.93772014996122
  Br  -0.32678598818111      2.29608491567358      4.93529595173111
  C   0.08401116975711     -2.88726670642665      3.25127880529961
  C   1.59916341026465     -2.57256751072443      3.37445367351601
  H   1.61747746711783     -0.73765623061736      2.25706587765730
  C   3.42225209560298     -0.78857804109855      3.36380964333146
  C   -2.27097801817304     -1.96550499542426      2.90899983665281
  H   -0.48472621553506     -1.17286036599429      2.09293665113630
  H   -0.09864223267592     -3.57449458139164      2.40839076925451
  H   -0.26825185897614     -3.42105338969592      4.15116915615558
  H   1.98808779982947     -2.94644988324557      4.33778408351941
  H   2.16757438910571     -3.10934840436827      2.59673375585190
  H   -2.36341326946259     -0.47256223108115      5.20503535748327
  H   -0.97605956900139     -0.14278444517089      6.24918550371799
  H   -1.32332864800473     -1.81134975997499      5.74804807642567
  H   3.95303874064621     -1.29357985707994      2.54024606606318
  H   3.85690083279302     -1.15768131707529      4.30631952037512
  H   3.64047664359223      0.28871347159222      3.28656711646083
  H   2.56685511174956      0.55876139154038      5.59013739098509
  H   2.07902453617505     -1.10017790558980      6.01486893283481
  H   1.02554916563757      0.27577947529450      6.40540415749577
  H   -2.42645069969159     -2.61251003185587      2.03030134222581
  H   -2.87975877936430     -1.05866124149831      2.76396034439388
  H   -2.66609432030059     -2.50487453411123      3.78455257319980
