25
	Energy:      28.1598077
C          0.21262        0.77280        3.75366
C         -0.39418       -0.57984        4.03028
C          1.07221       -0.34692        4.32553
C          2.09219       -1.23887        3.65581
H          1.32956       -0.25543        5.38014
H         -1.03435       -0.68858        4.90127
C         -0.70983       -1.60907        2.97890
Br         0.28411        1.45612        1.98964
Br        -0.25818        2.18182        4.99014
C          0.06625       -2.87875        3.32737
C          1.58197       -2.65600        3.30350
H          2.87138       -1.39351        4.41775
C          2.84520       -0.61492        2.48555
C         -2.21198       -1.87992        2.92119
H         -0.39510       -1.28213        1.98266
H         -0.18780       -3.68867        2.63268
H         -0.22317       -3.22587        4.32821
H          2.03214       -3.37447        4.00219
H          1.96219       -2.95180        2.31711
H          3.17434        0.40263        2.71851
H          2.23914       -0.59646        1.57581
H          3.73969       -1.20465        2.25335
H         -2.44687       -2.60455        2.13475
H         -2.76315       -0.95719        2.71021
H         -2.58426       -2.27851        3.87148
