21
Coordinates from ORCA-job 2234_0.0
  C   0.05114837330721      0.46922731300950      3.70625773486392
  C   -0.43398796174698     -0.80525304392625      4.40425597770221
  C   1.05700497091429     -0.44160799713123      4.41954800170068
  O   1.88257882861446     -1.19962790118614      3.58414510746732
  C   1.79271068353784     -0.00954977389868      5.66788073743282
  C   -1.29416213661740     -0.73843459693565      5.64559945239737
  O   -0.86071100003404     -1.87732045209758      3.61831881995539
  Cl  0.05481691148990      0.51545246631662      1.93998045552930
  Br  -0.36373953816053      2.22638879022101      4.44513534604274
  C   0.08905590084077     -2.63935483882680      2.87888807362910
  C   1.47348626303290     -2.55527241143837      3.49008395708962
  H   0.12322685523739     -2.28085115218036      1.83587743912559
  H   -0.27145111559501     -3.68134168400827      2.87939660841667
  H   1.49046269449836     -3.03596564535721      4.48891188408546
  H   2.20681929253797     -3.06800796475862      2.84949374757028
  H   -2.35060094762020     -0.67371647563395      5.34121290450957
  H   -1.06274360410131      0.12597145898561      6.27811129661078
  H   -1.16188712931559     -1.66232772027194      6.23011380358669
  H   2.71379789639628      0.51572169993808      5.36949825842947
  H   2.08074735602370     -0.89761509966155      6.25375539359568
  H   1.20351740675996      0.65966502884183      6.30589500025905
