33
Coordinates from ORCA-job 2236_0.0
  C   -0.05060035638908      0.58970490818701      4.88318755538356
  C   -0.48190300040835     -0.78349620989383      5.32232907041619
  C   0.99251876057426     -0.38818638599690      5.36724376475269
  C   2.08054035949214     -0.90741252782282      4.47913113868409
  H   1.34164756603789     -0.13389654137151      6.37537304472052
  H   -0.95279956207924     -0.78679444543268      6.31218501492249
  C   -1.10105990244615     -1.89265115690875      4.48130553290455
  Cl  -0.07760976090324      1.03439930550187      3.15877420990527
  Cl  -0.47628528662558      1.97081260915108      5.92071877286884
  C   3.13577209341975     -0.02207426084282      4.14420948344379
  C   4.20297737291708     -0.45826514384397      3.35339265036261
  C   4.25811240197923     -1.78544405613803      2.88718304041946
  C   3.22511682906780     -2.66027119863956      3.23524733839219
  C   2.15228528547165     -2.22542586266096      4.02528755104694
  H   5.01008400117424      0.22813020113907      3.09204946504804
  H   3.25251780025045     -3.69800623683624      2.89214615483802
  H   1.35893466428601     -2.92305317146161      4.29846997754057
  C   5.42323837051415     -2.23510677928141      2.03820287184210
  H   6.37627312068296     -2.14868705187530      2.58802437394626
  H   5.52034456435500     -1.61659281357929      1.12972269399209
  H   5.31214432588567     -3.28292221221527      1.72222186146365
  O   3.02344825737703      1.23444179456827      4.64945383058259
  C   3.98567304268083      2.21091085786470      4.32363625222684
  H   3.66474630567647      3.13985233789948      4.81450795342684
  H   4.04198879704507      2.38188211280375      3.23329475461399
  H   4.99142810736875      1.93877569500907      4.69279129629095
  O   -0.86653283956473     -3.06316559249227      4.74215174761662
  N   -1.99250937764984     -1.49242671781249      3.53745576983736
  C   -2.69077145686239     -2.42717394920761      2.67834160725730
  H   -2.03967693774508     -0.50354070674957      3.31871958493523
  H   -2.51440258620316     -3.43957565049823      3.06411840639147
  H   -2.32334436147814     -2.37702270775917      1.63818989455739
  H   -3.77475659790157     -2.22591844280398      2.67623333536928
