42
Coordinates from ORCA-job 2238_0.0
  C   -0.28031018426587      0.60828730015257      4.33600746499708
  C   -0.41392967316723     -0.71254802412196      5.04757417094854
  C   0.91905431217169     -0.29766673961479      4.42240796882647
  C   1.53334224924197     -0.97750166122848      3.21830513267166
  H   1.65803267938779      0.05639897170141      5.14999747331365
  H   -0.45070081078127     -0.60321500776189      6.13798057987995
  C   -1.28215053059522     -1.84253925885075      4.52874700653714
  Cl  -1.09316986229756      0.84699431635308      2.76805481488093
  Cl  -0.28513131882536      2.09953159158010      5.31109813512938
  C   -2.73331967904961     -1.73869671897969      5.01589863589834
  H   0.78309584998377     -1.26054315883400      2.46789629369926
  H   2.07234541057382     -1.88796240734890      3.52757973551707
  H   2.25856311934033     -0.30796055193372      2.72818020361375
  H   -1.26593348948437     -1.86254737085088      3.42811326835845
  H   -0.84707470926140     -2.80186220048462      4.86415030404666
  C   -3.64123930889074     -2.85008467593341      4.47985987166657
  H   -3.14045605026410     -0.75509732292245      4.72095718693542
  H   -2.74649922647253     -1.75447149478413      6.12155541575743
  C   -5.05695355495560     -2.81787013946367      5.06457965814501
  H   -3.18582643824297     -3.83484019221541      4.69421768944411
  H   -3.69430164717284     -2.77679555697737      3.37754919953837
  C   -5.98505513177774     -3.89137962334025      4.48851913960585
  H   -5.50054291591118     -1.81781312237206      4.89941733717678
  H   -4.99648363277836     -2.94295497219539      6.16150648650153
  C   -7.36623004383589     -3.90232638213811      5.17456637228870
  H   -5.53222450145202     -4.88741977239681      4.61477382647317
  H   -6.11531575967270     -3.72772967111916      3.40364723071600
  C   -8.29463461736724     -4.95395340183551      4.65590184915279
  H   -7.85368340257628     -2.92042866481724      5.06321138548791
  H   -7.21810693833827     -4.09468607990745      6.25060463834522
  C   -9.40077523382536     -4.71473070719239      3.84909187069402
  C   -10.16850090550300     -5.81015432094265      3.45922513948388
  N   -8.01280850818733     -6.25917937490541      5.02379341025215
  C   -8.84086472107815     -7.27889189474682      4.57652298324745
  N   -9.89346869217048     -7.04505859501504      3.81069256131189
  H   -9.65955434287113     -3.70083316692446      3.54077264976515
  C   -8.46673958331517     -8.64996131603103      5.02024799635224
  H   -8.45217906181574     -8.70151036048377      6.12148218205337
  H   -7.43860723996996     -8.88629234058830      4.70021384077658
  H   -9.17847768934046     -9.37504456889462      4.60794243596337
  O   -7.01662933454979     -6.53066709031616      5.77003333733682
  F   -11.24220488063625     -5.62189427131829      2.69466311720967
