64
Coordinates from ORCA-job 2241_0.0
  C   4.46498217812008      0.67697454501340      1.06526122914776
  C   4.58314964585805      1.95178499850115      0.21721296936116
  C   3.44762169372153      0.99297094834880     -0.03223209217574
  Br  5.94817969838541      2.09262355095208     -1.16927992549031
  Br  4.23100411843776      3.67020314799069      1.04183925017249
  O   3.98508509816540      0.85913043264445      2.34841426075903
  C   5.47143693701803     -0.44238477424507      0.88690613467452
  C   1.99290953156653      1.32325232180173      0.27694586832764
  H   3.58419406248273      0.41191741843048     -0.94922943211665
  C   1.08226657331795      0.12649826335565      0.07180601558922
  H   1.68306556323932      2.16820337006868     -0.35709717168011
  H   1.92392218025459      1.66546785617210      1.31817959274582
  C   0.89835139743131     -0.77763033702636      1.13033959317055
  C   0.43811285641318     -0.12009443382881     -1.16402475816220
  C   -0.37121467796604     -1.26146020259992     -1.28580100214506
  C   -0.54852529413592     -2.15242657128198     -0.22455016910230
  C   0.09176546729345     -1.90979020870095      0.99259585736791
  C   0.59430308481427      0.81738972706145     -2.34027586717455
  H   0.04435504759159      0.44402344944739     -3.21681484423003
  H   1.64903688342484      0.94121109660550     -2.63820976508778
  H   0.21042458260844      1.82669276280807     -2.11292353091679
  H   1.40556830327476     -0.58188569564332      2.07918655526480
  H   -0.03787505239777     -2.59631053476061      1.83364746717186
  H   -0.87468747767441     -1.45265070225630     -2.23837324159731
  H   -1.18609377657460     -3.03183638175946     -0.35008060049304
  Si  4.48896299295192      0.87889002021103      3.96662230939670
  C   4.78889694287623     -0.88754452059486      4.55166119004218
  H   5.01469143910741     -0.90283019577638      5.63177118281144
  H   5.63063849135153     -1.36604282600467      4.02626232040069
  H   3.89381137147103     -1.50915337100765      4.38528386752083
  C   3.01276189643065      1.62140552018780      4.86247792457869
  H   2.10221086887497      1.02229777089675      4.69814525896038
  H   2.81465663337353      2.64374727353699      4.50136375431206
  H   3.19306054085250      1.67231194442937      5.94950709620787
  C   6.01210759806131      1.95325021748889      4.24279761633455
  H   6.93230401796063      1.50673141857983      3.83660785444372
  H   6.16558358032281      2.10262160435413      5.32564648407258
  H   5.87951403426263      2.94391487710412      3.77910286376651
  C   5.01827419092708     -1.61861652230443      0.41407141509200
  C   6.88415603695846     -0.12635267827264      1.34407672684412
  C   5.67531652298374     -2.95790413936344      0.17802021261548
  H   3.94910204861810     -1.64506042513175      0.16941466346710
  C   7.20192205124902     -3.05979880235621      0.15613617402253
  H   5.27940837794694     -3.33872534261123     -0.78119621233155
  H   5.26883955992462     -3.65576467236800      0.93659135661853
  C   7.77778687520895     -4.42983818169862     -0.16456069576934
  H   7.61148519661553     -2.73774122095988      1.12808007235571
  H   7.59775786475034     -2.33478619347478     -0.57655862430256
  C   9.18649566758686     -4.57874121394474     -0.24715527258037
  C   9.72384940814291     -5.84059446723982     -0.53667736188151
  C   8.90560408466909     -6.95478409214391     -0.74478138872597
  C   7.52154925341072     -6.81028096167983     -0.66296041572916
  C   6.96983651314464     -5.55690498499109     -0.37558631878265
  C   10.10671148420742     -3.40177693758793     -0.02757945094784
  H   9.35095914003166     -7.92774121121005     -0.96913904161676
  H   6.86441601077456     -7.66961302118539     -0.82195359947479
  H   5.88381205238422     -5.46798836504548     -0.31620334967370
  H   10.81078518892403     -5.95083107257717     -0.59963252285521
  H   9.92677087277988     -2.59582847777151     -0.76030040660416
  H   11.16173639866818     -3.70030803839060     -0.11403718912539
  H   9.96739661252293     -2.95124698536491      0.97026407857139
  H   7.63207368673164     -0.39769459439550      0.58753710173268
  H   7.14732726220138     -0.65678980098272      2.27446436869001
  H   7.00089860606863      0.94943862254766      1.53148356416222
