21
Coordinates from ORCA-job 2242_0.0
  C   -0.38655546428621      1.07934512320485      4.64610047093743
  C   -1.00722984284374      1.20631598241286      3.29352926350802
  C   0.51228107030884      1.22825172711924      3.42803752586246
  C   1.30348474669347      0.06694896965300      2.90261095723250
  H   1.01743340748888      2.19192163498332      3.33719105728716
  H   -1.45363227595643      2.18682757929246      3.09498130015152
  C   -1.69768292411448      0.13479226403154      2.47326873405922
  O   -2.43043324695570     -0.69607659458958      3.21429811011823
  O   2.56243055530872      0.44167943588331      2.63254878444390
  Cl  -0.49636146806876      2.52435857474657      5.68357832047457
  Br  -0.41251188661751     -0.54200331778708      5.68996222093680
  O   0.87720562664942     -1.04953745667172      2.73612200844887
  O   -1.63940733672774      0.11932185244930      1.27063904869958
  C   3.42390060206649     -0.57202279455074      2.10655573047218
  H   4.39265176636506     -0.08775787534850      1.93291897100244
  H   3.02010450573586     -0.97348045111816      1.16467796246689
  H   3.53224498704710     -1.40051244565793      2.82291149503596
  C   -3.09033396183287     -1.75320754502084      2.51248126415423
  H   -3.63234748185086     -2.32948364063426      3.27226094568646
  H   -2.35188074158215     -2.38947806566514      2.00183226075303
  H   -3.78856063682739     -1.34910295673249      1.76390356826848
