21
Coordinates from ORCA-job 2242-2_0.0
  C   0.10230502206398      0.66656756280606      4.29002037619078
  C   -1.05025231481595      0.84629310231762      3.33425780953750
  C   0.37027919761168      1.08104571884790      2.86444839480595
  C   0.78929427895262      2.47797078320537      2.50302095435247
  H   0.81150409338286      0.28780557949695      2.25460526431147
  H   -1.64749186747624      1.74432579250239      3.51354526632344
  C   -1.80712821330517     -0.33789222639228      2.80294435625304
  O   -3.10106869228720     -0.25582894119105      3.14499633646449
  O   1.98124195001770      2.46600051259224      1.88894902741522
  Br  0.27691178175787      1.93772150277591      5.74271692951378
  Cl  0.60752019904364     -0.95861206441620      4.77332173408221
  O   0.14875543606951      3.47482478664588      2.72575126336160
  O   -1.32829407406458     -1.23958321360080      2.16192112453198
  C   2.50080433097874      3.73860278469314      1.49271140077937
  H   3.46488547203383      3.53696920892621      1.01000829128200
  H   2.63838081580146      4.39149838161629      2.36792326597660
  H   1.81598731397854      4.23623299322496      0.78917191169288
  C   -3.93964586729410     -1.33125191426396      2.71462074559224
  H   -4.94932965629597     -1.09071813012260      3.06945552173327
  H   -3.59908405114718     -2.28543144847796      3.14476749578344
  H   -3.92867515500605     -1.41849077118609      1.61746253001625
