38
Coordinates from ORCA-job 2244_0.0
  C   3.02022399667264     -0.69374385391106      2.53001965893694
  C   4.03130212354492      0.35745850989346      2.02646901779096
  C   4.32258828231699     -0.47606956200014      3.22833868383414
  C   0.44165254441060     -1.24714120072541      1.29231215201361
  C   -0.87307082526797     -1.46543255102359      0.53001561765389
  C   -0.57782678597450     -2.23785085668855      1.77036330428407
  F   4.35032473727940      0.09241980303855      4.44734138864215
  F   5.28246552788618     -1.41526682715509      3.13136896452205
  F   -1.29303122255859     -1.96628496947149      2.87886949682006
  F   -0.32663791964217     -3.55857106886329      1.69247110495333
  O   4.70448021863652      0.06335365924010      0.83159807964505
  H   3.80939246503839      1.41787273586735      2.18818687927941
  C   5.89284140925988      0.70782396046665      0.63198752155021
  O   6.32437682906812      1.52540323362046      1.39848713030412
  O   -1.82041214053887     -0.43383774789053      0.59902712830310
  H   -0.84150995163934     -2.00617530235904     -0.42228897931555
  C   -3.11910661036505     -0.79489341350087      0.37423324512135
  O   -3.43978415529081     -1.91313421692145      0.07575544888379
  C   6.53735050237536      0.24808166933645     -0.64960196065584
  H   6.81734016306838     -0.81365082673170     -0.55948367108773
  H   7.43168318782928      0.85099136325552     -0.84747807684170
  H   5.82725705479486      0.32942248456993     -1.48647596050849
  C   -4.03719352028383      0.38609764244999      0.55010076370324
  H   -3.68506738773062      1.23774343419584     -0.05130714337866
  H   -4.02841355473180      0.70421194849956      1.60489385396326
  H   -5.05596531827620      0.10496160363625      0.25757743641780
  C   1.72360909800282     -1.77939624787116      0.66210101820773
  C   2.82138594749967     -1.96856035670775      1.71979017121584
  H   2.06630360632140     -1.05810584438187     -0.10003748347884
  H   1.53539529318589     -2.73345400760341      0.14660275461998
  H   2.52765699326877     -2.77663329553335      2.41198717899561
  H   3.76126575363953     -2.27649077625513      1.24252718866712
  C   0.64157670912490      0.02898835828797      2.10044097491797
  C   1.73671562626411     -0.16618209884317      3.16049729701450
  H   0.93228766856510      0.83730740135628      1.40630495647273
  H   -0.29840673563780      0.34043623644786      2.57554393937951
  H   1.38938985866677     -0.89349557850208      3.91497391725565
  H   1.92369053121700      0.77621655877792      3.69784700189761
