29
Coordinates from ORCA-job 2246-2_0.0
  C   -0.02731579213890      1.01741026570623      4.96833453042353
  C   -0.45473019833909      1.01718946766079      3.51620174906797
  C   1.01522906266750      0.86775530212224      3.89988406240889
  O   1.90250621689306      1.90237562858260      3.70621085231548
  H   1.44262941481124     -0.14325620188652      3.80468764502588
  H   -0.70545059970806      2.02863439009395      3.17342346909908
  C   -1.26196175619044     -0.09638575346185      2.88451329664423
  C   -2.75742751311728      0.03959634031334      3.15002058485968
  C   2.46101841154640      1.95949371863638      2.40273891748372
  Cl  -0.11464739173204      2.53393982271042      5.87465325363056
  Cl  -0.38170592259803     -0.40647855729503      5.97869234034392
  C   3.43799530797059      3.12388495836590      2.34069879762586
  O   -3.42916945406428     -0.99022293289933      2.46832523461735
  H   -3.11780579925449      1.03552661795232      2.80976254008287
  H   -2.95250394787513     -0.01454421498429      4.24164832328301
  H   -0.92579635546244     -1.07701808565833      3.25538385647712
  H   -1.09655757448495     -0.09218518547128      1.79330875506485
  H   2.97848418690886      1.00555686296725      2.16912465273979
  H   1.65803803856844      2.08293182391575      1.64702744805670
  C   -4.81747379556034     -0.98886280994217      2.66329113202459
  H   -5.08885167420266     -1.11698256815747      3.73167460896105
  H   -5.23997386090937     -1.82900756767798      2.09204741658103
  H   -5.28826635534434     -0.04899255030516      2.30648226501442
  C   4.10387573023611      3.26890364119986      0.97205555428527
  H   4.19892773246173      2.97876482237767      3.12651260145703
  H   2.89343472747360      4.04649663266570      2.60511722224565
  H   4.67229730874084      2.36360426468861      0.69904443333220
  H   4.80774552872343      4.11568789245225      0.96218294621361
  H   3.36181632398006      3.44697397532813      0.17533151063460
