33
Coordinates from ORCA-job 2247_0.0
  C   -0.14237560622752      1.24304143994967      4.45753522879832
  C   -0.95317540265778      1.26343050062623      3.20755681150862
  C   0.59569388983411      1.45190580225525      3.17496733247763
  C   1.50787073251397      0.36630622446850      2.63308898814014
  O   1.04501150333771      2.76067615887981      3.00120364113751
  H   -1.47442242276209      2.21997078212600      3.07815791200530
  C   -1.67772109458959      0.04683539304743      2.67103122477004
  C   -3.03924730176290     -0.15869939296918      3.32694366547474
  C   2.89369098435772      0.38842658365441      3.26964314412734
  F   -0.25315218736733      2.24022274493712      5.34809692560795
  F   0.02216291642693      0.06825819921374      5.10941770831743
  O   3.68149713611301     -0.58860046554167      2.63261528343850
  O   -3.65134649160881     -1.27716127737079      2.73540071162966
  H   -3.67171435665800      0.74765234205551      3.20111450701003
  H   -2.91131275104791     -0.30943383113160      4.42034899601472
  H   -1.08600416802720     -0.86706879828505      2.82903513539341
  H   -1.82325371652021      0.14421862872255      1.58172370552682
  H   3.34834715619047      1.39494206350913      3.16575062529216
  H   2.81144621030067      0.18298637898113      4.35790475915137
  C   -4.90202768289203     -1.59974792256822      3.28115782583590
  H   -4.83508377403780     -1.84025457560421      4.36241626548841
  H   -5.28371369339907     -2.48419863778620      2.74928692430532
  H   -5.63451919799055     -0.77422579081429      3.16235694125723
  C   4.99000405494634     -0.67504361153809      3.12854355758098
  H   5.54373074174164      0.27979500709426      3.01154915920932
  H   5.51589239654664     -1.45617948694115      2.55905839057763
  H   5.01126619793232     -0.94817555483421      4.20394953776163
  C   0.92632804758912      3.27852188589860      1.69259684557617
  H   1.24874985625257      4.32892764695333      1.73250413585511
  H   -0.11870825408444      3.24201172821426      1.32983856373708
  H   1.56516844388764      2.74317336838169      0.96598762896644
  H   1.62014396069959      0.48370164536111      1.54168089011472
  H   1.06565387296276     -0.62662517894507      2.79205702791234
