18
Coordinates from ORCA-job 2251_0.0
  N   -0.12524316707302      1.02708509396829      5.28647970212061
  C   -0.95072117971174      1.27378521433613      4.09786548819782
  C   0.55046960541272      1.48004012079822      4.06435007898410
  C   1.45664944619852      0.57816497054452      3.39252349815107
  H   0.85746229304091      2.53464950663574      4.02171759510877
  H   -1.53196586105706      2.20645909283110      4.07498408748638
  C   -1.60910648728853      0.15669966026372      3.46183227474956
  C   -2.19094556159417     -0.75293146674461      2.90847355306951
  C   -2.87801026038241     -1.85773783267048      2.24814850259476
  H   -2.74086461677360     -1.82015152251084      1.15411825919214
  H   -3.96227906340196     -1.83569338790890      2.45027889910663
  H   -2.49286902056288     -2.82991636833339      2.59919203629226
  C   2.23563075674318     -0.14395848354182      2.80624596276223
  C   3.16420095474344     -1.02434621345993      2.10541385698662
  H   3.29574375223859     -1.97548545209328      2.64842422015962
  H   4.15880224615196     -0.55876062946972      2.00194048024612
  H   2.80097057375098     -1.26616115827545      1.09221834439737
  H   -0.21721441043492      1.80262885563070      5.94441316039434
