40
	Energy:      67.9991366
N         -0.07694        1.40765        5.00274
C         -0.93095        1.53995        3.81607
C          0.56575        1.73440        3.72116
C          1.45618        0.69932        3.09287
H          0.90311        2.74631        3.52101
H         -1.55309        2.42349        3.71084
C         -1.58997        0.32871        3.22627
C         -2.92178        0.01192        3.90286
C          2.93335        1.07499        3.19724
C          3.81825        0.00861        2.57091
H          4.87005        0.30489        2.62826
H          3.56428       -0.14319        1.51682
H          3.70582       -0.94805        3.09141
C         -3.61398       -1.16011        3.22386
H         -4.55021       -1.39972        3.73682
H         -2.98008       -2.05281        3.23747
H         -3.84859       -0.92388        2.18072
H         -0.94440       -0.55427        3.29160
H         -1.75762        0.51945        2.15905
H         -3.57943        0.88843        3.87519
H         -2.75316       -0.22782        4.95923
H          1.30583       -0.28099        3.56236
H          1.18305        0.59647        2.03585
H          3.11050        2.03352        2.69539
H          3.21400        1.20806        4.24827
N         -0.18443        2.56884        5.78719
C         -1.32111        2.86705        6.50952
C         -0.94972        3.96241        7.40624
C          0.91295        3.26802        6.24503
C          0.40157        4.20783        7.24177
C         -1.71566        4.67745        8.30775
C         -1.07131        5.67455        9.04793
C          0.30538        5.92699        8.87633
C          1.06134        5.18436        7.96408
H         -2.77305        4.46858        8.43671
H         -1.63704        6.26152        9.76990
H          0.78526        6.70626        9.46642
H          2.12360        5.36200        7.82834
O         -2.43608        2.37660        6.49062
O          2.09430        3.18902        5.95933
