38
Coordinates from ORCA-job 2254-2_0.0
  N   0.31977750603864      0.91253453763826      4.85432915065016
  C   -0.62203830341581      0.53929790678319      3.73851103898435
  C   0.72497957833045      1.10014911557574      3.45061542940088
  C   1.89478175087502      0.26746641511488      2.97774690625652
  H   0.72220424717158      2.13503972379984      3.09131813919797
  H   -0.74475049514367     -0.54745836496587      3.70474606147081
  C   -1.83823511801429      1.34243274027764      3.44826623588091
  C   -3.10487906736754      0.94379392507504      3.65060146620083
  C   3.26054235710762      0.87148799561985      3.32476244072341
  C   4.43364701186568      0.01485926274441      2.84691312379745
  H   5.40023312562426      0.47414531047786      3.10974954289068
  H   4.41684838183698     -0.11933240680311      1.75148986306371
  H   4.40934398719137     -0.99048135604117      3.30121631559173
  C   -3.57233130067711     -0.34650994100455      4.25125127994283
  H   -4.11578329223272     -0.14452661457377      5.19083456501935
  H   -2.74946305684961     -1.03159130575452      4.49606531511978
  H   -4.27899791709737     -0.86448360045221      3.57922352317087
  H   1.80878240905007     -0.74260258710497      3.41467695223655
  H   1.80590619560501      0.14451470849212      1.88182711944806
  H   3.33215606858000      1.88396625509703      2.89044626852361
  H   3.31712119171503      1.01616524207102      4.41679766025133
  N   -0.03057736916526      2.05889549509324      5.57558287322111
  C   -1.00485090418486      1.97724711524459      6.59611860797430
  C   -0.91720867587997      3.28278939493651      7.32105328270889
  C   0.75253388283578      3.22395239687826      5.66622206965141
  C   0.13426996552478      4.02260252207957      6.77080284481502
  C   -1.68165593370216      3.77829006462132      8.36991149699557
  C   -1.35938062454527      5.05442671437105      8.86075496483256
  C   -0.30451154512164      5.79549856668397      8.30934674018421
  C   0.46178300790734      5.28552220026715      7.24831961130789
  H   -2.49952210932714      3.19016866372839      8.79252327059088
  H   -1.93757753746873      5.47731608548408      9.68648624261275
  H   -0.07609025604230      6.78521332378766      8.71346092618938
  H   1.28657494971332      5.85277575503678      6.81082653804304
  O   -1.72744040279617      1.03405805748842      6.80384238329620
  O   1.71680544327178      3.49343009731424      4.98650085511932
  H   -1.67125343171927      2.34324267574116      3.03514746211404
  H   -3.89855371949385      1.64677390917683      3.36662143252146
