43
Coordinates from ORCA-job 2255-2_0.0
  N   0.23614181583092      1.13176125119457      5.00783603036297
  C   -0.73978835859499      0.58651773774581      4.02236312172205
  C   0.54415755300811      1.18694597622289      3.54979893476384
  C   1.68651776030474      0.24876043554795      3.17264330854695
  C   0.48586171255789      2.48729542677229      2.76795549675578
  C   -2.09369928393996      1.20148832434813      3.69841265273663
  C   -3.29858302145633      0.36817900370641      4.16779000683003
  C   3.09979012550064      0.80382370258874      3.38967273138456
  C   4.18835288343306     -0.24179925828359      3.13945988658257
  H   5.19468240722852      0.18149354068983      3.28999926172804
  H   4.14428538360502     -0.63434874739004      2.10867071382769
  H   4.08385904178360     -1.10177944166779      3.82282703013998
  C   -3.49333274494530     -0.94794427274256      3.41026275588190
  H   -4.38561151283177     -1.48336329320251      3.77325124075157
  H   -2.63657921249010     -1.63161298438711      3.53269868105300
  H   -3.62642801196484     -0.77613400432791      2.32791252096299
  H   -2.15728605844493      1.33547438569198      2.60198446726845
  H   -2.16290791784690      2.21459216753589      4.12327438714742
  H   -4.20658955022496      0.98458480561961      4.04700919731684
  H   -3.19810353328779      0.17880551484817      5.24774339954967
  H   1.57250163550218     -0.67618983858217      3.76257342078370
  H   1.55481555738049     -0.04055385832667      2.11234922630568
  H   3.27027898838780      1.67093372146312      2.72867915843100
  H   3.17377283076499      1.19251918219069      4.41834708016138
  N   -0.09065027475861      2.31468827313694      5.68367347477220
  C   -1.08244111867090      2.31957964065820      6.69198380755558
  C   -0.86650126025431      3.58657030976760      7.45495753646863
  C   0.85488066366347      3.34593378960276      5.87884614591601
  C   0.29227029420260      4.19873827150499      6.96997748390184
  C   -1.60480711062671      4.14669542097150      8.49013043607048
  C   -1.14281140027662      5.35726912437295      9.03283508538326
  C   0.02018134785755      5.97113241617918      8.54624709922331
  C   0.75944387369620      5.39495277734824      7.49988320180494
  H   -2.50610275799139      3.65612999815544      8.86471443952929
  H   -1.69529219815655      5.82800509076577      9.85021284165779
  H   0.35670983847096      6.91090042184235      8.99182630371817
  H   1.66957396295854      5.86074563660029      7.11498847403757
  O   -1.90654465440339      1.45629908982539      6.87553657118090
  O   1.89890294986018      3.47519810003377      5.28440316581783
  H   -0.76341199177026     -0.50676058421493      4.10306015819190
  H   0.27342910624500      2.25961369527196      1.70963055196784
  H   1.44143193649870      3.02343237819731      2.82450510746108
  H   -0.30028969580454      3.16585667272452      3.12415340434658
