40
Coordinates from ORCA-job 2256_0.0
  N   -0.09873520692321      1.57419851339183      4.67543184298743
  C   -0.93067612439001      1.63205858537854      3.46084207885417
  C   0.54870365481879      1.80218786560910      3.36608598117018
  C   1.53424188162722      0.75787265558889      2.88845604238636
  H   0.85092115303337      2.83265741904387      3.16146290417306
  Cl  -1.85552691868138      3.15025599404796      3.18010998459070
  C   -1.70480821767489      0.38856248781030      3.08185489074110
  C   -3.01776726559765      0.17568249644553      3.84437675403702
  C   2.92493084251965      0.91539914884435      3.51760299370327
  C   3.92923600044497     -0.12144004311545      3.01318013961506
  H   4.91587428591889      0.01322456162311      3.48484584753909
  H   4.07067618409549     -0.04926599840327      1.92113606364632
  H   3.59327794605787     -1.14910986302717      3.23378604364586
  C   -3.71209864210785     -1.13115588323924      3.45874277828607
  H   -4.65586473596210     -1.25817822054692      4.01282880729032
  H   -3.07875329685256     -2.00735342228381      3.68033279401702
  H   -3.95254366119147     -1.16253970319654      2.38191657180365
  H   -1.03742824795653     -0.47079497681245      3.25594612372544
  H   -1.89482960829805      0.42844670380901      1.99421423429336
  H   -3.68908625589775      1.02813923487310      3.64821387048623
  H   -2.80744182901972      0.19818413967080      4.92514378428330
  H   1.14480528554413     -0.25068850278418      3.10116065704963
  H   1.61000027376057      0.84286139680794      1.78850951160958
  H   3.30103050277517      1.93428685568887      3.32275918538834
  H   2.82682937248533      0.84130848819112      4.61431786850855
  N   -0.16729676385016      2.61414601199671      5.59582347772513
  C   -1.15856179270772      2.60048221371238      6.60356309437409
  C   -0.82115643325662      3.75022730413129      7.49585966600445
  C   0.81655610957256      3.59978442854943      5.81457665555220
  C   0.35776246233481      4.33932863367023      7.03022020645752
  C   -1.47900313002262      4.23385336656034      8.61999614279620
  C   -0.91429491616562      5.34082095908134      9.27424011788390
  C   0.26875630474736      5.93135137976175      8.80687874079570
  C   0.92560031714279      5.43431923849408      7.66949642824375
  H   -2.39903427884399      3.76418190963886      8.97526615551799
  H   -1.40290794711193      5.74947350927246     10.16255694892573
  H   0.68456281873997      6.79171615227662      9.33763841706388
  H   1.84758582603193      5.88502374858064      7.29505232000060
  O   -2.06433795313655      1.80917967750215      6.68831629302098
  O   1.81677200399750      3.77813153335640      5.15866758180668
