60
Coordinates from ORCA-job 2257-2_0.0
  N   -0.03431612611483      1.66847066328585      4.26054219319194
  C   -0.65635169775380      1.83309854175929      2.93027204680282
  C   0.85839531648065      1.71465611528377      3.07061480040766
  C   1.54081171765181      0.35905166564117      2.85064486875652
  C   1.71142160964942      2.88366586492945      2.60698437548170
  C   -1.48693846693912      0.64112117745838      2.50106237324258
  C   -1.26086638963934      3.19515157348425      2.55140980958722
  C   -1.60902262294643      3.41406897605981      1.07195831536056
  C   2.84722490723323      0.16451199963403      3.62862661400463
  C   3.44683444208312     -1.22797279417297      3.42194330265584
  H   4.38363341597310     -1.34965004405322      3.98960969019650
  H   3.67592580336981     -1.41737434661754      2.35883266682224
  H   2.75263784937342     -2.01912324500069      3.75317604184722
  C   -2.18515673059714      4.81136711681429      0.82753562731503
  H   -2.46180839002932      4.95174323217600     -0.22989240339940
  H   -1.45778402119567      5.59836915792372      1.08929047004657
  H   -3.09010460017475      4.98297320216695      1.43465899127213
  H   -0.58059236167547      3.99525008555454      2.88420025033198
  H   -2.18678519118625      3.30170080057424      3.13365132266665
  H   -2.34187005080199      2.65667225946476      0.74956291867577
  H   -0.72051670035513      3.27371250676826      0.43649424050547
  H   0.82876743549562     -0.43155186501280      3.13012649138071
  H   1.73353748392630      0.23942142499954      1.76917389378029
  H   3.58105425742072      0.92998376715525      3.32268922745723
  H   2.65548173756378      0.34243118243571      4.69860722912851
  N   -0.12609545895155      2.66084566969844      5.25265892398985
  C   -1.38107014300844      3.05633267529232      5.78799328450325
  C   -1.07339442720387      3.74582780717771      7.07482483562981
  C   0.87837281909593      2.76210600881145      6.24680691506062
  C   0.28181675487013      3.56434718400101      7.35315640219635
  C   -1.90830816052534      4.44143239162148      7.94058057864458
  C   -1.33177582950618      4.96557266397622      9.10924026812990
  C   0.03055223208461      4.78364581925316      9.38885796278720
  C   0.86242581291505      4.07170902502036      8.50913357218803
  H   -2.96974204608575      4.56862001866938      7.71617138643815
  H   -1.95418261741038      5.52049899371558      9.81597900900393
  H   0.44860651329890      5.19965316416676     10.30917766087863
  H   1.92281085195400      3.91603534546526      8.72022070454362
  O   -2.46725544464461      2.83151193288143      5.30918538169772
  O   1.98469619514542      2.27902993736621      6.18610302087839
  C   -1.36911344152924      0.11341276461660      1.20511379570384
  C   -2.15756226527055     -0.96690242808273      0.79673694432723
  C   -3.08048530994149     -1.53450436947629      1.68011887631124
  C   -2.41627320541177      0.06404030889864      3.37958277051969
  C   -3.20697988368586     -1.01396697906706      2.97203374788906
  H   -2.04728675514508     -1.36787455229816     -0.21462808323073
  H   -3.69681317721055     -2.38033597558252      1.36340390641531
  H   -0.64712831204167      0.54488672450673      0.50701959335779
  H   -2.51787169576712      0.47240080894556      4.38603519761757
  H   -3.92698942636074     -1.45045287037805      3.66995430812330
  C   1.84172148462425      3.06109703532730      1.21496572291265
  C   2.46599905228840      3.72116843655384      3.44236137910362
  C   3.27553644524902      4.73103632475802      2.90737575651835
  C   2.65446609291150      4.06116080716160      0.67885464751047
  C   3.36977204945431      4.91258560943818      1.52692629292962
  H   1.30094343553135      2.39714209836708      0.53668050435302
  H   2.46351327105977      3.56389817627310      4.51729855745901
  H   3.84882152590405      5.37022062401630      3.58464612735149
  H   4.00489975047328      5.70024642898855      1.11285368546535
  H   2.72959068602848      4.17384337120436     -0.40619899472652
