45
Coordinates from ORCA-job 2258_0.0
  N   4.03704299453351     -0.04127045054209      5.37638325223855
  C   2.65633681028570     -0.52112840000789      5.09364474263327
  C   3.71456234575791     -1.43811519741784      5.67188616029531
  C   4.15216406736663     -2.31725583143443      4.52253363430161
  C   3.72547929941228     -1.97533684027726      7.08126223164342
  C   1.56543213020476      0.08561951208332      5.93926807670102
  C   2.46127263885055     -0.91737098523654      3.63222675409406
  C   3.46083591892299     -1.96954393167426      3.34696649194622
  H   4.76378560254832     -2.13960493133012      7.41554742065721
  H   3.19696430723749     -2.94029731378112      7.13544509365341
  H   3.24173724570087     -1.26799547451169      7.76800872288043
  H   3.95126559785963      0.49764836522965      6.24806586345587
  O   1.59677333134839     -0.49908641234568      2.88463226847464
  C   3.71799893327842     -2.62461131734536      2.14156531816492
  C   4.66788064150487     -3.64656428008734      2.11266054336282
  C   5.34188411726918     -4.00546717789591      3.29606029861867
  C   5.09034347781446     -3.33884740168921      4.51114802983958
  H   3.17218405824896     -2.34043451983866      1.23838683546961
  H   4.88818807733208     -4.17101179946623      1.18191092549165
  H   5.63980865729660     -3.64782655481362      5.40235599259562
  O   6.29902520313654     -4.97597905018768      3.34317158223550
  C   6.39948518901947     -5.95792840401406      2.37660154044810
  C   5.33693176950249     -6.83213378275609      2.11694918333521
  C   5.50871212616915     -7.85784622157083      1.18390742592932
  C   6.73129997945215     -8.01776982409037      0.52193073164672
  C   7.78791397880930     -7.14418192480172      0.79755761314733
  C   7.62564884513943     -6.10893391152511      1.72326842296192
  H   8.43698971497263     -5.41561497230120      1.95470749764107
  H   4.38987504417308     -6.70842325656754      2.64677436880869
  H   4.68128555442974     -8.54266197098536      0.98003858868082
  H   6.86048461523523     -8.82433810740923     -0.20394958893600
  H   8.74719692137819     -7.26516542387701      0.28751452914545
  N   0.34275610797056      0.15855164940709      5.36671057540100
  C   -0.76393164827173      0.75351277033237      6.07162807430757
  C   -2.04136907377780      0.58961719368759      5.27297276666888
  H   -0.60999244822683      1.83311854796948      6.26288433997203
  H   -0.89161514164812      0.29907605436018      7.06816115241163
  O   -3.09666214472687      1.03586491421710      5.96747221437980
  C   -4.36667892773498      0.96384571988556      5.31385817720467
  H   -4.36292103669013      1.55784189755173      4.38716262599725
  H   -5.09812379043662      1.36901764177054      6.02390908407796
  H   -4.61600953295424     -0.07779142402460      5.06032739218762
  O   1.80102170524272      0.49233297530894      7.07541521761816
  H   0.23621568372920     -0.03967277943064      4.36896494731756
  O   -2.10387894666655      0.13503263143349      4.15756288089327
