42
Coordinates from ORCA-job 2259_0.0
  O   7.23712648274335     -5.38267890444899      2.55866471526405
  C   8.24807172995536     -6.25228679421107      2.22215595678501
  C   7.79542781106593     -7.45546902123648      1.66308857681707
  C   8.71141892825102     -8.42565065899965      1.27698154803273
  C   10.09447074837363     -8.21537480329349      1.40354276804305
  C   10.52256478926975     -6.99808646723159      1.93727861191846
  C   9.62159584958727     -6.01964054922875      2.36947756200660
  H   9.98084490530408     -5.08862576850472      2.79874704930645
  H   6.72798789526739     -7.63113505074057      1.53146772336106
  H   11.59669918609914     -6.81043845775394      1.98850237683575
  C   7.38316367728811     -4.20645670885566      3.25305155261623
  C   6.03902479614253     -3.54645347768217      3.40638606277315
  H   5.62300192923492     -3.31371699216462      2.41338419516289
  H   6.15012989442048     -2.62626082725931      3.99210127687560
  H   5.33445073984908     -4.23205758812295      3.90183174959744
  O   8.42988203487725     -3.78827014969156      3.66319188043472
  N   8.14009000701839     -9.69467883271973      0.77687980516384
  O   8.69770404670297    -10.72075802456124      1.12250968735455
  O   7.12980959350335     -9.62462741430683      0.10192488528240
  S   11.40749173310441     -9.27193388205121      0.68338475101914
  O   10.89061052019195     -9.80460803975138     -0.58567418843446
  O   12.61060035864339     -8.42331127280934      0.69386343833297
  C   11.70905434081006    -10.60006889859127      1.85528002862165
  C   11.34635415447621    -12.01684185818299      1.52595664124051
  C   12.79685239628365    -11.61145329383729      1.54050553861456
  H   11.62632618161101    -10.22003834189784      2.87799933317976
  H   10.88171757727423    -12.16868607946047      0.54732825706536
  H   10.93343076563733    -12.62979201516560      2.33193147713082
  C   13.63473098832510    -11.56733031253848      0.27406316307461
  H   13.36685212081540    -11.90245720341739      2.43210721415119
  C   14.33211975772479    -12.90134112545748     -0.01443713822401
  H   14.38575908875530    -10.76429933771341      0.37182558306591
  H   13.00056998591740    -11.28431157601998     -0.58153613041662
  C   15.19920204778134    -12.87229847368827     -1.27744119017602
  H   13.57241037183597    -13.69956770112814     -0.10750005874826
  H   14.95991924911805    -13.18332963040987      0.85231408631092
  C   15.90800772214210    -14.19708013159902     -1.56382909616671
  H   15.94817395352266    -12.06467979713293     -1.18272881227629
  H   14.56853836672179    -12.59432092251581     -2.14149385758983
  H   16.57652497734341    -14.48291718013644     -0.73367764607602
  H   16.52067873382960    -14.13862942341645     -2.47802768749061
  H   15.18459956318029    -15.01881701206521     -1.70096168983967
