21
Coordinates from ORCA-job 2260-2_0.0
  C   -4.70410620619723     -9.79321615387489     -1.00386896820911
  C   -3.51212625300373    -10.62111281831362     -1.35617163031482
  C   -3.78122685947120     -9.33817758945909     -2.12387861477235
  Cl  -3.70639925520018    -12.16455147715605     -2.19321196036516
  F   -2.47149440738480    -10.64641707092316     -0.49912401623151
  C   -2.89890155998797     -8.13409713821061     -1.89087795270724
  H   -4.14937089233790     -9.50279040223001     -3.14042417162195
  C   -2.20392725540162     -7.57823870163779     -3.11474960985871
  H   -1.58153644049281     -6.71849933185661     -2.83406246966844
  H   -2.94713100491295     -7.27189798368021     -3.87051400176540
  H   -1.57741137836550     -8.35856838133635     -3.57954352027576
  O   -2.75632317682394     -7.66009528045637     -0.78555999023885
  O   -5.97671031860625    -10.17601685728715     -1.35554623972876
  H   -4.56934529928447     -9.21516005960285     -0.07658560856607
  C   -6.62553458439587    -11.04823379000804     -0.42675091506094
  C   -7.13959534577288    -10.32984006653023      0.81422600987789
  H   -5.94433772546588    -11.87459775127092     -0.15218331255647
  H   -7.46403980107531    -11.48764065116766     -0.98906322705118
  H   -6.31973928969100     -9.91079471817891      1.41966473532068
  H   -7.69520304829540    -11.03463856356778      1.45414291516091
  H   -7.81680989783306     -9.50707521325162      0.53547254863325
