41
Coordinates from ORCA-job 2263_0.0
  C   -1.67293230997226    -11.84162646888936     -2.06069203755657
  C   -1.56239559011050    -12.01439832417286     -3.44875080664908
  C   -1.00316715186510    -13.17987279035346     -3.98876109859099
  C   -0.53125492517340    -14.21402194604136     -3.17084116328902
  C   -1.18259828416498    -12.87384213592402     -1.23765946814117
  C   -0.63210131142729    -14.03163088635861     -1.77926101264421
  H   -0.93487482742977    -13.26551361372176     -5.07511133303013
  H   -1.89247744637874    -11.23221834042070     -4.13258734092337
  H   -1.23925302776140    -12.76417501929136     -0.15054199961838
  H   -0.26686289456784    -14.81510768928454     -1.10738093581801
  C   0.07626557084284    -15.49659508574444     -3.71260351175186
  C   0.20635646197323    -15.60662389982037     -5.23101912639463
  H   -0.52355264717516    -16.34672859079988     -3.33811282117066
  H   1.07295825096336    -15.62705921441202     -3.25273672745858
  H   -0.77385772845389    -15.55026564968888     -5.73204375063763
  H   0.66356792559013    -16.56925646803531     -5.50923817445236
  H   0.84020330571625    -14.80609936866865     -5.64617705914237
  C   -2.27178631100063    -10.64556541037163     -1.38349040320186
  N   -2.58049456840167     -9.38123547960472     -2.00541316469339
  C   -3.70550451225467    -10.17702632142872     -1.61759922077085
  H   -1.91582062424796    -10.54324690227044     -0.34854134811870
  C   -4.62477892215909    -10.87733085976758     -2.59348852213124
  H   -4.24846385272562     -9.81216429353935     -0.73278010744715
  O   -5.26805888848135    -11.90835277081944     -1.88442781284138
  C   -6.16816107035801    -12.65376095248929     -2.65909166190854
  H   -6.98366537380596    -12.02430715923105     -3.07268266079830
  H   -6.61475054137047    -13.42128693732999     -2.00960400609573
  H   -5.66572705692212    -13.15981831405269     -3.50894012491479
  H   -4.06728926814635    -11.27492235644932     -3.46208540317991
  H   -5.37111055787618    -10.15720281851914     -2.99305576950181
  C   -2.20948038021125     -8.79115374719127     -3.20895799147172
  C   -0.84979202022495     -8.72391171719499     -3.58013885419228
  C   -0.47024145175287     -8.05873290479414     -4.74604046254886
  C   -1.42345610639540     -7.44165367655124     -5.56482758107732
  C   -2.77066694397149     -7.49573730638429     -5.19328015981332
  C   -3.16616411221424     -8.15967030633744     -4.03025499212058
  H   -4.21989572101856     -8.17923849067260     -3.74349551020099
  H   -0.09926585496085     -9.19762419504363     -2.94379117902082
  H   0.58876782909004     -8.02048229747502     -5.01719494761146
  H   -1.11902561406039     -6.92139260144705     -6.47609334720865
  H   -3.52991144713536     -7.01245668940694     -5.81493640186120
