46
Coordinates from ORCA-job 2265_0.0
  C   -2.75837579941496    -10.28363385703726     -0.50994122033580
  N   -1.57054024604186    -10.66407556290902     -1.28030997403473
  C   -1.91570268950010     -9.25930799045777     -1.28687891923196
  C   -2.44276192202346     -8.70814345483246     -2.60359080191204
  C   -4.05729856395364    -10.81808975880767     -1.10740770351231
  C   -4.32689683687477    -12.28408426610839     -0.75311677988220
  H   -4.01822104847577    -10.71827409777195     -2.20203230826220
  H   -4.88570739760936    -10.17994710869295     -0.75134284796820
  H   -3.50536247278495    -12.92758896695468     -1.10734121257948
  H   -5.25694833437389    -12.63501207250549     -1.22799285346033
  H   -4.43184807447817    -12.43848609259165      0.33266874439939
  O   -2.27522473623254     -9.53458068493565     -3.64861892604580
  S   -0.08830308092537    -11.36959679358315     -0.88456509753181
  O   0.93760442179767    -10.50235886187906     -1.46908556584740
  O   -0.01384075510669    -11.75460712653983      0.53358348841678
  C   -0.17421588965679    -12.88338892517514     -1.84116218411453
  C   -0.28347041698180    -12.80895411729350     -3.23310363791021
  C   -0.30360928973616    -13.99107123795175     -3.97232384836720
  C   -0.20990103780031    -15.24716591475794     -3.34542120156227
  C   -0.07892426652468    -14.11329052197865     -1.18778123328857
  C   -0.09933888704053    -15.28646398910437     -1.94581919971714
  H   -0.39595050379359    -13.94018371653429     -5.06108271027336
  H   -0.36933023244868    -11.83646638094637     -3.72186710452932
  H   0.00835523478967    -14.13991351914441     -0.10015552889186
  H   -0.02836983049463    -16.25231678884803     -1.43693953225852
  C   -0.20681527222207    -16.52154130230235     -4.15344657806078
  H   -0.60181751402405    -16.36049381685987     -5.16770470401313
  H   -0.80950276025306    -17.30690106452891     -3.67021311184532
  H   0.81833778100481    -16.91876162363973     -4.25692311972749
  C   -2.74694991516254     -9.04768211065585     -4.90763464756836
  H   -3.82648831184231     -8.83709583747427     -4.86601392504154
  H   -2.53946396815917     -9.83948372847125     -5.63817055854818
  H   -2.22320496962805     -8.12092876766051     -5.18728993445343
  O   -2.95701229202486     -7.61903187242701     -2.69632176081717
  C   -2.72456817332901    -10.24238999998458      1.02714899553075
  C   -1.10986099286706     -8.20147580164670     -0.52944456428680
  C   -0.88161712168250     -8.50100908906283      0.95516369695315
  H   -1.68012408505284     -7.26529178023196     -0.63355932332721
  H   -0.15027623021763     -8.05931209688783     -1.05114471359954
  C   -2.18423835958027     -8.93567043964198      1.62433436176969
  H   -0.48578929228459     -7.59145374948954      1.43619984447169
  H   -0.11495199235734     -9.28101239926983      1.08563411578759
  H   -2.12112145654467    -11.08923243314621      1.38510735685510
  H   -3.75088170715929    -10.41053714507340      1.38871942453013
  H   -2.93755895375546     -8.13443464997598      1.50694837703104
  H   -2.03833175717260     -9.07024848422750      2.70882892706095
