75
Coordinates from ORCA-job 2266_0.0
  C   -3.66248290214229     -7.69617296295871      0.01002519917726
  O   -2.58218345279391     -7.06037178846851     -0.67971685222909
  C   -2.38799350149347     -8.42718669318902     -0.32768216530148
  C   -2.32813386840786     -9.38341341419810     -1.50139378286863
  C   -3.93907888486686     -7.19997470244292      1.39942336246967
  C   -4.85010133276026     -7.80197308900631      2.24406212973120
  C   -2.40793304248625    -10.77314863468967     -1.31513659791875
  C   -2.33929725301688    -11.64204059055692     -2.40703193813731
  C   -2.16478367657986     -8.88365065918593     -2.80280381952305
  C   -4.91200109394922     -7.94616398863055     -0.81832419194786
  C   -1.32845502111865     -8.68389139723181      0.71713942228738
  H   -5.51717893404296     -7.02809814777843     -0.86865604124393
  H   -5.53252689642610     -8.72895302571690     -0.35428652967904
  H   -4.66315319794537     -8.26375885701934     -1.83833798797547
  H   -2.52180874662985    -11.18428667768218     -0.30943749281768
  C   -2.17663860889055    -11.13601937137002     -3.70096468205461
  H   -2.40945653210676    -12.72115035517364     -2.24515700523915
  C   -2.08665430335946     -9.75451172583949     -3.89379649383617
  H   -2.10501701265438     -7.80326969994296     -2.94781405180782
  H   -2.11810392412807    -11.81664865070711     -4.55451044217837
  H   -1.95511916482890     -9.34917735365406     -4.90084550698649
  C   -1.54480616853303     -9.56885516194152      1.78308706945441
  C   -0.51754471423805     -9.86192235569295      2.68300426364521
  C   0.74854012388394     -9.27076702558327      2.53855359076745
  C   0.95634655985008     -8.37202009750317      1.47640973167682
  C   -0.06703491430322     -8.08104121844946      0.57933525424609
  H   -2.52831211664790    -10.02433116538297      1.91933597015695
  H   -0.71677829538353    -10.55291088600964      3.50471313971905
  H   1.94147853315230     -7.91130010524245      1.37825355977255
  H   0.10119238700426     -7.37563328896141     -0.23751073396522
  C   1.89303360190600     -9.54440944106041      3.47311816541692
  C   1.69092104681839    -10.54265314479841      4.60175761126902
  H   0.88336405891212    -10.21551512507788      5.27741420778944
  H   2.62742014339103    -10.62718889276356      5.16799705567302
  H   1.40859068519326    -11.53322793112064      4.20913557768334
  O   2.96093205194728     -8.98097301066880      3.32913129761832
  C   -3.43229948468451     -6.01852507418205      2.07962788446816
  C   -4.06999786634298     -5.96792322811628      3.30298941850713
  N   -4.92740257522715     -7.04895297969539      3.40035809755507
  H   -5.47874278733782     -8.67931385994531      2.11832787564945
  H   -4.01340431913745     -5.22707756884319      4.09611957947231
  C   -2.44655523417615     -4.99287215618227      1.62532230379585
  C   -1.19958300792800     -4.87809738544182      2.29001473210082
  C   -0.28916314431849     -3.89688661850668      1.86842857567978
  C   -0.60046062239654     -3.02669590820835      0.82496030994217
  C   -1.83792897816437     -3.12762516971721      0.19062508701255
  C   -2.77129775361555     -4.10095405915699      0.57414219848474
  H   0.67828544547720     -3.81804335206593      2.37295104380924
  H   0.11880273104091     -2.26527230826097      0.51057376379180
  H   -2.09280169927369     -2.43743719387938     -0.61895820101546
  C   -0.82353771712468     -5.77247092301035      3.45070483176607
  H   -1.11273385082386     -6.81882484653858      3.27805753346308
  H   -1.31909738660511     -5.45432571765953      4.38425998566318
  H   0.26153307814396     -5.74100720791906      3.63019964406689
  C   -4.09590782021655     -4.17299945383810     -0.14760450521292
  H   -4.31883130709286     -3.22202424272997     -0.65480763184342
  H   -4.92748985399878     -4.40094410675648      0.53646770137537
  H   -4.07703922195684     -4.96074998798640     -0.91876313337971
  S   -5.88260355838354     -7.45153019018553      4.77678033784338
  C   -4.75470493352888     -8.32420874584597      5.85757523646353
  C   -4.58062728798818     -9.70353550986107      5.70042579933219
  C   -3.70926583265108    -10.37519588005910      6.55708929270216
  C   -3.01394330105265     -9.69419323509404      7.57358950087527
  C   -3.22628397901846     -8.31282380639185      7.71604482748807
  C   -4.09322849095707     -7.62117732836779      6.86778202512140
  H   -4.27314987795974     -6.55225223968225      6.99603315866369
  H   -5.13769643501925    -10.24113826082578      4.93081994424481
  H   -2.71160317805366     -7.76773842009210      8.51209441367870
  O   -6.87763778548309     -8.39658615721191      4.27891080220027
  O   -6.22704954619163     -6.17862834802884      5.39966235192228
  H   -3.57579021981372    -11.45502294554865      6.44414459666555
  C   -2.05763585555693    -10.43191982641614      8.47706039899157
  H   -2.44253781451487    -11.42860986927583      8.74400348357771
  H   -1.86540536403376     -9.87559150840190      9.40640217746959
  H   -1.08473479635883    -10.58384374437034      7.97697426476322
