56
Coordinates from ORCA-job 2267_0.0
  C   -3.43793170094151     -8.02377104370105      0.14793456299579
  O   -2.72530435781993     -7.03855064834129     -0.60322908655794
  C   -2.22293483201836     -8.36753346565203     -0.68627221995533
  C   -2.36023022338765     -9.00903415043667     -2.05066623788795
  C   -3.30715851924579     -7.92996683273500      1.63733435642554
  C   -3.67531645436833     -8.93296453904723      2.52061721215052
  C   -2.11946149935509    -10.37851890729919     -2.24977555480542
  C   -2.24655668499169    -10.94693152305293     -3.51984860494962
  C   -2.71764279089198     -8.22044161016423     -3.15619475026070
  C   -4.83641422221066     -8.32787027502092     -0.35278594717188
  C   -0.88601763451217     -8.56662193262544     -0.00978825314321
  H   -5.50406556784897     -7.50229292046408     -0.06144601201520
  H   -5.22263260235380     -9.25301920542447      0.10344797097816
  H   -4.86513322278676     -8.43811447462277     -1.44450677777905
  H   -1.82738869242446    -11.01081510020556     -1.40895890506320
  C   -2.60429626809123    -10.15395463335191     -4.61512668675402
  H   -2.06113797546468    -12.01614092297051     -3.65451574662441
  C   -2.83623892082735     -8.78836922486677     -4.42815043590223
  H   -2.90495016874723     -7.15609053347281     -3.00258838711912
  H   -2.69953479704336    -10.59870496392189     -5.60930589484757
  H   -3.11185799867775     -8.15800534278939     -5.27819563958503
  C   -0.58571041097373     -9.72857537148970      0.71572672929641
  C   0.66492429795557     -9.88953399918797      1.31504394578016
  C   1.64453418264086     -8.88816472814813      1.20656897019259
  C   1.33755853526926     -7.72255521905040      0.48299529163796
  C   0.09168981783696     -7.56402322672508     -0.11669265060958
  H   -1.34382288484917    -10.50554805850405      0.83918197604595
  H   0.86571761717164    -10.80241996007762      1.87970560853951
  H   2.10274880462910     -6.94696520889509      0.41028212261027
  H   -0.14470611759599     -6.64829260779738     -0.66273038974768
  C   3.00414453438340     -8.99610412310590      1.83711591863041
  C   3.33782826859917    -10.24097272769223      2.64292851803652
  H   2.63986849629857    -10.36337937393191      3.48735771395343
  H   4.36178500306830    -10.14730348243918      3.02705401788674
  H   3.26120182178322    -11.14807591807241      2.02123869100393
  O   3.82209919219396     -8.10509962810950      1.70827851712064
  C   -2.74945622854215     -6.86661669258092      2.43175526378705
  C   -2.79702824814172     -7.29494638965946      3.75160897382952
  N   -3.35406266189103     -8.54358627199800      3.79808949779818
  H   -4.12450178422168     -9.90651866147895      2.33231573421025
  H   -2.47897446507235     -6.78411749822036      4.65792386870131
  C   -2.23927750483897     -5.55054898840528      1.99917569680757
  C   -0.98893785197369     -5.05816438633799      2.40859828169403
  C   -0.49806621146626     -3.80960810052864      2.03189936853076
  C   -1.28024555935603     -2.99731396706370      1.20801425627831
  C   -2.53461006116184     -3.43546011840201      0.77485623413918
  C   -2.98504379038419     -4.68886834201388      1.17766868224118
  H   0.48712505664778     -3.50032820714747      2.38553322602164
  H   -0.91101206419049     -2.01538106693575      0.90255463906431
  H   -3.17338948332273     -2.82427608855996      0.13473552477693
  F   -0.22158355740212     -5.82937094273481      3.19725526168071
  F   -4.20105159335228     -5.08765856010924      0.77487663528056
  C   -3.66430691358213     -9.28230448637350      5.00547126604091
  H   -3.58945314851530    -10.36281128056904      4.81339783258544
  H   -4.68190811773649     -9.06070761587175      5.37119743707418
  H   -2.94429183589850     -9.02243645161565      5.79465837695252
