59
Coordinates from ORCA-job 2268_0.0
  C   -3.53751166116477     -7.84911746096073     -0.03237107745318
  O   -2.65309553358230     -6.97141828780825     -0.73143654854550
  C   -2.26352771746433     -8.34008246469617     -0.68042976042964
  C   -2.28161388465150     -9.03943679993438     -2.02430282843377
  C   -3.57056966071233     -7.65268700341732      1.45403675559872
  C   -4.04054563576274     -8.57300434971334      2.36553813364633
  C   -2.26977678303829    -10.43895764621615     -2.13908931076875
  C   -2.25688392336029    -11.04970661782055     -3.39594032234996
  C   -2.27917915141221     -8.26677195688932     -3.19660013112275
  C   -4.88452632885766     -8.08179679962243     -0.68596900888814
  C   -1.04664653815056     -8.60911646334532      0.17647835252820
  H   -5.52396332102532     -7.20351258580920     -0.51092167635400
  H   -5.38258073043990     -8.95938532072502     -0.24408683889939
  H   -4.78452358606030     -8.24054699174617     -1.76763186066109
  H   -2.27371992690540    -11.06475045530724     -1.24464126470863
  C   -2.24682329506925    -10.27199532512891     -4.55826073672311
  H   -2.25352593661799    -12.14079901166695     -3.46663970952290
  C   -2.25794546786861     -8.87834745446663     -4.45336470571949
  H   -2.29991484801971     -7.17897687902112     -3.10893863239606
  H   -2.23148117097582    -10.75120992311051     -5.54073093704966
  H   -2.25039556523320     -8.26041116232836     -5.35546647996443
  C   -0.88354704211225     -9.81505573140111      0.87564429105920
  C   0.26324723010805    -10.04768343308408      1.63657368327358
  C   1.27389879661801     -9.07475077297110      1.72413526995937
  C   1.10110891472057     -7.86323332130624      1.03334045325365
  C   -0.04100237243474     -7.63390945883034      0.27042451247210
  H   -1.66444981240534    -10.57797938468605      0.84024983087717
  H   0.36177883359500    -10.99793834523352      2.16600712772819
  H   1.88661050499665     -7.10910771068441      1.11409494454007
  H   -0.17352967769002     -6.68510853143717     -0.25309514485096
  C   2.53206518138795     -9.26661550226511      2.52381090721251
  C   2.73203858430101    -10.57616861386281      3.26893417374054
  H   1.92474067947649    -10.74589872039824      4.00033486973268
  H   3.69533273794925    -10.53829493894449      3.79368594439434
  H   2.72778221923390    -11.43166114364663      2.57368427226269
  O   3.37603238910914     -8.39262117470664      2.57178871136255
  C   -3.11710290557014     -6.49908764599860      2.20318904454242
  C   -3.31722172724694     -6.77829236069557      3.53944178889586
  N   -3.88233103358972     -8.03544210519403      3.63383881533833
  H   -4.48406220516504     -9.55686978488794      2.23473170693977
  H   -3.14263011177314     -6.17507721878801      4.42635110093153
  C   -2.58149909793726     -5.21999501960187      1.69108946129127
  C   -1.35573932652959     -4.69380293693741      2.12744817555574
  C   -0.84927327884821     -3.47404986437232      1.68313359172805
  C   -1.58950280354159     -2.73352898517682      0.75901906421518
  C   -2.81466781480175     -3.21378442944364      0.28803180422376
  C   -3.28065953097577     -4.43681327290927      0.75928484841211
  H   0.11297519122408     -3.12905606844729      2.06555410452214
  H   -1.20855506345841     -1.77376128662408      0.40209047222045
  H   -3.41677886186073     -2.65917620403232     -0.43369931562518
  F   -0.63028020225235     -5.40357520692718      3.00617772690921
  F   -4.46221870890462     -4.88832501150943      0.31130690168300
  S   -4.22308162318712     -8.85347891477888      5.10952195483489
  O   -5.21734157947953     -9.86942536602480      4.78799624414960
  O   -4.44154679883076     -7.81599739705858      6.10862828498855
  C   -2.66663719833680     -9.67530834705615      5.47487475651505
  H   -2.42963478626015    -10.36355669446420      4.65358464849288
  H   -2.83283180285542    -10.22624413449640      6.41152041867958
  H   -1.88643523030007     -8.91407400138253      5.60272914175528
