39
Coordinates from ORCA-job 2270_0.0
  C   -3.98573985681045     -8.97994801970357     -0.84689779651992
  N   -2.61644794101173     -8.49816678074402     -0.63582362084329
  C   -2.82148069805324     -9.92553353632060     -0.88213628262983
  C   -4.74862492716852     -8.62064756281993     -2.07074707697268
  C   -2.35115568392073    -10.55813195757191     -2.16964271440875
  C   -4.53843900309745     -7.60051499200252     -2.96812392835615
  S   -6.17182873621237     -9.53554523825681     -2.51819307655120
  C   -6.47465957359704     -8.52947558646445     -3.91678287532632
  C   -5.51292712769648     -7.55379982920197     -4.01401618098771
  H   -3.72274740172408     -6.88007275223553     -2.87508080831343
  H   -5.50951223396622     -6.80773764843556     -4.81189542578689
  C   -7.64346908175452     -8.78965171587059     -4.82737458532324
  C   -2.93025790573976    -11.94434053206619     -2.39100861485571
  H   -1.25015937609313    -10.65998431155091     -2.16642846904524
  H   -2.59594895677182     -9.93492000736431     -3.04442540661235
  O   -2.62285405825387    -12.40107857845520     -3.61791605770693
  C   -3.08622550141148    -13.71804005212764     -3.95902433124300
  C   -2.66972479675973    -14.00964433567590     -5.39027790062109
  H   -4.18124636896466    -13.75909647448826     -3.83348873864373
  H   -2.65586462041153    -14.44635215002162     -3.25032216858209
  O   -3.56683442813165    -12.57422629317434     -1.58237022668369
  C   -3.10201422938491    -15.40163138738959     -5.86218711079111
  H   -1.57278747185232    -13.90777870445778     -5.47022179528238
  H   -3.10082717005884    -13.23638513383900     -6.05071452590927
  C   -2.69192088209272    -15.70156110953635     -7.30506756265776
  H   -4.19873951600509    -15.49810849782509     -5.76246045738074
  H   -2.67126066908661    -16.16605913475678     -5.18978655889458
  H   -3.14097349624029    -14.97923986781685     -8.00756359315496
  H   -3.01125842087139    -16.70974275298943     -7.61403229538737
  H   -1.59737370274601    -15.64518633706350     -7.43002706605963
  C   -7.55541570906525    -10.10213344876098     -5.62220446798505
  H   -7.71492644411837     -7.93805796345348     -5.52451142752712
  H   -8.58009220292909     -8.78329244154055     -4.24117952514581
  H   -6.65487939471043    -10.12150898709158     -6.25672380940830
  H   -8.43658887973166    -10.22518834223363     -6.27262523119578
  H   -7.50898945941674    -10.97425032049650     -4.95011204980149
  H   -2.26765723907825     -8.04098044516174     -1.48109787452633
  H   -4.58918519266776     -8.98775134552306      0.07093529615483
  H   -2.67670164239366    -10.55812542551169      0.00123634096630
