40
Coordinates from ORCA-job 2271_0.0
  C   -3.87031850186249     -9.17389362309271     -1.40130964943183
  O   -2.65467194801527     -8.44911521567256     -1.47678164037652
  C   -2.54398796430584     -9.84679301762893     -1.26896410607787
  C   -4.70363505026630     -9.36860385825001     -2.66065219350721
  C   -1.95430003078751    -10.67614568930165     -2.36151911996747
  O   -4.66602931389649     -8.29441060226411     -3.45237974097842
  C   -1.76782915644375    -12.05155638125842     -2.16083981211648
  C   -1.22370290198043    -12.84518959405170     -3.17059894245550
  H   -2.25795558688455    -10.13171725411646     -0.24807239334071
  C   -1.57017199383699    -10.10068115005873     -3.58357696664518
  C   -1.02265081919911    -10.89479575862546     -4.58813418522041
  C   -0.84492118347053    -12.27651246496037     -4.39903036602445
  H   -1.70200258000555     -9.02644196351777     -3.72741514778396
  H   -0.71462685511845    -10.46503005278766     -5.54365526969639
  H   -2.05594913675175    -12.50623032276539     -1.20881550186395
  H   -1.09590976672638    -13.91450369348192     -2.99146082371784
  C   -0.25220043032441    -13.07688676440318     -5.52749608273205
  C   -0.03910210851364    -14.56731983650539     -5.33004382508734
  H   0.62833286392707    -14.76258581204016     -4.47472773342547
  H   0.40601285117447    -14.98370526580677     -6.24279080040460
  H   -0.99357966721416    -15.07883041535613     -5.12324031577923
  O   0.04807570017577    -12.53796103559526     -6.57520917860448
  C   -5.46600086471290     -8.32040289135067     -4.65373173844907
  C   -4.66033060857477     -8.79971394607031     -5.85520975053713
  H   -5.80341059287864     -7.28190285254424     -4.79132132503673
  H   -6.34090343017071     -8.96533272884364     -4.48354858477108
  C   -5.48668811533912     -8.77931664689040     -7.14279049225275
  H   -4.29712329635329     -9.82136368073677     -5.65492891690736
  H   -3.76796362827152     -8.15962315032820     -5.96453970993281
  H   -6.36853978637762     -9.43713296230060     -7.06627614079594
  H   -4.88873822096703     -9.12446710222051     -8.00042214856623
  H   -5.84806343031322     -7.76360641092247     -7.37730748352537
  O   -5.32298180225910    -10.37934028455204     -2.86735480600271
  C   -4.72680916461981     -8.90293480568237     -0.17637421100687
  O   -3.98929592294002     -8.81201626811986      0.93632810482656
  C   -4.69626535322085     -8.50368096993805      2.14130115260760
  H   -5.22142892664936     -7.54147642399846      2.04547995211872
  H   -3.93918020443839     -8.44896431680683      2.93297631698844
  H   -5.43594547943146     -9.28627007878623      2.36871356571802
  O   -5.92407759215577     -8.77149470836729     -0.21605998923781
