39
Coordinates from ORCA-job 2272-2_0.0
  C   -4.19051915300598     -8.71678777601726     -1.60684516719620
  O   -2.91014145359292     -8.13352406519242     -1.42956157768861
  C   -3.05386376882697     -9.46845168245592     -0.97335125341537
  C   -4.58440679019244     -9.02093008740738     -3.03115465695402
  C   -2.92856055847333     -9.73418937685826      0.49002059395637
  C   -3.73804437223937     -8.60824858149778     -4.07233410511105
  C   -2.69159791550025     -8.70008545292618      1.40488196492598
  C   -2.57416045408414     -8.95223417117908      2.77606094326335
  H   -2.59357152242661    -10.22505771677087     -1.62616306308457
  C   -3.03370041179280    -11.05015077031795      0.97015954341909
  C   -2.92503984006472    -11.31693988674013      2.33148849101813
  C   -2.69805422023372    -10.26976919449945      3.23588262722549
  H   -3.20601974583906    -11.87483618163419      0.27253778575602
  H   -3.01020314904203    -12.33446554023396      2.71829023254717
  H   -2.59529113986417     -7.67914732781120      1.03165499716283
  H   -2.38807753556696     -8.14246717149587      3.47602301833906
  O   -2.60242478854182    -10.68194863070947      4.55634513935165
  C   -2.46661033994571     -9.87768993488412      5.64720326067396
  C   -4.06133139678985     -8.89559685678020     -5.40145145843763
  C   -5.23000707514552     -9.59955062483033     -5.70522693247467
  C   -5.76008280400638     -9.72643969624198     -3.33997423881719
  C   -5.29891500911456     -8.22087489919613     -0.69258393031912
  O   -5.01343037978824     -7.04549717249404     -0.12666868024061
  C   -5.99316058306519     -6.52761541021197      0.77945573331105
  H   -6.95956350149106     -6.39258702057584      0.27100962709202
  H   -5.60394978240208     -5.56321245515975      1.12797586295077
  H   -6.13444017858881     -7.21368043920218      1.62817440498064
  O   -6.32445187221920     -8.83145577738139     -0.50742379419382
  C   -6.07608905606749    -10.01242414481825     -4.67067009235517
  H   -6.42482407226742    -10.04142086947084     -2.53461465127698
  H   -6.99213512713611    -10.56399637222016     -4.89933234334443
  H   -5.48190425272286     -9.82500924272160     -6.74505621229396
  H   -3.39574582823427     -8.56441197277963     -6.20333170641514
  H   -2.82724065709215     -8.05813956095356     -3.82816347871875
  C   -2.41521997129898    -10.72612274539692      6.89427352959032
  H   -3.32730768482733    -11.33808885726775      6.97256663220895
  H   -2.31857674517336    -10.07721240569718      7.77295924862819
  H   -1.56167998983844    -11.42011167605030      6.84158239453514
  O   -2.39852687349728     -8.67765825191745      5.61658131140108
