40
Coordinates from ORCA-job 2272-3_0.0
  C   -3.76559121365990     -8.86363796913291     -1.52946359793287
  O   -2.73278675043899     -7.91062640078757     -1.36241901214211
  C   -2.46062344930703     -9.21491846914601     -0.87156784722529
  C   -5.00073295189155     -8.63970036590255     -0.69094387422941
  C   -1.36575131559449    -10.00013864990740     -1.51069822050915
  C   -5.97390207086345     -9.63777074297593     -0.51195106398106
  C   -0.93519485669593    -11.19652717513055     -0.92415918473147
  C   0.08628949502242    -11.96245304092152     -1.49494363677270
  H   -2.52005616623773     -9.30922772883334      0.22289861235628
  C   -0.73121010753403     -9.56315589835599     -2.68890194038897
  C   0.28875919965072    -10.31359879873054     -3.26294051569979
  C   0.70595882644347    -11.52308691953790     -2.67671661113268
  H   -1.04979491528903     -8.62464698425535     -3.14554547379491
  H   0.79057989834282     -9.98177817997125     -4.17453459778049
  H   -1.40302713668134    -11.54458218610065      0.00198522152081
  H   0.39297440505852    -12.88897830119796     -1.00910777601250
  O   1.70540250481236    -12.18335294314809     -3.31268421224905
  C   2.19519116987923    -13.40672762570713     -2.78590046445303
  C   -7.09588249505211     -9.39227300613218      0.28342481490789
  C   -7.26396870103108     -8.15131861099587      0.90675820333779
  C   -5.17093113837321     -7.39883747582580     -0.05715340920751
  C   -3.96891370043049     -9.28707896671532     -2.97751848607728
  O   -4.60638235008094    -10.46809543697512     -3.05316758333751
  C   -4.86025223608023    -10.96556550679980     -4.37041532217187
  H   -5.47972134150839    -10.25770239223463     -4.94158158013460
  H   -5.38897271866851    -11.91791338370997     -4.24015974144481
  H   -3.91558932760158    -11.12249538169375     -4.91243587886443
  O   -3.59913876340194     -8.66072571054224     -3.93556181204001
  C   -6.29778775437934     -7.15639498052746      0.73371965768529
  H   -4.40875806834490     -6.62898741476497     -0.19169770545879
  H   -6.42045225654031     -6.18279417076437      1.21613768969026
  H   -8.14466091453267     -7.96177210761534      1.52640177422079
  H   -7.84397738090211    -10.17844913222164      0.41804519802294
  H   -5.85057705511501    -10.60536178992378     -0.99970914638737
  C   3.29695798341623    -13.90551171554091     -3.70186823019834
  H   2.91152919936132    -14.06972429597608     -4.72007711662415
  H   3.70505759122705    -14.85668624164897     -3.32534998555669
  H   4.11656614323738    -13.17245176570623     -3.75878185280810
  H   1.37430001261721    -14.14681151132431     -2.72107765547472
  H   2.57911070716763    -13.25041062261832     -1.75947763692035
