42
Coordinates from ORCA-job 2273-2_0.0
  C   -4.44089363018340     -9.54573671955934     -1.72771384430062
  O   -3.33734116311769     -8.65762149635543     -1.66905772105266
  C   -3.07301006573982     -9.99643851708308     -1.28517531120839
  C   -2.79733774900050    -10.22407643171809      0.17976659060539
  C   -2.71574951467538     -9.11479127698012      1.03664794870339
  C   -2.48353066752013     -9.29361844885836      2.40320995114926
  C   -2.64391518768530    -11.51601835443794      0.71175292853455
  C   -2.41385798539259    -11.68759422367922      2.07912718931391
  C   -2.33316944816114    -10.57990471241810      2.92940179821169
  H   -2.69916507682790    -12.38004364673820      0.04850162450431
  H   -2.29753665144595    -12.69719653276225      2.48255903871833
  H   -2.83096127672464     -8.11291759649045      0.61858868416639
  H   -2.41644531842615     -8.42103056207896      3.05873354575391
  C   -6.62178777496771    -10.70011622241594     -7.12209903427470
  H   -7.42674273013976    -11.41893972949555     -7.28855775747730
  C   -6.16932983287727    -10.48982575458364     -5.82265566981082
  H   -6.62817995035554    -11.05099865968986     -5.00559424407363
  C   -6.05196615956738    -10.00667859566448     -8.20651174863355
  C   -5.13067436150876     -9.57403103303549     -5.55391203144682
  C   -5.01794334438782     -9.09135713487322     -7.94596742138711
  C   -4.56840948280176     -8.87976563154618     -6.64670337015890
  H   -4.58083863758805     -8.55541163719645     -8.79113939666142
  H   -3.76352716846565     -8.16277444722218     -6.46126962586550
  C   -5.03433067333078     -9.85621796391561     -3.04959938239594
  C   -4.60559128395845     -9.31694891381996     -4.20647880211168
  H   -5.87546188871498    -10.55689322687999     -3.02226773913819
  H   -3.77309629230318     -8.60858967916559     -4.14695312099579
  H   -5.16239341769124     -9.43191007513831     -0.90423008454149
  C   -6.49106252978283    -10.20021493093097     -9.63070482385401
  C   -7.62078444878948    -11.17390779524707     -9.91934477696076
  H   -7.36689187110602    -12.19018842355322     -9.57598394146501
  H   -7.80347593573284    -11.19007491915057    -11.00148998935537
  H   -8.54408551493342    -10.87373068707468     -9.39692399431098
  O   -5.95142272406179     -9.58863938128771    -10.53316766110670
  H   -2.15252833954336    -10.71947398444568      3.99866562159849
  C   -2.26450051892756    -10.83400430176619     -2.26381975987679
  O   -1.59424194143015    -10.08875609253185     -3.14607111168076
  C   -0.81839032538699    -10.80318422417813     -4.11407501337726
  H   -0.07152946792366    -11.44121374690538     -3.61833604607002
  H   -0.32414319689127    -10.04092673764756     -4.72867768636502
  H   -1.46565542533513    -11.43847263890111     -4.73731834323146
  O   -2.23427102659637    -12.04116491257736     -2.23436546807077
