42
Coordinates from ORCA-job 2274_0.0
  C   -4.59916207802131     -9.07247618773445     -1.96101248005220
  O   -3.21615079198974     -8.82726295382141     -1.78008042679979
  C   -3.78487125880782     -9.84973772703753     -0.96486860851207
  C   -3.86132760413625     -9.55548565474528      0.53168445787840
  C   -4.10905282276770    -10.83268916758570      1.36113632623952
  C   -4.91504795079509     -9.74064455357139     -3.29421304821867
  O   -6.12848155583576    -10.33058268097322     -3.27083863612938
  C   -6.54917372384198    -10.95319058999868     -4.48811389040907
  H   -6.59797432403592    -10.21736346271603     -5.30500434987902
  H   -7.54466111176182    -11.36989190311436     -4.29033073867410
  H   -5.85056862469778    -11.75186189531292     -4.78025588275522
  O   -4.18243388844364     -9.76412957546323     -4.24715431125302
  C   -5.52927906679396     -7.95846428185971     -1.54549400503407
  C   -5.00431814726435     -6.67019004744762     -1.35809451887418
  C   -5.83672291070564     -5.61398676065689     -0.97663462658231
  C   -6.90300249156976     -8.17181426863491     -1.33939971259096
  C   -7.73101796024291     -7.11476570248638     -0.95220878036487
  C   -7.20214331552627     -5.83240024046381     -0.77168282604813
  H   -3.93516292812293     -6.51121098981834     -1.51034998636657
  H   -7.85271423833223     -5.00666339397856     -0.47109382973075
  H   -5.41449189302209     -4.61484230791862     -0.83852276854177
  H   -7.32256577094374     -9.16745832888324     -1.48956038349842
  H   -8.79729456901993     -7.29538809972898     -0.79025082660325
  C   -3.35611977179127    -11.27463398226206     -1.26309066997566
  H   -4.64674895346134     -8.81029234332346      0.72952860023712
  H   -2.90648522007919     -9.08616962156654      0.82414457730053
  C   -4.36845645030076    -12.28908418011155     -0.68815039470427
  H   -2.36686896039133    -11.41866394832444     -0.79471438653582
  H   -3.20355319063594    -11.41774118458164     -2.34210570325074
  C   -5.04450025121814    -11.80477161895333      0.62181548077655
  H   -4.52481222054724    -10.55199435034435      2.34123632666189
  H   -3.15427848645201    -11.34765811761287      1.57212956959210
  H   -5.94746048752568    -11.22778052074839      0.34191011170422
  C   -5.51169555507912    -12.99497591033129      1.47616484527186
  H   -3.84731069403638    -13.24415843184447     -0.50225072750741
  H   -5.14870413635476    -12.50279164105586     -1.43696520906569
  C   -6.43094123237603    -12.63761086891015      2.64685570446637
  H   -4.62184102167206    -13.53475317726151      1.85182802161154
  H   -6.03565196424325    -13.70977905672963      0.81580459474202
  H   -5.92828346920887    -12.00017948198736      3.39207700002420
  H   -6.77361163326863    -13.54343657270507      3.17271123761175
  H   -7.32786727467911    -12.09611421739429      2.30033487383939
