20
Coordinates from ORCA-job 2275-2_0.0
  O   -0.10624130277682      1.25811619659341      4.25727987464248
  C   -0.95010056480538      1.20852067445802      3.08818646233530
  C   0.47475832745953      1.54151747976559      2.99777149171457
  O   1.34367600877889      0.62080002519102      2.47282131372857
  H   0.80682613094620      2.58795942133180      2.87985091964024
  H   -1.67094282560252      2.04047565774001      3.03821156755506
  C   -1.50341985778793     -0.14112980588503      2.69596710407341
  C   -2.56732830614025     -0.64176853656974      3.67705269968905
  C   2.65300549640168      0.66081336976677      3.03297826293433
  C   3.51660140169825     -0.36411283347671      2.32403710101018
  H   4.53932063081921     -0.35261336329871      2.73288986551739
  H   3.56888801396289     -0.14995105921194      1.24498984432053
  H   3.10231403387765     -1.37626846273569      2.45300901781190
  H   -2.95424114549500     -1.62847576739682      3.37649248514978
  H   -3.42505213019711      0.04993586065370      3.73471716823421
  H   -2.14405291246057     -0.73515268657293      4.68988156113250
  H   3.07685108999740      1.67913043060844      2.91606198781468
  H   2.59815536019980      0.44988911369603      4.11718725950183
  H   -0.67145430984105     -0.85765342023714      2.62850365972793
  H   -1.93226313903488     -0.05147229442010      1.68106035346602
