66
Coordinates from ORCA-job 2276_0.0
  C   0.25965026003566      2.93637910950319      2.04368245288193
  C   0.92126375801130      2.25719029767218      0.81472917516889
  C   -0.71870194915942      1.70625955810406      2.21986766747879
  C   -0.24782544275025      4.35271621804127      1.93191815852483
  H   0.98677226683910      2.88679719608565      2.87083464778306
  C   0.12595650238611      0.94298330932192      1.16310472560155
  C   -2.18914549771190      1.86129219448409      1.91740865373215
  H   -0.60763394083018      1.24411339868137      3.20968924371374
  H   -0.43955372694297      0.56658723974235      0.29824221822043
  C   0.96259322811266     -0.20111592597169      1.70267198878205
  C   2.43634853564432      2.20471493958878      0.83592467516692
  H   0.58478701030923      2.65908445318144     -0.14930055725145
  C   -3.14316260804843      1.46760290686275      2.87103818036206
  C   -4.50943822818817      1.57567063473390      2.61783530295467
  C   -2.66623748251183      2.37160456818308      0.69867221188841
  C   -4.03166841523564      2.48872686010101      0.42122035289614
  C   -4.95628514023193      2.08431272640092      1.39326014715556
  H   -2.80886363475173      1.06199923851774      3.83021306245954
  H   -5.24876100675003      1.26690147654834      3.35993244695542
  H   -1.96111703577730      2.69900151055479     -0.06998692529048
  H   -4.37362326682118      2.88279048581496     -0.53175880159503
  C   -1.15806007402164      4.85686439688849      2.87893329351636
  C   -1.59553744466622      6.17645505455846      2.82429331361385
  C   -1.12743310839297      7.03320341219792      1.81863159982452
  C   -0.21714168722997      6.56342417976664      0.86649716259525
  C   0.20509755929511      5.22947463142319      0.93742024295608
  H   -2.30700856164255      6.56629306420348      3.55539761287388
  H   0.15662831700120      7.22369890745685      0.08896696979460
  H   0.92140941978400      4.88122056882228      0.18859936504867
  H   -1.53487697544624      4.20542781377719      3.67119719086635
  O   2.96800066392145      2.31747198647785     -0.39421325168139
  O   1.68269578630139     -0.73067767300370      0.69548231657163
  C   2.74553328367561     -1.66031518454318      0.98347073751581
  C   4.05617351281525     -1.05341114330979      0.50017224493164
  H   2.50505382856988     -2.59223028351120      0.44515330028583
  H   2.75667005608020     -1.86614188067278      2.06304217914236
  C   4.40415056857844      2.42945450441368     -0.52966970262122
  C   4.90961447670315      1.60740582885959     -1.71342289892640
  H   4.87932989336892      2.14487231990163      0.42004012877488
  H   4.60700753195470      3.49901599591430     -0.70369481442875
  C   5.24263829365969      0.12281513104516     -1.47949600774231
  H   5.82709729169162      2.10543424823146     -2.07334561742913
  H   4.17509406390982      1.70658367063136     -2.53241398509393
  C   4.08231291434587     -0.78249333456932     -1.01325958111713
  H   6.08074977574102      0.04873556663240     -0.76166005129251
  H   5.64312359703122     -0.26370407181595     -2.43199265453694
  H   4.14040579239876     -1.75358567095091     -1.53576662218868
  H   3.12220738986199     -0.33471091972094     -1.31601236183740
  H   4.87790558874985     -1.73983811732718      0.77382361526299
  H   4.22745271757464     -0.12588489698645      1.07073911954550
  O   3.08754097497207      2.07978290425711      1.84801822341327
  O   0.99202442159316     -0.58100448763512      2.84561934807146
  O   -1.65859892742048      8.31494095108474      1.87770846149941
  O   -6.33810963620455      2.14900982724403      1.27923121776384
  C   -1.32067220339954      9.36457591355982      1.08221308709207
  C   -2.14875158655562     10.56966265677625      1.45797094208129
  H   -3.21768162507292     10.35001946227665      1.30829338619962
  H   -1.85155271179372     11.42388781424068      0.83782617316019
  H   -2.01166243479625     10.80724243134761      2.52419333861553
  C   -7.04222879088070      2.46732769280621      0.15956986757225
  C   -8.51999709287780      2.40207373236091      0.46052843204359
  H   -8.78931909983342      1.39337858941469      0.81063040936207
  H   -9.08835866274373      2.65253961443504     -0.44322837754624
  H   -8.76956729629894      3.10471591022659      1.27102578953350
  O   -0.49121493971633      9.33468893233405      0.21140011648601
  O   -6.55942904621275      2.75617755432772     -0.90348228716156
