52
Coordinates from ORCA-job 2277_0.0
  C   -0.68852102213557      3.70238424508335      1.61594918404702
  C   0.22132378201859      2.89578143977546      0.62878740130816
  C   -1.62521184446080      2.45921431573768      1.75118140252333
  C   -1.30547593990264      4.93725961196268      0.98543983497054
  H   -0.18845009677478      3.98864816719070      2.55317451271516
  C   -0.94189533818380      1.85541617068056      0.50128861613649
  C   -3.13404980462727      2.65737215445054      1.77911580377183
  H   -1.33103539971885      1.88131155571452      2.63921419110081
  H   -1.52644266033252      2.05109643580473     -0.41147381344758
  C   -0.61401145187680      0.38026865480045      0.50375645918013
  C   1.46478200003070      2.35066936432728      1.29879919800379
  H   0.49770453595212      3.41664487310889     -0.29601496474022
  O   2.56380439893329      2.53494148309290      0.54873881916405
  O   0.40664830492604      0.13717867424220     -0.33929739399988
  C   1.01967681673633     -1.16601558621031     -0.36354196928192
  C   2.49420611051527     -1.00492594310937     -0.01931255507158
  H   0.88063984634274     -1.56889113372402     -1.38071795509390
  H   0.49629279259710     -1.81787652348916      0.34984140981824
  C   3.84597638451783      2.14666084280244      1.08702216248614
  C   4.77501456963926      1.72454486165199     -0.04752063633154
  H   3.70149903359691      1.36013665960441      1.84244096785798
  H   4.25409074295537      3.03111716354173      1.60467217447525
  C   4.67530060597228      0.27562145813657     -0.55896004354961
  H   5.80870636449376      1.89269434266763      0.30214646183774
  H   4.62159214710433      2.43040772062674     -0.88295946292451
  C   3.28789750813408     -0.18886787355984     -1.05363909543939
  H   5.03085301086986     -0.41238343605334      0.23049505456181
  H   5.40670607887031      0.17765017478025     -1.37888957201377
  H   3.40847818945875     -0.80847692143882     -1.95955453320929
  H   2.69258738070108      0.68523500777041     -1.36157583017052
  H   2.93953677527126     -2.01093642812322      0.08399816184489
  H   2.55481675338751     -0.54116214827666      0.97969286136156
  O   1.46951875182576      1.81808306941494      2.38630844129472
  O   -1.18527110291644     -0.46090097314483      1.15361625498775
  O   -0.24541093854777      5.87973849935481      0.76920097440066
  O   -3.81537259568704      1.41563038646537      2.00036792074371
  C   -0.59188372283326      7.07140286034684      0.23223949679295
  C   0.61612173435756      7.95878611939545      0.05535850074704
  H   1.12139239503690      8.10543461957124      1.02259451741265
  H   0.30459837411383      8.92535648738660     -0.35856823238100
  H   1.34043414868730      7.47616818587822     -0.61947559940092
  C   -4.10332592135113      0.65778205755194      0.91949761498400
  C   -4.67200847163691     -0.67425949861596      1.32913676199471
  H   -3.82446806575747     -1.31452275503211      1.62367848954286
  H   -5.19221084835203     -1.13349712272703      0.47913886523611
  H   -5.34170824325383     -0.57321467044709      2.19466004768580
  O   -1.72632111614068      7.35708726266008     -0.05757759444292
  O   -3.89802504265377      1.01269084930744     -0.21726550359391
  H   -2.06758410846217      5.39109853814111      1.64020569843848
  H   -1.79702230701745      4.72100487753375      0.02211260248633
  H   -3.50586142703510      3.11588154487603      0.85036769061681
  H   -3.41576206738810      3.29357027851370      2.63205620056291
