30
Coordinates from ORCA-job 2279_0.0
  C   -5.09822872090449     -8.98849443047659     -3.27093958586711
  C   -5.47277670217741     -7.91865478681606     -4.08516905001400
  C   -5.59953110049030     -8.03352645650985     -5.46510961702939
  C   -5.28699604701538     -9.29129974429702     -6.00709602156236
  C   -4.77788965345015    -10.23727559366620     -3.79840527973238
  C   -4.87781467799043    -10.36359829046263     -5.19438147469773
  H   -4.47948656059293    -11.09029652906380     -3.18295751677287
  H   -4.64347373754470    -11.32312654192703     -5.66441983243076
  H   -5.35926860257373     -9.44494194862983     -7.08763874427560
  H   -5.91540359725259     -7.20479304231780     -6.10408299280951
  C   -5.56656956535975     -6.94016325505555     -2.92941725279680
  C   -5.29632394875542     -8.17844854625873     -1.98434267168315
  O   -6.78134218238389     -6.26222811286626     -2.80005859751622
  H   -4.69727875350608     -6.25497404681704     -2.88144437934893
  O   -4.22735793676636     -7.99037125489549     -1.09990850839504
  H   -6.22052080321864     -8.46853128122504     -1.44345010973398
  C   -6.81379246542513     -5.27798762257640     -1.77420259877245
  C   -6.31416072198444     -3.91825345722838     -2.25083611031450
  H   -6.23466053826385     -5.61981907196135     -0.89481464922496
  H   -7.86792290919366     -5.20178435591422     -1.45961347363496
  H   -5.25528209159958     -3.95618131647912     -2.55420074359572
  H   -6.40540086042669     -3.16941204006806     -1.44653819119010
  H   -6.90470224385170     -3.57377406112457     -3.11460969973712
  C   -3.94320267650843     -9.09580408126832     -0.26462833503806
  C   -2.81402653373251     -8.72172989570680      0.67814889736371
  H   -3.65762616060026     -9.97703465911388     -0.87451356623947
  H   -4.85100660845481     -9.38272192552907      0.30751953200759
  H   -1.91156809986290     -8.44784501150958      0.10943624602181
  H   -2.56623941049938     -9.56619050717037      1.34072998309518
  H   -3.09871608961433     -7.85985813306487      1.30214434392490
