70
Coordinates from ORCA-job 2289_0.0
  C   0.51995544471965     -3.30116201585914     -3.69778559982328
  C   -0.71946960844734     -3.79564578532503     -3.27147764002377
  C   -0.94765724800023     -4.08891638179145     -1.92092384366738
  C   1.55671451387856     -3.08376022254176     -2.77777743782962
  C   1.32636063786174     -3.37703934034277     -1.43751298107751
  C   0.08563700070647     -3.88281937256874     -1.00255921366736
  H   -1.51842594792207     -3.95460468554375     -4.00105634977482
  H   -1.91698124367059     -4.47681223385881     -1.59653427393152
  H   0.67950317257113     -3.07966879809425     -4.75650270286851
  H   2.52226681753646     -2.68176958983402     -3.08960413241335
  C   0.15554303109492     -4.12042600149081      0.44914649527553
  C   2.28825326596073     -3.22472800064366     -0.25255256052401
  C   1.43774890036392     -3.75190848916287      0.90903012946274
  C   -0.79488396555318     -4.63989376966251      1.33256389343788
  C   -0.44853822667336     -4.79862817009515      2.67975564447530
  C   1.78307233767416     -3.92128195609414      2.24781547118286
  C   0.82918781353400     -4.44703344122608      3.13238719640893
  H   -1.79056603025459     -4.92327853656414      0.98084337758111
  H   2.78090109081262     -3.65629219977262      2.59867430271231
  H   1.08789462794711     -4.58565500973288      4.18563037361200
  H   -1.18097511792974     -5.20370754842978      3.38350725769329
  C   2.77123172448650     -1.76805340382533     -0.11861158594407
  C   2.31504166405215     -0.90150818352859      0.88442472955522
  C   2.78829300356324      0.41071209732607      0.90637307282491
  C   3.70556008285657      0.84260979683271     -0.06008478859009
  C   4.08395292742232     -0.10957032004854     -1.02136434661766
  N   3.63087564433822     -1.36018707520844     -1.05608047731749
  H   1.60685440541097     -1.24645746034299      1.63794539530873
  H   2.44606424448719      1.09920843511977      1.68564871763825
  H   4.79785181539488      0.17035565214909     -1.80747409632795
  C   4.24608105823814      2.24918701513453     -0.08195717019721
  H   3.46766199529763      2.97337665082796     -0.37934117511204
  H   5.08051323593168      2.34862857451925     -0.79273701439356
  H   4.60943455101219      2.55631656762620      0.91246861320638
  H   2.86338262989478    -10.50536169993862      0.99790677608580
  H   2.92660347006780     -8.24041129483615      1.82438731311256
  C   3.45323906178817    -10.31674010616600      0.08805811828508
  H   7.04842312191651     -4.96499047233957      4.74168601183531
  C   3.63364824428255     -7.96107551709107      1.03190194508817
  H   4.25549406583623    -11.07158378805373      0.04080036271250
  H   2.79305367868544    -10.49230466618004     -0.77895153332489
  H   5.20100098287549     -5.37933601413689      3.08384927763267
  C   4.01127752766269     -8.91699249572516      0.07415798370832
  C   7.20259518514679     -4.74713034348858      3.68141650889577
  N   4.08354250795170     -6.70905534200358      1.05879434920843
  C   6.16324771708610     -4.97360577715459      2.76654999057830
  C   8.43783467887783     -4.24819984976914      3.24815115741503
  H   9.23888181746635     -4.08217121050420      3.97384556003472
  C   4.93080394732395     -8.49001952151702     -0.89248982756510
  C   4.94070116551866     -6.30424339315796      0.11769921924616
  C   6.38666724057485     -4.68494710839757      1.42413490353518
  C   5.40105125375107     -7.17672909169066     -0.87838612662608
  H   5.27897068287879     -9.18418497099266     -1.66409628879887
  C   5.42061398008566     -4.84567946582313      0.24367385228669
  C   8.65912404073298     -3.95955545088909      1.89546277489618
  C   7.62321274282567     -4.17494995240666      0.98221139950164
  H   6.11300121415080     -6.83610013743971     -1.63039857843179
  H   9.62516444571586     -3.56827452235742      1.56539613197771
  C   6.26475249036880     -4.32095014593884     -0.92365021312124
  C   7.54691244878158     -3.94455140583332     -0.47015342375996
  C   5.91507441836620     -4.16171385676175     -2.26256417443694
  H   4.91739610218564     -4.43336064110020     -2.60896193838361
  C   8.49268338696537     -3.42694508740373     -1.35964180747360
  H   9.48851908097742     -3.13805809386845     -1.01283995971400
  C   6.86421691236393     -3.63795381015157     -3.15331516233484
  C   8.14175499357051     -3.27813380832337     -2.70674531528649
  H   6.60186748728027     -3.50720022268018     -4.20666823979973
  H   8.87043522678253     -2.87450360649576     -3.41522025209205
  O   3.37852290438424     -4.08909162755491     -0.56003067026733
  O   4.32917152617456     -3.98379229977587      0.55293259510605
