86
Coordinates from ORCA-job 2290_0.0
  C   3.24858506316958     -0.11842288471912     -3.55974639776543
  C   2.23504895295195     -0.54505641148059     -4.42682397387078
  C   1.37712652847475     -1.59186994758731     -4.06556771093429
  C   3.42187943783208     -0.73197659218322     -2.31020589086885
  C   2.56971594600603     -1.77093601009618     -1.95437639096081
  C   1.55148114720563     -2.20870856132051     -2.82387859467226
  H   2.11039020250024     -0.05373516718285     -5.39564489109018
  H   0.58779103982959     -1.91781118289738     -4.74805813754139
  H   3.90876928798074      0.70038781892737     -3.85747103016035
  H   4.20843315985525     -0.39589201117371     -1.63071323058486
  C   0.82364275271313     -3.31507294596756     -2.17820256890487
  C   2.57379853621128     -2.60682521419411     -0.66576622487128
  C   1.39242146882267     -3.55344889707929     -0.90953556279205
  C   -0.26215402868408     -4.07542157418212     -2.62188862430508
  C   -0.77516379289375     -5.07364898710332     -1.78463400926822
  C   0.87484222270743     -4.53981162095876     -0.07449586945232
  C   -0.21458373491238     -5.30309370947771     -0.52186529155960
  H   -0.70880658812819     -3.89572126518842     -3.60335674971767
  H   1.30927183305369     -4.71631015117585      0.91072809284101
  H   -0.63108292802320     -6.08129425544222      0.12337685486818
  H   -1.62556168695247     -5.67494112413694     -2.11766761684553
  C   2.46823326507570     -1.74701115115606      0.59696790208352
  C   1.22502163457493     -1.32367896355010      1.08854724680957
  C   1.14502004496088     -0.48812174436337      2.20504350841918
  C   2.30011798954901     -0.04900097133276      2.87010193264904
  C   3.54137167060959     -0.47243786744068      2.36924855048961
  C   3.62789902568577     -1.30408712043273      1.25052936889457
  H   0.30589724298496     -1.64683164545740      0.59463759568149
  H   0.16215501019309     -0.16989339421029      2.56631315803272
  H   4.46072511041876     -0.14156481204729      2.86281169703783
  C   2.21081346914071      0.80871143917198      4.11170502504976
  H   4.40741467773190     -6.01050627508693      4.67371293128823
  C   5.47412707143874     -8.53293660698153      4.86723497113702
  H   8.80001669616428     -2.38809271335846      0.84016136506962
  C   4.75101179513722     -6.39220267901421      3.70706401533772
  H   6.62648694545303     -3.33676961015292      1.63854482579594
  C   5.33885652951835     -7.66366797571076      3.63770876794317
  C   8.23075502142770     -3.06486177325485      0.19732736188829
  C   4.60596954720592     -5.59255243830640      2.56951330158586
  C   7.00954541190298     -3.59007273210544      0.64646102390660
  C   8.72987814911475     -3.40773250090308     -1.06576932998431
  H   9.68585937649353     -2.99531982408844     -1.39981296542715
  C   5.76965737570326     -8.11333307048102      2.37891406091087
  C   5.04049906960479     -6.05014956076664      1.31563127471607
  C   6.30096983057121     -4.44551669904224     -0.18912094264783
  C   5.62154384487113     -7.32504717534748      1.23687627895546
  H   6.23715578537953     -9.09887324277153      2.29002014349470
  C   4.95923258061711     -5.15172184997041      0.07379998445952
  C   8.01873502658284     -4.27599359392321     -1.90376617228832
  C   6.79693031522880     -4.79070153064582     -1.46111668871741
  H   5.97028819866104     -7.70441153563721      0.27399021521093
  H   8.41557244353350     -4.54120642675531     -2.88743509371221
  C   4.74997982633174     -5.91041253512206     -1.24062841487021
  C   5.83332118939885     -5.69598970080860     -2.11449744512050
  C   3.67543760525060     -6.70822139698127     -1.61662639428228
  H   2.83144396977090     -6.86039483397806     -0.93995811333557
  C   5.85197430210268     -6.29870129292287     -3.37546901479442
  H   6.68907397405584     -6.14079731885484     -4.06062526247782
  C   3.69076768317866     -7.30695677105202     -2.88526371523136
  C   4.77154191750136     -7.10576075976465     -3.75340591868365
  H   2.85211578499439     -7.93388661241563     -3.19944565492446
  H   4.77013034495478     -7.58067576825010     -4.73834812237328
  O   3.83481497231719     -3.28530813041112     -0.73731247493519
  O   3.89534281934167     -4.24185883845879      0.36440287752832
  H   4.15381598611318     -4.60395469601302      2.65735709929607
  H   4.60324243277555     -1.62357527219590      0.88010544976791
  C   4.27394738194623     -9.45691180687975      5.07983663227839
  H   5.58742624937794     -7.90926243603868      5.76896385736840
  H   6.37730559340864     -9.16121421113569      4.79781131239581
  O   4.49832332127174    -10.22684774251663      6.23493984263332
  H   4.13393249741728    -10.10948403953729      4.19104983350592
  H   3.34389020496152     -8.85646287617174      5.17997090258970
  C   3.46044422821742    -11.11926862147014      6.53528455960455
  H   2.49860399098065    -10.59598540543734      6.71798954829037
  H   3.73815561460417    -11.66639206944115      7.44875881689019
  H   3.29360256532002    -11.85563455016025      5.72151387520559
  C   2.15095111704725     -0.02029847913282      5.39580884593866
  H   1.31414842543732      1.44892885592378      4.07746018062865
  H   3.08177041908497      1.48104202101594      4.18013945076211
  O   2.06467473615753      0.85235328543793      6.49474635771036
  H   3.05302379779517     -0.66523625638865      5.47372086739910
  H   1.27593980157253     -0.70510601717420      5.36589030346766
  C   2.01624165050879      0.20166750235091      7.73496093685350
  H   1.13221386730177     -0.46388585582282      7.82383211962187
  H   1.95324936383007      0.97121150501131      8.51899030669428
  H   2.92111739041602     -0.41456213546065      7.91897505898439
