39
Coordinates from ORCA-job 28_0.0
  C   1.88679092605605     -1.64013478251034      0.72858058045633
  C   0.38667050653911     -2.09836599002482      0.63709795449022
  C   -0.09566778439121     -0.67955157628840      1.07090545344519
  C   1.34628759377635     -0.18249792353051      0.72342724199767
  C   2.59084119113698     -2.03857605365671      2.00789107999448
  H   2.51763122667248     -1.92465720068195     -0.12276005614661
  C   2.09962848895335      0.86852855775215      1.50690943024282
  H   1.35132962806328      0.18134398816349     -0.31820005326137
  O   2.29475694409279     -1.66332295099210      3.11889643320728
  O   3.29832750112097      0.88330202015044      1.64203959481357
  O   3.59016682292950     -2.90409981915297      1.76778399893401
  O   1.28270779844792      1.83067184869603      1.97371661723265
  C   4.32673271090117     -3.34931623352194      2.90874904849487
  H   5.09663967075220     -4.03208080089897      2.52809080978075
  H   3.66908318107816     -3.87143745283911      3.62070463682638
  H   4.79168574214711     -2.49626135878772      3.42571540888540
  C   1.90926773557527      2.90293611094159      2.68261766366746
  H   1.10264266282878      3.58210950381753      2.98555148642167
  H   2.63056126940274      3.42785994765489      2.03779397257690
  H   2.44323380077599      2.52329021732420      3.56671071366409
  C   -0.18031268892204     -3.30359034987021      1.38421137104734
  H   0.14316468753097     -2.22178025157979     -0.42985159999836
  C   -0.57476342181385     -0.49811570954067      2.53095775434660
  H   -0.85921662531540     -0.27379942803842      0.39158081351028
  O   -1.59037041305655     -3.16114388836628      1.42920378236482
  H   0.25108793167209     -3.39405548872092      2.39301770110100
  H   0.02937904343155     -4.23488963670077      0.83275673007953
  O   -1.12592527565587     -1.64830774931776      3.16342834106146
  H   -1.29202152493489      0.34192676415690      2.56606111602630
  H   0.26899450868226     -0.23992895584616      3.17985017313025
  C   -2.11626558002718     -2.43864808142004      2.55827537046354
  C   -2.53283605828314     -3.44285707139779      3.63444028710234
  H   -1.65050333245641     -4.00225616328346      3.97986033864036
  H   -3.26477977743434     -4.15352635970139      3.22402900111597
  H   -2.97131382620258     -2.92587644377152      4.50116879450474
  C   -3.30700875676083     -1.63664427834784      2.03209919858917
  H   -2.99498894061516     -0.93206511060336      1.24783706665448
  H   -3.78462553708483     -1.07535301243627      2.84954877737877
  H   -4.04677202961281     -2.31947883682890      1.58947296715752
