22
Coordinates from ORCA-job 29_0.0
  C   1.86353996299254     -2.97045835682151      0.57592181528060
  C   0.44783115001595     -3.47114898355002      0.15122703235043
  C   1.70831795921805     -1.80224240425654     -0.37389622396355
  C   0.15577195805646     -1.94764398649726     -0.21737023284249
  C   0.36881365090469     -4.46198497977967     -1.00364840274810
  H   -0.15088903982942     -3.84217168112589      0.99880586737032
  H   0.94863079641082     -4.13080073840367     -1.88034665610126
  H   -0.67594838287118     -4.59880459428291     -1.32778344694336
  H   0.76199542557672     -5.44547131328654     -0.70066983750032
  C   -0.52888936269652     -1.13975512553506      0.87873315349601
  H   -0.38686423806111     -1.81432917303154     -1.16764726846155
  H   -0.02149635780654     -1.23513280179129      1.85284781264443
  H   -1.56893942422839     -1.47800172641646      1.01682806037237
  H   -0.55885258865890     -0.06804261356058      0.62191213839316
  C   3.33915450005366     -3.26135500805231      0.44703443945196
  H   1.75880797346833     -2.58154154144141      1.60740886697958
  O   3.90040553356859     -2.00668234617541      0.24432411175053
  C   2.90084961917724     -0.95611499165637      0.04357705654532
  H   3.30860264658269     -0.26777166854887     -0.71099091009111
  H   2.74892415360774     -0.41246799474032      0.99238575063160
  H   1.93762232955485     -2.16168971219068     -1.39214278200032
  O   4.00661173496368     -4.25087825885564      0.51166965538572
