42
Coordinates from ORCA-job 2_0.0
  C   -5.92204264115791      1.91237176458277     -1.37706181326083
  O   -7.11089916776163      1.66657984566927     -0.78080891804367
  C   -4.81851384359637      1.05853514480206     -0.79941206611077
  C   -5.01761200425983     -0.47627719042701     -0.64418836514839
  C   -4.56186457661574      1.12892028733596      0.74467340512767
  H   -3.90100417495942      1.29320384276144     -1.35431157643798
  C   -4.28213243509478     -0.40154649415585      0.71479642986285
  H   -4.58193717701559     -1.10983367532638     -1.43076531131704
  H   -6.08094371477818     -0.72933812537599     -0.52477607967368
  H   -3.20667532540383     -0.60702332814563      0.61304239912940
  H   -4.68442185556206     -0.99059824720595      1.55209482267255
  C   -3.50260025554492      2.07872028639465      1.25096922210874
  H   -5.49071000635087      1.35803388054984      1.28301575327774
  O   -5.78448928864207      2.72735372724702     -2.25528792461232
  O   -3.67018360446433      2.92520800729788      2.09335829138348
  O   -2.31444268579595      1.87547297335976      0.63769003044276
  C   -8.22520308950838      2.44671687796944     -1.22374221726550
  C   -9.44027992072146      1.93868728572929     -0.47223951013661
  H   -8.35343307491777      2.34088727432735     -2.31263957797452
  H   -8.04565712019835      3.51379280464499     -1.01507300690823
  C   -1.23876301518984      2.73854540332622      1.01741540434282
  C   -0.01972035191313      2.28253041028475      0.23973466939207
  H   -1.06736015035299      2.67664619816099      2.10386455548578
  H   -1.49394204715674      3.78459280839951      0.78300080081632
  O   -10.53801317115425      2.75955786066318     -0.87648979400905
  H   -9.29199506305248      2.01215283652350      0.61790754787459
  H   -9.64631086474129      0.88198746786757     -0.70563042406397
  O   1.04156765952514      3.17204020701645      0.59198266868110
  H   -0.20378774505299      2.32179492484416     -0.84666467538388
  H   0.25186153628346      1.24455544241143      0.48984549629858
  C   -11.76334431907787      2.39686714587712     -0.42906538303426
  C   -12.82245282879782      3.35346767582376     -0.91795788902294
  H   -12.59668794310423      4.37358869420838     -0.56995007172263
  H   -13.80382858464499      3.03713975533799     -0.54459865797649
  H   -12.82703103692035      3.37983648462755     -2.01882270628544
  C   2.26900448444464      2.87268423456257      0.10527413708268
  C   3.28849769057796      3.89536979665724      0.54180778886404
  H   3.00216666420139      4.89188746972289      0.17044695022062
  H   4.27569000179493      3.61939290607881      0.15210546787145
  H   3.31748796602328      3.95472729248753      1.64090768647182
  O   -11.94741699282737      1.43137494829500      0.26715441069317
  O   2.48293407348524      1.90846309478843     -0.58415196971205
