45
Coordinates from ORCA-job 30_0.0
  C   5.39394605847364     -0.48660657511191      0.51064698201484
  C   5.39289426482656     -1.67233954564266     -0.46830249417664
  C   3.82864011099830     -0.67009771996391      0.53957767727898
  N   4.01367036209282     -1.78812965597772     -0.40471605877889
  C   3.10824123093444     -2.74207887183730     -0.89594066191348
  C   3.54814747754236     -3.73722658640132     -1.79030261253960
  H   4.59488285824152     -3.75540689788326     -2.09453827282995
  C   2.63978966071562     -4.68357540967773     -2.26541304538600
  H   2.98809496936769     -5.45357240950468     -2.95920944053599
  C   1.29819689898935     -4.65591582639686     -1.86755761347559
  H   0.59398047436488     -5.39968967476317     -2.24840941291379
  C   0.86731926606567     -3.66611212032947     -0.98008335107701
  H   -0.17811073009586     -3.63054845902414     -0.66198929796250
  C   1.76226978846579     -2.71073087402222     -0.49245895983406
  H   1.41273209153423     -1.93650904367573      0.19296527273212
  C   2.95008242313161      0.47368536752911      0.08095231658912
  C   2.31399076642334      1.28297128120092      1.03454016551833
  H   2.43275345097183      1.06424850545800      2.10013967412960
  C   1.52209364268954      2.36364875683969      0.64453155550950
  H   1.02570581329292      2.99805337917045      1.38177382842679
  C   1.35272371766596      2.64256774032182     -0.71415024545999
  C   1.97392417151411      1.84794215894931     -1.68341232451444
  H   1.83289165668731      2.05762479053729     -2.74280683566656
  C   2.76710437131715      0.77276528738772     -1.27827278832734
  H   3.24498126133191      0.15152676687750     -2.03943818708426
  H   3.48317616033323     -1.02073546406175      1.52767734670337
  C   5.99110087504799      0.82529277271095      0.01277089558376
  H   5.86480639222446     -0.77015255757857      1.46604813947732
  O   7.38875454835489      0.62486878025686     -0.21276802607125
  H   5.89259704997727      1.61272389552531      0.77596335957619
  H   5.51399211276109      1.16523461229960     -0.91534450842675
  C   7.81276648931512      0.53443055634346     -1.50223660058857
  C   9.24438912654681      0.07231536279107     -1.55676506534524
  H   9.84183585320966      0.53312968078018     -0.75743812207866
  H   9.66891624830564      0.29263495451172     -2.54405689283698
  H   9.24801267007972     -1.01861132856914     -1.39674937242573
  O   7.11375939636098      0.77421648073514     -2.45285205313008
  O   6.23469427046481     -2.30217492036133     -1.05999456916359
  O   -0.59018572461844      2.80253168047609     -2.70066620785554
  C   -0.33990692964931      3.75884099659041     -2.02123336671303
  H   -1.47659259753629      5.36122406026741     -1.15246177481825
  H   -1.73777013635574      5.10838837011140     -2.91705527295861
  C   -0.99437055378163      5.11340498845661     -2.11097766006677
  O   0.59913401772587      3.76464514594536     -1.02285936794202
  H   -0.23290532630904      5.88598756870952     -2.30022675064268
