75
Coordinates from ORCA-job 31_0.0
  C   3.90142508556103     -0.58541590996020      0.72342502115847
  C   2.66957651412014     -0.17943551830825      1.27482088569691
  H   2.38946237061637     -0.51737272489497      2.27320556848012
  C   1.83304245134428      0.66154176980688      0.55161736904890
  H   0.87771105084015      0.99014053394431      0.96650736820901
  C   2.19534322491641      1.11009340668824     -0.73114573376609
  C   3.42101682877354      0.70600435293689     -1.27620820598546
  H   3.73594635968478      1.03833686061820     -2.26581341706464
  C   4.26983737653416     -0.13770209158956     -0.54971899878698
  H   5.22529863158870     -0.44162471931972     -0.97788190562624
  O   1.30141082460026      1.92327544668231     -1.35936448985036
  C   1.59575775931488      2.41594687540390     -2.64772358569558
  C   0.41515392670756      3.27153800485407     -3.07195228103690
  H   1.74100940169067      1.59032079253836     -3.36996816459038
  H   2.52023948006892      3.02382930890412     -2.64362795724956
  O   0.72468171315846      3.77555337480575     -4.37343460744161
  H   0.25615972710393      4.10242580021285     -2.36589807390910
  H   -0.51338281799187      2.67945873205531     -3.09923386470938
  C   -0.22077176180529      4.53781826686892     -4.97025202093930
  C   0.24153636491369      5.00747769380963     -6.32781376943832
  H   1.14829071349906      5.62356611706424     -6.22140185934291
  H   -0.55398919119416      5.59231546242525     -6.80489419729993
  H   0.50760061414275      4.14393769943661     -6.95692984333827
  O   -1.28003432655400      4.79181247914279     -4.45642172001325
  H   6.77634117081417     -6.65038691081598     -5.35031712207870
  H   4.92350879232407     -5.81928090577966     -3.86157584291682
  H   3.65174312588509     -9.05300000391182     -6.94024349801485
  C   5.10431748849715     -3.61034979068846     -0.34166847525563
  C   5.73689775897370     -6.44929368488634     -3.45493744961386
  C   6.34598790933883     -7.28990849991835     -4.56301349374209
  C   5.26302137743964     -4.56181414130263     -1.35775752190738
  C   6.18739332350486     -2.84280076896528      0.09800532737846
  C   5.62678966785715     -8.94114651669289     -6.09831874788886
  C   4.42898890067099     -9.73439388017565     -6.55982033390471
  O   6.78185540935118     -5.66034385030086     -2.92923117029778
  C   6.52274080979894     -4.76790282434919     -1.93512295048598
  O   5.29295621426398     -8.09612133885455     -5.09510720460931
  O   6.74341343391550     -9.02273395852493     -6.54226621238739
  H   4.11885556680743     -3.46192260542471      0.10232604943194
  H   4.39396764811028     -5.13418769225349     -1.68404457500214
  C   7.44629442792682     -3.04770513602058     -0.49641365762704
  C   7.61663029695964     -4.00540319129660     -1.48793615110950
  H   4.73281707703589    -10.43260614823682     -7.34891602887556
  H   8.29278284778659     -2.43673367854081     -0.17524470503285
  H   8.59099925061871     -4.17080914414710     -1.95250028393551
  H   7.15806007891983     -7.92520651352025     -4.17476837639618
  H   3.99147309443866    -10.28561218493737     -5.71302423412999
  H   5.29803915135234     -7.10401206996749     -2.67850475389735
  N   4.74356644867694     -1.43848748285105      1.46204161854680
  N   6.08303599650565     -1.81439872982708      1.08779333822364
  C   4.92668435149007     -1.62424183773398      2.81504610148121
  C   6.37937179896028     -2.11712055031134      2.56837802730313
  O   4.23186006527262     -1.40160529366979      3.77262387982948
  C   7.38823160676611     -1.14309658920568      3.16547968131588
  C   7.60070285035444     -1.16250542439678      4.55491767221753
  H   7.05797131792381     -1.88006855373727      5.17469630035382
  C   8.49223758386637     -0.26652475822034      5.14696299952334
  H   8.64435611777145     -0.29083910960289      6.22936825146879
  C   9.18825877373655      0.65898258469275      4.36073018731166
  H   9.88949617216079      1.35753169576974      4.82512184226110
  C   8.97643560590292      0.68731845657204      2.98047459916332
  H   9.51036191990537      1.41057212492050      2.35792022578357
  C   8.07551631928958     -0.20338909958573      2.38554118881166
  H   7.88885536619200     -0.17064454018416      1.31133066364741
  C   6.65490223092023     -3.57135460662335      2.90807945631017
  C   5.62868114182705     -4.43073036152954      3.33201578710284
  H   4.61690034142018     -4.04506610315189      3.47256201405592
  C   5.89501711428471     -5.77546259640415      3.61029668498049
  H   5.08498522201054     -6.42712280123775      3.94842135273533
  C   7.18885635273845     -6.28139292046948      3.46430412748992
  H   7.39642841448227     -7.33244903325367      3.68232958106160
  C   8.21965449702730     -5.43237137895913      3.04721941081286
  H   9.23671549901939     -5.81755575152299      2.93590528893864
  C   7.95548237120715     -4.08823247516261      2.77873539140632
  H   8.77005737606122     -3.42816143892819      2.47249422365360
