74
Coordinates from ORCA-job 32_0.0
  C   -2.29087797581202      2.55026657596335      3.97595508928759
  C   -2.68284086880679      3.43779360146726      2.77962699718938
  C   -2.96532323190665      2.54339536748427      1.54100011171000
  H   -1.86893545413510      4.14457837640947      2.55265203587835
  H   -3.58590911563676      4.02964355160968      3.00722333757361
  C   -1.03762900076832      1.73115790417553      3.62552929363997
  C   -1.31600156288936      0.83921489453448      2.38788718142790
  H   -0.73341917857185      1.11695213523334      4.48873907317485
  H   -0.19040404527350      2.39630569386361      3.39235597947034
  C   -1.77907164814768      1.68363673806129      1.24956060876477
  C   -3.43849662402071      1.58042436518311      4.31365185634539
  H   -2.07894322582139      3.18974533565877      4.85016492761869
  C   -3.73410014705791      0.68800166064761      3.09255261274126
  H   -4.35022042508973      2.14213115487115      4.57946554076612
  H   -3.17625536940718      0.97859197485591      5.19702262507302
  H   -1.57538622590871      1.38883649291051      0.21716261832867
  C   -4.14257052015117      1.58553450662250      1.91018426367911
  C   -2.49833279561084     -0.14980873956533      2.66954255780725
  H   -4.56186225765241     -0.00642015503233      3.30867045580411
  H   -0.42457333366377      0.26090381986032      2.10506183384385
  H   -5.02445449381373      2.19589552418488      2.17216719125529
  H   -4.39266438924450      0.98442948300685      1.02626780676897
  O   -3.41442652762299      3.28598731925752      0.41853482986935
  C   -2.53599157424758      4.24620700101689     -0.12480639039172
  C   -3.00626491226826      4.52180914287776     -1.54219642339206
  H   -1.49251387791145      3.87751582538616     -0.13711482313053
  H   -2.54698789138205      5.19073075381532      0.45390479834975
  O   -2.16225227430537      5.54866932788019     -2.07468642857172
  H   -4.05814895017245      4.85012228017529     -1.54838579021706
  H   -2.94214468246980      3.61482136858463     -2.16453605646033
  C   -2.43293775629673      5.96984866632395     -3.32917980528216
  C   -1.46984878270247      7.05165692729677     -3.75620182137136
  H   -1.58131775157839      7.93003456450023     -3.10067164737023
  H   -1.67277349918178      7.33539564576679     -4.79598745123199
  H   -0.43210188633613      6.69887692456448     -3.65277265431614
  O   -3.33375015050585      5.52573445900554     -3.99482631366387
  H   -3.78344128057842     -3.82656611017695      3.74051296931937
  H   -3.71115837628146     -3.86799339577104      5.51633563455913
  H   -4.00185479143954     -1.51363794444369      4.69281243265551
  C   -3.18792168676200     -3.51831994076232      4.61383689304573
  C   -3.00774475649513     -1.98423030789800      4.64009417939624
  H   -2.32301556688714     -8.19003216577714      4.30466807131160
  O   -1.66733978088881    -10.43984399496083      5.56943242939040
  H   -2.69819569116056     -1.87112190385086      6.78716390197326
  C   -1.79211087834855     -4.22198964966476      4.55934637837169
  C   -2.31931409208183     -1.57429174032200      3.32351832501500
  C   -2.16590718115512     -1.58107089736247      5.86709325024778
  O   -2.06790799178463     -5.61376367792903      4.55918940063481
  C   -1.46956966924112     -7.86007815987362      4.91891425533473
  H   -0.58976251426957     -6.57330011659802      3.42994903294439
  H   0.86303741903084    -10.95955453013555      3.86713017310376
  C   -0.60712066268082    -10.05512065824064      5.14546248104876
  C   -0.97328827025586     -6.49845875136995      4.46604707577210
  H   -1.67370078918187     -4.05348447554781      2.39024129919720
  H   -2.01465023683610     -0.49105283735436      5.91466408038871
  O   -0.37667877785209     -8.77444054970695      4.78207448883777
  C   0.62301200598242    -10.90626266006813      4.94119964930503
  C   -1.01730259593108     -3.76589633309921      5.74669173247357
  C   -1.07756782122472     -3.74597315255567      3.26184935706073
  H   0.44009513025631    -11.91560032040058      5.32947438436341
  H   -0.97573921584347     -4.39076212576962      6.64318343336849
  H   -1.81212271202049     -7.82863535698744      5.96570687761398
  C   -0.90725298788300     -2.21148570871160      3.28990284601325
  C   -0.77644837646412     -2.30155261191556      5.80726841728186
  H   -0.13173148306119     -6.17126011449339      5.10658456930038
  H   1.48982647175002    -10.45283672005389      5.44591714120257
  H   -0.08501433355218     -4.21659728200862      3.18543497012945
  C   -0.06480059423929     -1.81740719903128      4.51585072238515
  H   -0.41037085643641     -1.89808058979714      2.35823422754091
  H   -0.18700571413518     -2.02861075308093      6.69722475566170
  H   0.08800071086125     -0.72813344179090      4.56360342249537
  H   0.93298665805646     -2.27853452784630      4.44328754334604
  O   -2.81035354242631     -0.85236197901890      1.43387672758762
  O   -3.07230276216767     -2.08973778408248      2.18512444935386
