55
Coordinates from ORCA-job 38_0.0
  C   1.33930751952962      1.22181921256903      0.46990909111011
  C   0.15821286407865      0.78243029781934     -0.13558951795496
  H   -0.70601823598477      0.50711847205573      0.46904382550839
  C   0.09233041786641      0.67336946526819     -1.53110982800290
  C   1.19413347040549      1.00657178045707     -2.32330209915592
  H   1.13417472804573      0.91839977442251     -3.41129739595460
  C   2.37684134590861      1.45552256521453     -1.72323782482541
  H   3.24056253689336      1.72789840919597     -2.33610223507061
  C   2.44785576988800      1.55797676854678     -0.33332335373619
  H   4.45413364500503     -1.42666999667367      4.48532739663361
  C   4.31816784828841     -0.74153172152680      3.64433258355201
  C   3.05978433751231     -0.16130446020608      3.42658093554728
  H   2.24727346740067     -0.39053536262686      4.11731135979052
  C   2.87539729017300      0.70927868977533      2.34880476859444
  C   3.96919471702701      1.01990298845458      1.51634853597341
  C   5.22049797506817      0.44579414895627      1.73721402521615
  H   6.06120665633213      0.69787807498916      1.08427574800767
  C   5.39258627915406     -0.44796447272048      2.80214843981546
  C   3.64527395798549      2.04970827421389      0.45354055288894
  C   1.57839503695603      1.44711242911143      1.97068670781099
  C   1.94746054854759      2.98441469496849      2.10702033980497
  C   3.18814029847584      3.31931783744912      1.24610165133631
  H   -0.83056797069666      0.32209522310116     -2.00032893705814
  H   6.36932228586445     -0.90647091287661      2.97781995282577
  C   0.86290894527234      3.94257451568858      1.60569648154534
  H   2.11458163862857      3.20219021611471      3.17389403857969
  C   2.75111017487659      4.45343240771446      0.32769035289103
  H   4.03406014716560      3.67832498010833      1.85163805689873
  N   1.41515440729402      4.74602691447089      0.60936838691320
  O   -0.28280903217263      4.02829688071151      1.98601741019732
  O   3.41305244507437      5.01375291839481     -0.51273545466163
  C   0.38407508763255      1.12751541352951      2.87297621240868
  O   -0.04882889958174     -0.23067823840090      2.68968557690954
  H   -0.46019512523563      1.78446030238279      2.62409618234301
  H   0.63940139345896      1.28716810670261      3.92965673801576
  C   -0.29289181742060     -0.99876464929814      3.77483442985411
  C   -0.80820807969922     -2.35474607156358      3.36190810423669
  H   -1.74297207675647     -2.24320066230911      2.79080475898627
  H   -0.98252186609688     -2.96945151196487      4.25312502295121
  H   -0.07793977968273     -2.84393014485676      2.69870230625378
  O   -0.10604994804916     -0.63770246198938      4.91105812569335
  C   0.66264155919491      5.76940592422641     -0.09810588263934
  C   0.78313182569655      7.12756441021600      0.58630819939913
  H   -0.39027072999167      5.45566135088254     -0.13000502106536
  H   1.05839885324516      5.83176168310383     -1.12177919276567
  O   0.03284083077639      8.05143527434619     -0.20546241530842
  H   1.83470501226385      7.45160218381378      0.64534054062554
  H   0.37907924328722      7.09638760865916      1.61106321901211
  C   0.01474373700120      9.33579110882632      0.22047550870075
  C   -0.78726034985280     10.20616609503933     -0.71531292370804
  H   -0.27465304992131     10.27015531467216     -1.68868225180221
  H   -0.88864726595398     11.21042475973445     -0.28646215041493
  H   -1.77806661518413      9.76321253792652     -0.89704871812996
  O   0.58462182353528      9.70428889745113      1.21591030652342
  H   4.50340072147058      2.28909175572846     -0.18844067110048
