64
Coordinates from ORCA-job 39_0.0
  C   1.88131858543311      0.86911634062712      0.03931649780767
  C   1.03945974191724      0.37423856142442     -0.95611831869983
  H   0.10850877573948     -0.12708497267276     -0.68285370986492
  C   1.40132725565981      0.52809046931605     -2.30140088632137
  C   2.58917193824769      1.18018024851478     -2.64426016689251
  H   2.86391635910230      1.29835065926567     -3.69581946174764
  C   3.43022277830469      1.68593995516032     -1.64418437323803
  H   4.35561837236694      2.20470695189809     -1.90918751693402
  C   3.07884163678918      1.52554008428945     -0.30325450194885
  H   4.19405781725148     -2.18839964834613      4.24331940735953
  C   4.16075548562497     -1.33118230271501      3.56560764505265
  C   2.92793794048387     -0.89281045014501      3.06185334887684
  H   2.00082582423647     -1.39804981961798      3.34127300527050
  C   2.89113628328822      0.19652505896904      2.19308758417413
  C   4.08148320163087      0.85344571378709      1.82959849393397
  C   5.30579539347589      0.41778087748840      2.33557365377454
  H   6.22979767781191      0.92973593337082      2.05200344804934
  C   5.34363547792804     -0.68058024255482      3.20534638168327
  C   3.86498703268603      2.02654921233579      0.89343121785842
  C   1.62802250367782      0.80668778783998      1.55607942219390
  C   1.61511199005950      2.31898387406115      2.05880125049869
  C   2.93605254040066      3.01899259405668      1.66864002810374
  H   0.74780962627418      0.13621666166444     -3.08526022881325
  H   6.30191198067911     -1.02843698610127      3.60012152647502
  C   0.51564149210434      3.17125458802580      1.41884605300439
  H   1.44755919217132      2.30187087327973      3.14532109244144
  C   2.52298922496904      4.21170199782937      0.81263825222501
  H   3.47999886888757      3.39880734815539      2.54688689778563
  N   1.13078369278038      4.21727825636272      0.72489645453006
  O   -0.68075052690112      3.01838561466781      1.48401311453311
  O   3.24995523793355      5.01917172284194      0.28422757207870
  C   0.39092491805100      0.12629400915165      1.92892796212449
  C   0.38773343598024      5.20281707913542     -0.04290454972586
  C   -0.06931368078329      6.37148902559592      0.82448843644499
  H   -0.48595237085605      4.70455406474698     -0.48697583371700
  H   1.04705342523825      5.56730582314577     -0.84318360255358
  O   -0.76142110532123      7.27259702990107     -0.04368093449848
  H   0.78888641963801      6.88310382643895      1.28979518540391
  H   -0.74204931666717      6.03319198522133      1.62853115916850
  C   -1.27330280410899      8.38935293808097      0.52354768783668
  C   -1.98211147884775      9.23922741636454     -0.50251250637342
  H   -1.29448530085656      9.48847353471304     -1.32563101596934
  H   -2.35392872688591     10.15562527803036     -0.02859667512645
  H   -2.82124942756979      8.67497908667172     -0.93951186069068
  O   -1.16182688300230      8.63963079900478      1.69677052593242
  C   -0.66831411511331     -0.37980113039319      2.24323514478501
  C   -1.96191423631024     -0.87900873753209      2.60004495522653
  C   -2.18059188123563     -2.23874861255638      2.90001342926658
  H   -1.34468876035978     -2.94085984375327      2.86399608621253
  C   -3.45360937470232     -2.69001362619542      3.23769381182777
  H   -3.63642234988186     -3.74014247190458      3.47497796577448
  C   -4.52598555110065     -1.79213702162790      3.28125488293924
  C   -4.33228661982010     -0.43563335484450      2.99200781707509
  H   -5.16831846776269      0.26093093752793      3.01917212507428
  C   -3.05572274277043      0.01084122798746      2.65391884385982
  H   -2.88672649648421      1.06502068482723      2.42312211622262
  H   4.80022633160777      2.52451718874312      0.60585329606299
  O   -5.73797897211949     -2.32910935364849      3.68635023487107
  C   -6.94274919004921     -1.93743828008358      3.16889425459797
  C   -8.05355787520889     -2.71859269199308      3.82430718286862
  H   -7.87100158674827     -3.79890940287952      3.71882680371738
  H   -9.01185325627029     -2.44655548443852      3.36556741246308
  H   -8.07727445954307     -2.49679206184614      4.90335176908052
  O   -7.07346090115039     -1.09547682467093      2.32366470656784
