31
Coordinates from ORCA-job 4001_0.0
  C   -4.84816167389990     -6.79790229114530      4.96040607425484
  C   -5.64648153824527     -7.18226656172164      3.93829456127619
  C   -5.32958948253494     -6.73652790690870      2.53190972589270
  C   -3.76832910296064     -5.80457945846723      4.65186306895294
  C   -3.54385041751741     -5.56935972330704      3.14405803829237
  C   -4.48501286859771     -4.45213915279903      2.61661037081739
  C   -5.80117159983903     -5.25916140718865      2.30247867910547
  C   -5.03515007522357     -7.29417959417706      6.35956990122284
  O   -6.28693237131044     -7.76632706703094      6.55483770274688
  C   -6.54710368469224     -8.33071883422168      7.84102736574379
  H   -5.87324828711630     -9.17813894485020      8.04088455590346
  H   -7.59082612386420     -8.66875057722544      7.82182418597987
  H   -6.40184893830822     -7.58021470690150      8.63314081387334
  O   -4.18234080288999     -7.30456149465963      7.20930758645787
  C   -6.44102405519695     -5.05014800421722      0.93096670946543
  H   -6.57522313740950     -4.96583160860737      3.03122772614209
  C   -3.82880888517445     -3.73388659444554      1.43430255655696
  H   -4.67354907218736     -3.67771179373088      3.37711141293125
  O   -4.71004781916029     -2.94262550582102      0.79670920428952
  C   -4.20731875199867     -2.19625555813301     -0.31980930240106
  H   -3.39181415997392     -1.53003185507214     -0.00212485242472
  H   -5.05405745807500     -1.61280129749299     -0.70117095537049
  H   -3.82655511563800     -2.87545819789647     -1.09682188421763
  O   -6.44923156284562     -5.87823051019838      0.05637994495429
  H   -6.96160140780462     -4.07131625808175      0.80685159494025
  O   -2.66828511420960     -3.81584634268329      1.12825792734310
  O   -3.17620611396981     -5.14678078271815      5.47626779512469
  H   -6.51979295053265     -7.81348906756753      4.12554248690246
  O   -3.92128432646395     -6.69475434022450      2.37774419823310
  H   -5.74434589472264     -7.41266126759742      1.77315426238607
  H   -2.48792720763698     -5.33288329490818      2.96466854462465
