45
Coordinates from ORCA-job 4003_0.0
  C   -5.35617375239222     -6.41898410442370      4.49652360662113
  C   -6.37524414063261     -6.61884293841495      3.54221742220253
  C   -6.00122044415227     -6.45844476499012      2.08182910085137
  C   -3.99181789819366     -6.02825333004836      4.03134918444070
  C   -3.84324602433662     -5.89673501356873      2.49230885719374
  C   -4.47823701802621     -4.55563879872240      1.94934152329396
  C   -5.94651354548673     -4.97826344882463      1.57869843281123
  C   -4.34818304824605     -3.36436973149925      2.89843345166534
  H   -3.94484473311271     -4.31893287218103      1.01729728879977
  C   -3.57802789678073     -2.16305416982116      2.39341811180892
  O   -4.84197637717401     -3.38621624478616      4.00622499591471
  O   -3.05456659647799     -5.86683250101983      4.78356080589969
  O   -4.66326999334131     -6.90680340177701      1.89966773822667
  C   -2.40234059165411     -6.11234310573085      2.06648548505834
  C   -9.64814872592245     -7.74688372144983      7.20077756807969
  C   -9.32386925989147     -7.55567027306558      5.73064153064925
  O   -10.17332396853728     -7.72324148181132      4.87697444972919
  C   -5.62015723688151     -6.58722712564464      5.86073125000745
  C   -6.89832720128290     -6.94533568666211      6.28475824965339
  C   -7.92447139416964     -7.15084191880947      5.34387895259492
  C   -7.64743284682125     -6.98666093499401      3.97548584706334
  H   -4.80706336009874     -6.42275627844899      6.57099276732027
  H   -7.09229945312423     -7.06681386160044      7.35218964576695
  H   -8.45889935698330     -7.17362926770980      3.26828359312612
  H   -9.01072432275673     -8.52675633417486      7.64865306119747
  H   -10.70196759936254     -8.03897018294910      7.29436205826348
  H   -9.47300650131715     -6.81774610284394      7.76766477059378
  H   -2.31982201089187     -6.04377415785769      0.97165524471521
  H   -2.05758997565076     -7.10698086327251      2.38489361153862
  H   -1.74831829928042     -5.36474891653524      2.53694634978980
  H   -3.55110803280943     -1.38265844307154      3.16525183746818
  H   -4.04365930714613     -1.76696528028332      1.47443547988869
  H   -2.54959977206382     -2.45920760976128      2.12400839018316
  H   -6.65316691925051     -7.07932734698928      1.45057765011097
  C   -7.08952748495280     -4.05089203186563      2.00811831778120
  H   -5.96964699134961     -5.04642511165321      0.47880784366069
  C   -8.44145799091947     -4.40230999202332      1.37322504514718
  H   -6.83210891823303     -3.01564739410067      1.71932487493184
  H   -7.17569977287943     -4.03935642129919      3.10620739943843
  C   -9.55952655450105     -3.43807374998915      1.77392618133636
  H   -8.73527935007543     -5.42918032275426      1.65206565116185
  H   -8.33491452632130     -4.41045097777367      0.27256983517448
  H   -9.71341974614470     -3.43799936762954      2.86583837274502
  H   -10.51679981336572     -3.71277287360457      1.30287794495983
  H   -9.32379124700788     -2.40289154356344      1.47351022113497
