45
Coordinates from ORCA-job 4005_0.0
  C   -5.44116002121727     -6.65662058214412      4.76303076941868
  C   -6.34518897761579     -7.10395986645949      3.77767998738316
  C   -5.86159827861920     -7.05935890414666      2.31639965488968
  C   -4.08043239281332     -6.17654924981152      4.37056876324074
  C   -3.82008835630595     -6.16115977092838      2.84441040442392
  C   -4.53676542663690     -5.02107091841137      2.05968031726775
  C   -5.98177543454896     -5.56125208186732      1.79154783792486
  C   -6.45958692944720     -5.28875260198723      0.35059162188900
  H   -6.67977970410596     -5.03976006462068      2.46440656670524
  C   -4.54475093700532     -3.62899847734322      2.69019809884438
  H   -4.00926782836904     -4.96933466219060      1.09550353184249
  C   -4.64101433464142     -2.42822744225571      1.75741747699642
  C   -5.60586298246876     -5.86847418374163     -0.79051585727671
  O   -4.52762229086731     -3.48017716834258      3.89048900549251
  O   -3.21966359274126     -5.91247276388384      5.17753739378210
  O   -4.45936536139888     -7.32347613579871      2.30445487905461
  C   -6.51717355215905     -8.25413115422042      1.55260317643392
  C   -2.32908015961109     -6.24629284322159      2.56374453931452
  C   -5.80064218726620     -6.68006832731979      6.11696066048985
  C   -7.06313648545994     -7.12857377906138      6.50282716170011
  C   -7.96766506097344     -7.56390758047181      5.52797244725363
  C   -7.61204483431594     -7.54983639492984      4.17454297066722
  H   -5.06917422015305     -6.33311132523542      6.85051779318041
  H   -7.34254966244904     -7.14372188833344      7.55964586992585
  H   -8.33454095565713     -7.90849791459603      3.43931839536055
  H   -7.50070550919266     -5.62549044965502      0.23908668771849
  H   -6.51174544152680     -4.19140603495723      0.22840407953651
  C   -6.29475228276629     -5.77912042517073     -2.15677152397330
  H   -5.33187124589233     -6.91676480655111     -0.57432486243051
  H   -4.64818501072801     -5.32269430430142     -0.84747610683970
  H   -7.26372365532273     -6.30767363445758     -2.15944673390246
  H   -5.67258752326888     -6.22227176334995     -2.95081675134509
  H   -6.49423946612777     -4.73024815584500     -2.43603804593405
  H   -2.16152972263271     -6.37613099409594      1.48360008433058
  H   -1.88744219651245     -7.10232988385230      3.09283677944808
  H   -1.82252416217728     -5.33531802996307      2.91337293051774
  H   -4.12718427460870     -1.57176123632343      2.21803814356660
  H   -5.70476580047585     -2.15456271335532      1.64226823253210
  H   -4.22803843360731     -2.62111382036666      0.75609739295481
  H   -8.95611566892901     -7.92782193525507      5.82200222985606
  O   -5.93887376203294     -9.30797178382839      1.54756213824527
  C   -7.89383007153434     -8.12585832545384      0.91184267006352
  H   -8.39141534147824     -9.10399923266571      0.98839282080137
  H   -7.78005473048515     -7.89579480948375     -0.15913210147757
  H   -8.52861573385307     -7.35202157974567      1.36673847012667
