46
Coordinates from ORCA-job 4006_0.0
  O   0.29925405925563     -1.10939447599234      5.65215833582154
  C   -0.37598863284269     -2.17519400571144      6.30266849662477
  C   -0.24649567736614     -1.00612044632150      4.35468436441279
  C   -1.78486770484060     -2.15354392778840      5.74072315678094
  H   -0.32660888956588     -2.01324153863379      7.39188373442182
  H   0.13919856177238     -3.13728571657600      6.08667391829604
  C   -1.76268900328399     -1.24314270506523      4.52784350472969
  H   0.18013934183457     -1.77776452529340      3.67708999153941
  H   0.00463794103816     -0.01410884154965      3.94860606619616
  C   -2.90366391646208     -2.70336319675593      6.25615622800615
  N   -4.15533888786121     -2.54460056060457      5.61198462891974
  C   -2.44949311343843     -1.72282915184075      3.27834771035630
  H   -2.22906989220813     -0.28166370422965      4.82973660323550
  C   -3.54504768976092     -2.48395417097568      3.17850240418788
  C   -4.42186951600310     -3.08745200876910      4.26010498767393
  C   -4.23487849314748     -4.62537781220574      4.23992893001408
  C   -5.90856091980871     -2.71155916655683      3.98215958349080
  C   -6.53641452773571     -3.20525785936146      2.67796164725130
  H   -5.98041624590794     -1.61321515955394      4.04449218573285
  H   -6.50445737602424     -3.10643915695665      4.82669385313029
  H   -6.02990739202471     -2.80074790409378      1.78748836902774
  H   -7.58840900566265     -2.88226889080513      2.62226995610499
  H   -6.52981234214691     -4.30411264247558      2.59951978696939
  H   -3.21095736887776     -4.88555332931962      4.54777293122471
  H   -4.39718953466034     -5.04733431494793      3.23584465952144
  H   -4.94177380701190     -5.11159195365013      4.93394903538582
  H   -1.99571735781121     -1.38347127867679      2.33766524659260
  H   -3.87373379404604     -2.74082877621335      2.16603616710659
  C   -2.92015493781072     -3.41351653370742      7.57080057838785
  C   -2.01970537023905     -4.45272017975412      7.86807821072873
  C   -2.05612738233164     -5.10607608825683      9.09831236467237
  C   -2.99787690475013     -4.73634203285217     10.06608462988861
  C   -3.90815887729595     -3.70467710182917      9.80111185377399
  C   -3.85572116252974     -3.06167581875859      8.56096668433507
  H   -4.55642037841901     -2.24239947943573      8.37543038715891
  H   -4.63465779900724     -3.40729267386617     10.55214417202564
  H   -1.29271007322386     -4.77064311825150      7.11781324301936
  H   -1.36274451109771     -5.91855439291711      9.32598890462143
  O   -2.92077825346641     -5.47397969440191     11.23829344206239
  C   -3.70087006649543     -5.32080737493460     12.34320540584678
  C   -3.28353403356511     -6.31883529101523     13.39564743892097
  O   -4.58472553505601     -4.51343633129030     12.45873559647491
  H   -2.22729579035564     -6.16197491705188     13.66502642342247
  H   -3.36889249277223     -7.34272532933925     12.99944772197695
  H   -3.91943094028408     -6.20247407876011     14.28140377863751
  H   -4.90688430670174     -2.84973234265329      6.22379268129032
