62
Coordinates from ORCA-job 4007_0.0
  C   -0.12095079275080     -1.70850884092783      4.99671414081293
  C   -0.07171675664473     -2.91942635431677      5.72310628678365
  N   -0.49493771390379     -1.93356096916925      3.67856245486532
  C   -0.35299703587096     -4.08179151969427      4.78925266831597
  C   -0.74440059589012     -3.34820298972923      3.46041658102613
  C   -1.62335520637485     -5.01019560823514      5.05328742360037
  C   -2.63344843696004     -4.37754280656535      6.01820896806358
  C   -2.24790012308305     -3.76419472436081      3.28392137533209
  H   -0.17518666087289     -3.73611480621984      2.60078173333824
  C   -3.20457384898340     -2.93186316698932      4.10490756104767
  C   -3.43494763540842     -3.26824523638725      5.39676829173490
  O   -4.29115340769535     -2.69092869071447      6.25550550044918
  C   -5.06188712157882     -1.60119721032465      5.79939642331295
  H   -4.42186287554171     -0.75114812186124      5.49984217078133
  H   -5.70119959509672     -1.29325482808274      6.63735027296024
  H   -5.69783929749893     -1.88630863020804      4.94090306796028
  H   -3.69143034525916     -2.07686232149892      3.63295540546166
  C   0.82365455634102     -5.09782402045139      4.71112086156281
  C   -1.09389817723867     -6.37139730897763      5.46441993007437
  C   0.21428259921324     -6.52660638611811      4.65704370664324
  H   -1.81348894470248     -7.17314587444781      5.24968266116667
  H   -0.88313886686527     -6.36301272311124      6.54119988250671
  H   1.49735386072234     -4.90041827439752      3.86801657989961
  H   1.41292154485944     -5.01220354672753      5.63553784862125
  C   -0.25729223152504     -1.01093180006081      2.58709838349206
  C   1.19813676914435     -0.94397732238035      2.10666308154121
  H   -0.59683114105601     -0.00593420256224      2.89350453697337
  H   -0.91494558614794     -1.30025566590160      1.74984304675557
  H   1.86899162236176     -0.61647901299834      2.91666538575820
  H   1.29958872817342     -0.23153708662402      1.27140706712186
  H   1.54837225414163     -1.92820432013631      1.75512343395897
  C   0.25528824464642     -2.92409845915827      7.07604004674292
  C   0.53875291193197     -1.70229417128494      7.69310298324294
  C   0.51159137561097     -0.50140219379854      6.98864442335027
  C   0.17993817899882     -0.49258544120334      5.62678360031754
  H   0.29086381769499     -3.84256536892197      7.66589972813159
  F   0.85572257237635     -1.68982064929842      9.00200722815129
  H   0.75174719234566      0.42532597767305      7.51448366521560
  H   0.16053958265160      0.45157799608542      5.07918910735148
  C   1.21541405163253     -7.53003926660801      5.24643329601696
  C   -0.10894820711769     -7.06045406546674      3.24819134089873
  O   1.23604338677701     -7.49832011603560      6.58729764260836
  C   2.18202380385067     -8.36508747424908      7.24581608572881
  C   2.01905398151438     -8.18855388572555      8.74076394121686
  H   3.19713541358780     -8.10475651880345      6.90388514057857
  H   1.98985751913720     -9.40174754789423      6.92565862313097
  H   2.21934029615650     -7.14846559423168      9.04232952967078
  H   2.72636073732967     -8.84364107972378      9.27347319401974
  H   0.99845237983527     -8.45019592032096      9.06074709459718
  O   0.52204280986212     -6.39550788309620      2.26645306913524
  C   0.34457033724805     -6.91208866589616      0.93397695603313
  C   1.20054749357933     -6.09254844197469     -0.00931381319395
  H   -0.72590631516081     -6.86366317667562      0.67506163856270
  H   0.62977177884290     -7.97601522778394      0.93074763806402
  H   0.90044857100469     -5.03238873522857     -0.00512975752092
  H   1.09428208459840     -6.47310442521472     -1.03750856373027
  H   2.26365720519763     -6.15177499339051      0.27155925096322
  O   1.93950495390749     -8.23104849672223      4.58266371860609
  O   -0.82936980672018     -8.00566283634611      3.05740457815074
  O   -2.73396910131004     -4.70002937815802      7.17985194603854
  O   -2.23171715794529     -5.09947830312295      3.76247872831694
  H   -2.55641963007245     -3.78516128724364      2.22770120768099
