39
Coordinates from ORCA-job 4008_0.0
  C   0.70154677563534     -4.01518476116127      5.08425680309942
  C   0.64753859468319     -2.68590875506725      4.34425054951318
  C   -0.37280133524392     -3.91268115358677      6.18218367313136
  C   -1.60640327463523     -4.73507765271093      5.72423466261401
  C   -0.78497120884847     -2.19916654187135      4.77983048277507
  C   -1.90133627777064     -2.94164236265426      4.05182891537628
  C   -2.32749087200091     -4.10365049223881      4.59700396704276
  C   -2.45348354287987     -2.38851601349588      2.75033177031887
  O   -1.90216177024763     -5.81135838918362      6.20381820766336
  O   -0.78778189309214     -2.53682123908033      6.14943352059106
  H   -0.90468384952429     -1.10949778620454      4.68419141157874
  H   -3.15350104341638     -4.68312927258289      4.17286706562462
  C   0.04128091612993     -4.22905957576622      7.63817128022483
  O   1.05383554433042     -4.83492007892035      7.89107914959911
  C   -0.90496360190368     -3.73093582468370      8.70469817596524
  H   -0.48560986267808     -3.95297174794580      9.69461067601687
  H   -1.87771119236510     -4.23777967818488      8.59181976105586
  H   -1.08282147590471     -2.65171740222703      8.58706730866104
  C   1.46051610880462     -5.06528257980683      4.74243422363443
  C   1.50647329897995     -6.44074496547730      5.34394231381706
  C   2.88125328518846     -6.78463087484207      5.93558453451283
  H   1.27481691048604     -7.15992132875173      4.53473216723723
  H   0.72673641107970     -6.56314673332892      6.10695984939747
  H   3.68442753881118     -6.66958015432860      5.18758985083334
  H   2.90272299789226     -7.82710889605710      6.29182247384456
  H   3.10321858995982     -6.12550158460206      6.78746430757860
  H   2.13768928130196     -4.91672633061912      3.89018611942811
  H   1.37268569214341     -1.96348668685443      4.75014218608558
  C   0.74385492659380     -2.63532358506982      2.83484579557046
  O   0.05796518692748     -3.64700249016973      2.25451795749209
  C   -0.72179175535308     -3.34088607806597      1.08849083568582
  C   -2.19232496591769     -3.27481093655959      1.50704413171701
  H   -0.55286408258968     -4.14128688523053      0.35283424174242
  H   -0.36618619060929     -2.39148514805684      0.65965770245819
  H   -2.56471190327450     -4.29249051549395      1.70890195245777
  H   -2.77764146537218     -2.88644772859156      0.65579764270285
  H   -2.05655628069622     -1.37416712120979      2.57334317239063
  H   -3.54538879263276     -2.27475560738272      2.86169903971878
  O   1.23681457800887     -1.71890504193525      2.22730212084287
