29
Coordinates from ORCA-job 4009-2_0.0
  C   2.97690193018712     -3.33579521481304      4.70559253637434
  C   2.30614366838860     -2.03332923987504      4.40443993337682
  H   4.03845006723715     -3.30685338162485      4.40596285846700
  H   2.49710122242082     -4.18520822898344      4.19943439819652
  H   2.97142264973475     -3.52610404695721      5.79145168017923
  C   1.29158088166470     -1.74546820145381      3.55037376031290
  C   2.79624651653913     -0.78238523968384      5.04695260152859
  C   1.99423372748724      0.37719940713242      4.46513350062121
  C   1.00370708013213     -0.25791751228720      3.50918793089775
  C   0.57188334002728     -2.67572023177721      2.62654645434418
  H   -0.51867667577266     -2.64275422311333      2.78907532080878
  H   0.90379469710356     -3.71690332766691      2.73865416832021
  H   0.73487616919327     -2.36954616465707      1.57793438066823
  C   2.12437392887815      0.56526350887230      2.94524460227771
  H   2.94955791985230      0.06442172167900      2.42987986759631
  H   1.84921727869336      1.55183745324810      2.55893182563476
  C   -0.43236981213024      0.23645267678446      3.34682229087598
  C   1.68052702232653      1.60665696421171      5.29110390346278
  O   3.67089571037449     -0.71129870146199      5.88715005813782
  O   0.55865930876951      2.06926626899853      5.31655478679964
  C   2.83626720502129      2.23625117526464      6.02835731484749
  H   3.36111339926189      1.48084597992772      6.63303295636498
  H   2.47340971823557      3.07031622993427      6.64317969162387
  H   3.57360888330707      2.60744958927195      5.29548046825215
  C   -1.44666086890948     -0.26444278268106      4.35249976902638
  H   -1.38079801442261      0.40449453011994      5.22629145035909
  H   -1.23792754548057     -1.28745545495921      4.70009312665355
  H   -2.45863406124612     -0.19495065541215      3.93028902959726
  O   -0.72748534687430      0.99320710196233      2.45102933439423
