33
Coordinates from ORCA-job 4010-2_0.0
  C   1.15910136427065     -2.34111880579465      3.12919211992305
  C   2.69510837242733     -2.32310814245116      3.32833324397746
  H   0.66531675082642     -2.85485721525392      3.96805994536096
  H   0.91169939714716     -2.87470125586477      2.19683368084271
  H   0.74674008728682     -1.32225260487624      3.05964105687731
  C   3.35813720871879     -1.46118909447198      2.22438933194018
  C   2.92703560927077     -1.53439700997822      4.63375132847870
  C   3.16384622883164     -0.05344894200260      4.28549524644290
  C   3.49423020267323     -0.02764852346234      2.78559433704273
  C   4.57649175438369      0.22928533653567      3.78807979811448
  Cl  5.27835899155370      1.83787339397259      3.93291611149975
  Cl  5.82688073434784     -1.01972252871284      4.07131230706732
  C   3.05112767867556      1.07292083332833      1.84841081996109
  C   2.30122247743703      0.99265357251627      4.95157498715033
  O   2.89814588994298     -1.98509522640039      5.74532569920924
  O   2.47727354210591      2.18271212283658      4.92060520016424
  O   1.25229312079698      0.40797498616427      5.55025182673104
  O   1.73938102393061      1.32393547599763      1.99594612794797
  O   3.75573647209738      1.59496189983210      1.02636933676509
  C   3.24679302485946     -3.74628580236668      3.43015311424335
  H   4.33936687523593     -3.73787521314621      3.56324050445607
  H   3.01113528692737     -4.32488460778100      2.52240692507495
  H   2.80566950780934     -4.26138013635075      4.29685859663487
  H   4.35415449219692     -1.84119233187124      1.95357096524477
  H   2.74873054322094     -1.44765069847843      1.30914876644384
  C   0.33204033438153      1.27930956551765      6.21054236313307
  H   -0.44222408721020      0.63214913272667      6.64033609040435
  H   -0.11108090312264      1.99086069244085      5.49717305299280
  H   0.83873967037079      1.84837872092578      7.00435039121739
  C   1.19060514911751      2.34364308201252      1.15457672936299
  H   1.32404861974494      2.08625944653982      0.09303040144533
  H   1.68419906477518      3.30701388159597      1.35065778234228
  H   0.12438551496843      2.40331599632073      1.40457181150731
