43
Coordinates from ORCA-job 4014_0.0
  N   2.16967824429741      0.52988863985304      3.52465962978885
  C   1.76996785459704      0.59050661427725      2.31620673353550
  O   1.85248057128846      1.70334407274282      4.17297893113104
  C   1.08619188918673      2.58298364989009      3.29121631052667
  C   1.06525402073221      1.85790613314306      1.91570668290304
  O   1.89624825269497     -0.50837067934622      1.49815132524452
  C   3.01197584019697     -1.96370803704421      0.01297521968430
  C   3.02438506915118     -0.64000598174426      0.72919795373507
  O   3.87686126548413      0.20197229945104      0.66298630063970
  H   3.05320172308031     -2.77859917729408      0.75288379453383
  H   3.87414290356072     -2.02612016581579     -0.66162104798887
  H   2.07274308153429     -2.08214356981534     -0.54857399581275
  C   1.87840888331373      2.81789263544451      0.99356406827743
  H   0.06787847665848      1.64465982234322      1.51351027774656
  C   1.86384840375363      3.87820236509027      3.00763005083276
  H   0.10973453822029      2.75104861546459      3.75756603844379
  C   1.04555916804328      4.83941002423458      2.09906928574296
  C   1.08524892269002      4.12035186618443      0.69704150861671
  C   2.92047317053715      3.37186112332146      1.99497329494312
  H   2.28611053730575      2.33162939926206      0.09701140840377
  H   2.24427253068695      4.35028747120923      3.92498251217825
  H   3.53828328854041      4.17941758129383      1.57177875930782
  H   3.58620418825235      2.59703790314790      2.39790825385135
  C   -0.35637447254204      5.34510705464303      2.50463581141036
  H   1.64531300719233      5.76043595321622      2.00942951571573
  C   -0.25443486421421      4.10546450960179     -0.06056869870308
  H   1.73415607298832      4.72291318562311      0.04070636756486
  C   -0.95733384204494      6.06786666438784      1.30461202650163
  H   -0.24550553330382      6.05055998339754      3.34311820649122
  O   -1.26220803316629      4.35484407612006      2.96786134029543
  C   -0.90463818632410      5.47264399585920      0.10845481058374
  O   -1.14985776764602      3.10136609363162      0.42446031073298
  H   -0.04900162349007      3.92213759712538     -1.13073656726294
  H   -1.50034207857330      7.00766493442293      1.43378356908280
  O   -1.48496875536376      6.08802598422719     -1.00642020898373
  C   -2.44047357487060      5.43022014082567     -1.70107520983017
  C   -2.94425321402153      6.25431733018609     -2.85364593844078
  H   -2.10489379843946      6.53539824198449     -3.50824298540208
  H   -3.38704318568937      7.18882399806441     -2.47488775086157
  H   -3.69243676726061      5.68408774479828     -3.41663078944358
  H   -1.96518056923337      3.21783938942262     -0.10243129831425
  O   -2.83156984819321      4.32140517015897     -1.41136407342799
  H   -1.45364578961055      3.77002534700934      2.20936826602580
