58
Coordinates from ORCA-job 4016_0.0
  C   -7.77530351954015     -2.59739998042240      4.44927346643713
  C   -6.86730686124659     -1.50303727749620      4.46628605875904
  C   -6.01501107480362     -1.26495781263179      3.37214025052837
  C   -6.05945708062246     -2.10835741112792      2.25184567379433
  C   -6.95938856616512     -3.16596128914778      2.24789303045001
  C   -7.81701801606834     -3.42469974359538      3.32730520069369
  H   -5.56677736906800      0.59504998389598      9.82318086567212
  C   -6.38502525971396      1.08608928050563      9.29468635268644
  C   -7.41713537634148      1.69751746957205     10.01329166558394
  H   -7.39221630254516      1.67695547738759     11.10566235176543
  C   -8.48260878720734      2.32855104454017      9.35901833309972
  C   -8.52399205558489      2.36019001127709      7.95196868663196
  H   -9.35549960414341      2.85415944071984      7.44566961879000
  C   -7.50355927047825      1.75974941237361      7.23196431632765
  C   -6.43997099027926      1.12047438648765      7.89553725802279
  C   -5.09880324684743     -0.13798113012528      3.49396513193487
  C   -5.14505162048242      0.68890100191233      4.55190461023235
  C   -6.15350475354498      0.54829085575357      5.66169474613224
  O   -6.85297701659400     -0.73853947058599      5.56937299556311
  C   -7.25305197127067      1.69917301508963      5.73222885984947
  N   -5.54613348532336      0.58415554775499      6.97612592550513
  C   -8.49929958540559      1.36194359423334      4.90365494728533
  H   -8.98579259438651      0.44625308125432      5.26418452982841
  H   -8.24294083969331      1.23063406089778      3.83971091533897
  H   -9.22509496754128      2.18821172546704      4.96533617435189
  C   -6.66412098958627      3.05029809856382      5.26759933998558
  H   -5.74717891647486      3.30700425758191      5.82013450908286
  H   -7.39701329475016      3.85068944254662      5.45067790296932
  H   -6.43488282606363      3.04038554474504      4.19015228206742
  C   -4.47430464371204     -0.32559379921218      7.35506172855041
  H   -4.35909648279092      0.01635214273519      2.70324896983926
  H   -4.44528019374946      1.52073477561703      4.64286046754880
  H   -8.50087263876741     -4.26705207807331      3.25146335916090
  O   -8.55243225295360     -2.73498490764326      5.54400359484761
  C   -9.49146248748383     -3.79016598050237      5.58709051349264
  N   -7.02540971217161     -4.04800425784074      1.07342060289871
  O   -6.26403123805231     -3.81775275354689      0.14525351973650
  O   -7.84076910533113     -4.95966744965476      1.09304173176137
  H   -5.40728060202728     -1.94825711346193      1.39351111922471
  C   -9.57007423036137      2.95923567382775     10.18409049652388
  C   -3.19468546178993      0.38740082931170      7.81097139723859
  H   -4.25161409545649     -0.96716337029628      6.48819471125414
  H   -4.83267571612769     -1.00448215367250      8.15181101366579
  C   -2.10223867873993     -0.57957464630329      8.27660280027344
  H   -3.43895365869469      1.09076941537176      8.62661055652821
  H   -2.81748930621175      1.00904597424104      6.97927901449066
  C   -0.82542884384037      0.12515189028652      8.73855182033253
  H   -1.86158041670086     -1.28204035559785      7.45727870561072
  H   -2.49539907905366     -1.20494393058716      9.09942347475181
  H   -0.38491863933570      0.72972892296256      7.92784467901691
  H   -0.06172686666504     -0.59781715889735      9.06706901080061
  H   -1.02621995458681      0.80470579084537      9.58403172009534
  H   -10.00787041848098     -3.70651456354693      6.55237924284131
  H   -8.99851018098030     -4.77691057154358      5.52458215336662
  H   -10.23335706110093     -3.70992640558746      4.77228283319671
  F   -10.51891405894148      3.53932257709338      9.42595288719242
  F   -9.08658733476625      3.91060754403032     11.01116129283204
  F   -10.19112039935334      2.05729334221799     10.97311058355753
