56
Coordinates from ORCA-job 4017_0.0
  C   -7.74615434248600     -2.58776054506378      4.27400448201052
  C   -6.86201263011934     -1.47791985426226      4.32091956037450
  C   -6.05979815342085     -1.15174294501274      3.21720737910930
  C   -6.16211830794498     -1.92979058841517      2.03491368850995
  C   -7.03830865640947     -3.00967399342635      1.98792373280928
  C   -7.82322832785337     -3.34247311474486      3.10014999512346
  H   -5.62234399245456      0.48427612862186      9.77461742058255
  C   -6.45940216344639      0.95658501822234      9.25713663721666
  C   -7.52479194370675      1.50634847358224      9.98829859698794
  H   -7.50154037368875      1.45343705240858     11.08048632225123
  C   -8.60858012233554      2.11147048367350      9.34802155496188
  C   -8.64226574167232      2.18083931565205      7.94309779357250
  H   -9.48945180036878      2.65462297209999      7.43850892782679
  C   -7.59490894439020      1.64213728380017      7.20905881034912
  C   -6.50906160788075      1.02942581198636      7.86145998141093
  C   -5.14587338376825     -0.02588403041349      3.40101353711120
  C   -5.19103418881245      0.73446772601261      4.50809840146958
  C   -6.19149912415015      0.52597242611058      5.61257635989746
  O   -6.81915713785402     -0.78951757082716      5.48036344635590
  C   -7.33599569708757      1.62987424262031      5.70942172333705
  N   -5.58577441541917      0.55897769916206      6.92627745448592
  C   -8.56619463000438      1.26547411987186      4.86843235120740
  H   -9.01197247787181      0.31901380716704      5.20145943640024
  H   -8.30610405447087      1.17804786051691      3.80092836212702
  H   -9.32751860215820      2.05698071013113      4.95646915506977
  C   -6.79880603880488      3.01366508025145      5.28003936591656
  H   -5.89480936231990      3.29027116016639      5.84420058962240
  H   -7.56246679208389      3.78075283772563      5.48042604336400
  H   -6.56388245146639      3.04026556398058      4.20387434564642
  C   -4.48415829286288     -0.32055532176487      7.28302886008510
  H   -4.40445517198661      0.18883218935958      2.63097746996039
  H   -4.49286102601074      1.56224312282193      4.64141973307410
  H   -8.50358279146282     -4.19159034416358      3.03470858210321
  O   -8.46704095784963     -2.81183087131864      5.39376567071210
  C   -9.37348293941698     -3.89234337388663      5.42457228762069
  C   -3.22460587566950      0.42696630520497      7.74074812746826
  H   -4.24586131058929     -0.94240711553107      6.40571645559834
  H   -4.81277886199742     -1.02295671690005      8.07263439395682
  C   -2.08500702114104     -0.50926383332624      8.15320041301506
  H   -3.48083520844049      1.09330018355306      8.58359580643640
  H   -2.88792182093843      1.08969275575362      6.92349040932155
  C   -0.82554326733700      0.23078362773961      8.60797630227657
  H   -1.83565854858597     -1.17649595898248      7.30735081387910
  H   -2.43429615807125     -1.17479797505445      8.96439041552197
  H   -0.42935593959857      0.87715769901741      7.80654716077658
  H   -0.02563918106658     -0.47046935105751      8.89557837666235
  H   -1.03189460608390      0.87604088428223      9.47873330156483
  H   -9.84039904747526     -3.87805152916474      6.41853985688723
  H   -8.86096547228612     -4.86119640712021      5.28216608180794
  H   -10.16128504441948     -3.78954145285160      4.65611881169050
  H   -9.42921921958239      2.53009751013330      9.93579290525744
  H   -7.12001138311703     -3.60228613712013      1.07660236862634
  C   -5.32977441056932     -1.58863570786179      0.82627125365134
  F   -5.52006017029210     -0.31344898731802      0.42190934603772
  F   -4.00479473187903     -1.71186487147920      1.06995977666840
  F   -5.60783607681990     -2.37804145456232     -0.22409043576813
