49
Coordinates from ORCA-job 4022_0.0
  C   2.87021722454290      0.43265291893704      0.69234552709975
  C   3.15039645056064     -0.91679627440232      0.05088513985163
  O   1.95455552185270     -1.73702143380801      0.06414427777630
  C   0.73058324940518     -1.17442443378479     -0.12089958956072
  C   0.50120461548054      0.17352807445715      0.21971218219205
  C   1.62496004258869      0.93289537749746      0.75197020931180
  C   -0.81091320316700      0.65507776245083      0.06421492676324
  C   -1.86437117185980     -0.16937435567414     -0.40652561320694
  C   -1.59587824155504     -1.51178397414057     -0.72680255994306
  C   -0.30446093403617     -2.00746041552113     -0.58298801497151
  H   1.43581720446873      1.90561213465317      1.21506832715898
  H   3.72329631785493      0.97673127304826      1.10332404689200
  C   4.18835878376511     -1.66149353316078      0.90960517903459
  C   3.79768301384649     -2.63308023572027      1.84051609907799
  H   2.74390005887410     -2.90060720295586      1.92225247626673
  C   4.74963631787828     -3.25936326509721      2.65233438345173
  H   4.42945008040567     -4.02095549803018      3.36874792121703
  C   6.10014619377912     -2.91554537876182      2.55333246292205
  H   6.84211583347233     -3.40537434376375      3.18966103882637
  C   6.49600511181364     -1.94129090209649      1.63107735645244
  H   7.55030220835843     -1.66590981237541      1.54075941489592
  C   5.54745357893108     -1.32203527806673      0.81375505723039
  H   5.87096391457781     -0.57361795004452      0.08564037492046
  C   3.61985132706797     -0.80394422453350     -1.41255877270148
  C   3.77868581679641      0.42074770951819     -2.07224248429878
  C   4.20267190673501      0.46538413318360     -3.40162796536942
  H   4.33069312995791      1.41707956034795     -3.92165555962890
  C   4.46338442368097     -0.72006513380065     -4.09585524460635
  C   4.29791396784839     -1.96037133927785     -3.46063075308158
  H   4.49836296741209     -2.88317954860768     -3.99768814814217
  C   3.88119685815142     -1.98204365971401     -2.12903000530681
  H   3.75586575344355     -2.94746780857904     -1.63298188112531
  S   -1.43987906374593      2.25558639379303      0.38710443054539
  C   -3.05463601053582      1.68216593785859     -0.13001531533495
  N   -3.09901584958750      0.44813157916040     -0.49966889893319
  C   -4.22150221971811      2.61931416952209     -0.11122580638378
  H   3.56550304838352      1.35551757970604     -1.54993127725888
  O   4.86772571665916     -0.52830080878582     -5.40847350518693
  C   5.26412339872704     -1.49347976092914     -6.28354190659612
  C   5.62740294071342     -0.85614117807348     -7.60248084546246
  H   4.76000001355318     -0.31296291004328     -8.00912465144004
  H   5.94958677432205     -1.63257709219695     -8.30664284252632
  H   6.43279413560713     -0.11953337197565     -7.45615893263352
  O   5.31617724001445     -2.66967908639194     -6.03966080466200
  H   -2.40864120467796     -2.14512549195245     -1.08782421712980
  H   -0.06397630940147     -3.04494111546053     -0.82248230527338
  H   -5.11504146383411      2.07502478855855     -0.44600844328063
  H   -4.05605463013827      3.48043396118103     -0.77983113796895
  H   -4.40188483927296      3.01609346385259      0.90153665012718
