75
Coordinates from ORCA-job 4024_0.0
  C   -8.65997855505869     -2.76947640541113      3.94307830150269
  C   -7.79442280044077     -1.66342726506369      3.75836754802077
  C   -7.18821162463690     -1.42486883550777      2.51909564797033
  C   -7.44717674094365     -2.30099357920533      1.45265170901447
  C   -8.28164945657996     -3.40199420762403      1.63082116340939
  C   -8.88878895016516     -3.64030698388661      2.87087277959107
  H   -9.35440595495357      3.78017686460386      6.20163600371091
  C   -8.28892623361450      3.60486307263005      6.35984072383129
  C   -7.48966235811086      4.59555279777977      6.94694150323650
  H   -7.94261601250812      5.54200820216899      7.24751741430424
  C   -6.11974073012606      4.40159288793089      7.13959749504753
  C   -5.51972146321804      3.17863378906217      6.75876089851983
  H   -4.45088940011001      3.02327793172601      6.92745178779605
  C   -6.29634401784017      2.19483256570216      6.17869125020381
  C   -7.68032267589563      2.40614168870221      5.96970708338067
  C   -6.28691602547005     -0.20028602380419      2.42037850089136
  C   -6.93029330975147      0.89601203069357      3.29635035020326
  C   -7.17080346598138      0.47690771593998      4.76250972854562
  O   -7.56226129093381     -0.88632843188493      4.85991216886216
  C   -5.95951664234105      0.77035751518300      5.74983195426433
  N   -8.23737419890945      1.30685825989639      5.35892300469914
  C   -4.55864398559959      0.62498134867317      5.14524243796377
  H   -4.39429274651673      1.28134045127210      4.27859689554185
  H   -4.35983772698192     -0.41679076912174      4.84815709630738
  H   -3.80324533938307      0.88820101499162      5.90259289363613
  C   -6.06877058376624     -0.15425708464307      6.98590206940418
  H   -5.88812209059257     -1.20286521126623      6.70785892038224
  H   -5.32292613035634      0.14997012235865      7.73629595077596
  H   -7.06618396726149     -0.09544385293488      7.44400366109127
  C   -9.61285223060319      1.22097158442924      4.94012527300747
  H   -9.54756725018533     -4.50061544328936      2.99219466910091
  O   -9.21673561141570     -2.88797965764677      5.17556326497995
  C   -10.06360990414409     -3.98240686416909      5.43966268374151
  H   -6.98858449279363     -2.10051457883601      0.48223296353176
  C   -5.25573858668714      5.48610713002170      7.71491299051308
  H   -10.38415390338663     -3.88478245165809      6.48601831123667
  H   -9.53976176547106     -4.94801412506338      5.31481768684362
  H   -10.95877453900615     -3.98047238859021      4.79029762837028
  F   -4.35041636385987      5.94093029012858      6.81850085098061
  F   -4.54037685690307      5.05550189969588      8.77709538954029
  F   -5.96967728964937      6.55131350150747      8.12325285911165
  H   -9.85501621402734      1.85260499013162      4.06130469261718
  H   -9.84965391647514      0.17380627810609      4.70553242581954
  H   -10.27169361434571      1.52819932444969      5.76822509000907
  H   -8.47494391841668     -4.08444927280086      0.79927165117641
  H   -7.90309034966455      1.15227092141017      2.84559962473178
  H   -6.32961081996476      1.81701419002938      3.28421759227427
  C   -6.05683307389285      0.32209671048470      1.02261584360953
  H   -5.32181065185124     -0.46259942192144      2.87404371495948
  C   -4.96973743005504      0.25715164454067      0.21988141886796
  H   -6.89757109789448      0.89340116466773      0.61471219508351
  N   -3.77068315301775     -0.44598148378761      0.40264049319454
  C   -4.86978751103485      1.02258832019384     -1.12529589628927
  C   -3.42791043022050      0.74870912690362     -1.53027630817627
  C   -5.12713645220291      2.53080521090741     -0.93995517619460
  C   -5.85250341517389      0.43684985545136     -2.16381474745349
  C   -2.84384250667858     -0.11976820658642     -0.59185308674329
  C   -2.69291251833509      1.19419235123699     -2.62079061678090
  C   -1.35928526385292      0.77405085880807     -2.77390095640011
  C   -0.78693332835811     -0.08502385500888     -1.83252316580814
  C   -1.51748030691974     -0.54262686439807     -0.72491449406434
  H   0.25201018754710     -0.40486066998287     -1.95131422829137
  H   -1.04858840739149     -1.20025842211623      0.00940467192558
  H   -3.14162170155276      1.86738899148615     -3.35720931060724
  H   -0.77112609882979      1.12301216264020     -3.62604452840273
  C   -3.51533180372647     -1.46215484050707      1.39818744185866
  H   -3.11325582260426     -1.05183547139660      2.34280123378091
  H   -2.78200891174689     -2.18146956401246      1.00376644392166
  H   -4.43636796853401     -2.01958467711109      1.61848266465824
  H   -4.43800098015218      2.96336854676441     -0.19897068434009
  H   -6.15776123119891      2.71741942321533     -0.59913174882529
  H   -4.98532256622574      3.06587670267016     -1.89309910904620
  H   -5.68250858831640     -0.64142557791474     -2.30671727822277
  H   -5.72412568192776      0.93358485854055     -3.13945947960633
  H   -6.89598118080460      0.58107818941513     -1.84035789630241
