73
Coordinates from ORCA-job 4024-_0.0
  C   -7.83798110519782     -2.36999065631223      3.87618547483089
  C   -7.09850060607587     -1.17351000453177      3.70572653472930
  C   -6.79308649990978     -0.69497055438224      2.42065531812797
  C   -7.27417922348682     -1.39861396544324      1.29763383549061
  C   -8.00671191901638     -2.56873875796788      1.46077741964126
  C   -8.28351092740630     -3.06251363530035      2.74483772484332
  H   -4.31661666570894      0.78717292582206      8.53202138463475
  C   -5.33237885678264      1.15126645469537      8.36925981176251
  C   -6.13237928264482      1.51534124058795      9.45822109210883
  H   -5.72886291463622      1.43502532361830     10.47036885955580
  C   -7.44597382960527      1.96360981547763      9.27411077806545
  C   -7.98363919393300      2.05161498443892      7.97386341476405
  H   -9.01228227151696      2.39145511958590      7.83570621891795
  C   -7.19827604865397      1.69766705101114      6.89003169702759
  C   -5.87485372324030      1.25534117599746      7.08249797906236
  C   -5.98440106874091      0.54103223967149      2.33586554528365
  C   -5.76722547417366      1.24292196390577      3.47529321161917
  C   -6.29295498593861      0.85080926229302      4.82796161433715
  O   -6.69792256118401     -0.54153462172664      4.83572219186602
  C   -7.48455103732442      1.74843922041336      5.39642082677224
  N   -5.27490569402449      0.97461684285260      5.86394798417804
  C   -8.86158804470565      1.19600515270988      5.00974079205607
  H   -9.00994076538098      0.17967495798290      5.39819878039326
  H   -8.98394180842402      1.17627527226026      3.91502029441303
  H   -9.65459318524046      1.84281182381218      5.41827273939865
  C   -7.34956250833936      3.20875085559918      4.91101663280236
  H   -6.36011474958126      3.62693381920087      5.15126314428615
  H   -8.10615817630046      3.83351586864343      5.41061048524947
  H   -7.50763354146734      3.28488070440302      3.82349130483154
  C   -4.03911053121902      0.22777821470326      5.77821322403705
  H   -8.86345358117720     -3.97916794037843      2.85575255097377
  O   -8.07372945276087     -2.73882496662445      5.16013361520211
  C   -8.80820201088627     -3.91449128291642      5.41016851318496
  H   -7.06623559208191     -1.01069794755286      0.30000706866489
  C   -8.25140598826629      2.40144742354692     10.46484995140277
  H   -8.87510558018502     -4.01483530614507      6.50211249569311
  H   -8.30621343155353     -4.80971808122366      4.99847467129241
  H   -9.83074447564407     -3.85999566765127      4.99270859664546
  F   -9.57191801606585      2.44296159266659     10.19981677913418
  F   -7.90359846065250      3.63800541590106     10.88716345718291
  F   -8.08084997921424      1.58375151076784     11.52411228334726
  H   -3.71769586223648      0.17913463713641      4.72806274994060
  H   -4.13871575150198     -0.80569202598730      6.16068575721798
  H   -3.24706907765382      0.73806088315391      6.34937937052734
  H   -8.37715001199393     -3.11035260175721      0.58694998282052
  C   -5.50734244659351      1.06813863387910      1.03670985795273
  C   -4.79602060327838      0.48503273025288      0.03684996307982
  H   -5.76160220682139      2.11736106559908      0.85964744651875
  N   -4.18925027238941     -0.76998856711030      0.00238779681245
  C   -4.52626658688086      1.18670134295527     -1.31848111852534
  C   -3.81364916790564      0.08920653440275     -2.09615952081302
  C   -3.60564096008202      2.41331146408717     -1.13021047346281
  C   -5.84119934219809      1.60602409956917     -2.00574419340703
  C   -3.64541375991376     -1.02764692167902     -1.26078506947858
  C   -3.33294612890926      0.06262437608041     -3.39861337453985
  C   -2.68398530956680     -1.09290672741335     -3.86998410198810
  C   -2.52382460559046     -2.19815924319277     -3.02990877383768
  C   -3.00334439741446     -2.18481720585256     -1.71083005333616
  H   -2.02075378973201     -3.09417313095265     -3.40378127872169
  H   -2.88262767662042     -3.05870143923020     -1.06788869989348
  H   -3.45462564424170      0.92871306877132     -4.05582385963439
  H   -2.30661336120857     -1.12616860530220     -4.89489381366405
  C   -3.93146563066133     -1.63663258668578      1.13379077401322
  H   -2.89673920187622     -2.01357036012586      1.07770247853441
  H   -4.61909207782964     -2.49791703093226      1.17304539892855
  H   -4.04077069924068     -1.06973294408474      2.06579676188645
  H   -2.66479251347932      2.13123640279305     -0.63327361660445
  H   -4.10004096353049      3.18519416670793     -0.51889009869443
  H   -3.35501273025784      2.85907577164003     -2.10659101911600
  H   -6.50942610059882      0.74268943889914     -2.14538111933596
  H   -5.63488480148288      2.04170384297992     -2.99691858219668
  H   -6.37688598557665      2.36032628489376     -1.40816146980686
  H   -5.17937856438539      2.16243180209300      3.44486560101326
