52
Coordinates from ORCA-job 4025_0.0
  C   -8.07754158425401     -1.79218181912266      3.87219804333908
  C   -6.80084094817130     -1.21565639577615      3.85298918065505
  C   -5.87771482797167     -1.64976510825569      2.87159054392611
  C   -6.30568151619740     -2.56986776153572      1.90761375814372
  C   -7.60227438018383     -3.10267496990237      1.90131892340845
  C   -8.49223908001134     -2.71981801869237      2.91284865512432
  H   -4.39568669577799      1.18123104843687      8.63307582144751
  C   -5.45366107939475      1.37111903583095      8.44639002035157
  C   -6.34004245611393      1.52496843953411      9.52429436882612
  H   -5.95148758986065      1.45827299150729     10.54451017354415
  C   -7.70320640759898      1.74591835668693      9.31572273783962
  C   -8.20509533114870      1.82527024845387      8.00434443663973
  H   -9.27239453241189      1.99651333628545      7.83554886131171
  C   -7.33394934296497      1.68088995248289      6.93309479258130
  C   -5.96669073608495      1.45788126804569      7.14720483203010
  C   -4.43963009250275     -1.18681917545533      2.83721725524815
  C   -5.90094492558210      1.61178478139290      3.45999781803378
  C   -6.25333628652278      1.06481835523260      4.86212217431967
  O   -6.42798202806114     -0.38803865996408      4.89078847178007
  C   -7.56762668152937      1.80264802247747      5.44001222737981
  N   -5.28089991439048      1.33255476598854      5.92973871165918
  C   -8.89983240015344      1.20314193363337      4.98102812483516
  H   -9.07740046229058      0.22036660276247      5.43075133541761
  H   -8.95640426455337      1.10709660506506      3.88535193610929
  H   -9.72629349517502      1.86115801117602      5.29407003384904
  C   -7.58090107513722      3.32133499368443      5.11708510287764
  H   -6.61610283416172      3.79703885469847      5.34899889888630
  H   -8.34730743874601      3.80679991349542      5.74051592722221
  H   -7.83554132724018      3.52435178887773      4.06486620380066
  C   -3.99596550947472      0.65667459516086      5.99997545947603
  H   -9.49733328648158     -3.13778902442903      2.97719106084679
  H   -5.61050887657350     -2.92108139630044      1.14046951209231
  H   -3.53797290452284      0.57102321742861      5.01341633285780
  H   -4.08020823507241     -0.35695638433512      6.43529146554705
  H   -3.30748283334521      1.24589650089321      6.62644855383002
  C   -4.52501871515472      1.43260021649609      2.78743645938375
  H   -6.03422846576847      2.69504338293229      3.53552475078147
  H   -6.69156603856469      1.26390971316061      2.77191162043770
  C   -4.21389251841421      0.12133973058906      2.05568770894943
  H   -4.05656735306361     -1.09396750053347      3.86398360769818
  H   -3.84539707841500     -1.97981465751427      2.35647945550484
  H   -4.80944638647850      0.07186431485305      1.12685625912173
  H   -3.15884623102205      0.16338342614701      1.73203460889759
  H   -3.72834343686104      1.66881266839397      3.50873965278035
  H   -4.45372975379042      2.23648897567127      2.03408141592179
  H   -8.75737023561873     -1.52848435927370      4.68009142192903
  O   -7.88645751953706     -3.98813168160645      0.90799212998133
  C   -9.16149130958132     -4.58454867282120      0.86856003307309
  H   -9.36865343172485     -5.17976993071456      1.77732317891469
  H   -9.16959241724233     -5.25420922957686     -0.00269369810150
  H   -9.96584057318306     -3.83495285354083      0.74876395535158
  H   -8.37883715591692      1.85275155187578     10.16804568413769
