70
Coordinates from ORCA-job 4026_0.0
  C   -5.25067530966334      4.17247777945572     10.09787527502806
  C   -4.06692837032220      4.87607959831532      9.83094308093411
  C   -3.19694966379065      4.48022146504491      8.77210559619062
  C   -3.49768661136365      3.36476246704905      7.96551535080123
  C   -5.53396210041080      3.07876952526036      9.28358181317018
  C   -4.68338373808046      2.69229580132219      8.25285542211759
  H   -5.88417902456198      4.51928602146774     10.91787294164417
  C   -6.52174614679826      1.94460715026828      9.02126952173152
  C   -5.55936584192895      1.51833770981605      7.84167791054611
  H   -6.02546392749131      1.58573532026225      6.84511379686538
  H   -5.10749952786155      0.51787973766111      7.94656879418245
  C   -7.94571636371142      2.34079216557993      8.62785773907360
  H   -6.53555342998043      1.20027548813419      9.83567191029314
  N   -8.73175576644936      1.24085978598827      8.07892991527005
  H   -7.87702549492372      3.12700200502119      7.85736143435492
  H   -8.44464710549390      2.81197707288048      9.50937329150520
  C   -9.90390667343906      1.69416516216103      7.33531882829956
  C   -9.05891815824009      0.23130152503366      9.07211167598610
  H   -8.14626802503299     -0.18228097397964      9.52555668939475
  H   -9.59558771119020     -0.60913529006769      8.60915589441854
  H   -9.69825610382005      0.62799983305322      9.89569747255292
  C   -10.43817966394200      0.66132541623133      6.33817255374745
  H   -9.61459638879592      2.60059507053640      6.77606379595409
  H   -10.72864233937477      2.00767748352118      8.01955732589321
  C   -11.64029282927069      1.18648944723397      5.54305217874234
  H   -10.75923176320666     -0.25435953154422      6.85949253050675
  H   -9.61727723628767      0.37522675869202      5.65752096540903
  N   -12.15785634218080      0.22528634819649      4.57204893394880
  H   -11.37494716666456      2.11513866433805      5.00770524597789
  H   -12.46118953121284      1.42352556504595      6.23519898427540
  O   -3.79041386142305      5.99419527721552     10.57104076267525
  C   -2.69445006571367      5.92203678003426     11.46876034088054
  H   -2.66417815334479      6.87959065966941     12.00909676431411
  H   -1.73833591422581      5.77739909248363     10.93991512192301
  H   -2.82995853388449      5.10453285701936     12.20193610082328
  H   -2.83440909147591      3.05896855316062      7.15528633016476
  O   -2.09135983883733      5.25928847297072      8.60796886245985
  C   -1.20192755989484      4.97788990756517      7.55325816438838
  H   -0.73944679671730      3.97852909485171      7.65507554611790
  H   -0.41179846151942      5.74029197274660      7.59734370308763
  H   -1.70057068323319      5.03673748814407      6.56838002255537
  C   -13.16922331516302     -0.61939350277827      4.95575520280470
  C   -11.58353440237251      0.17272116935934      3.23275890604628
  C   -12.49027887417147      0.75781103218202      2.14910203816911
  H   -11.29946932280082     -0.86109893254383      2.97390640266499
  H   -10.64319594758819      0.74304205970604      3.25210030671093
  C   -13.66862360561806     -1.59550404416819      3.88797810888649
  C   -14.34573722241368     -0.98870724284675      2.66681265492613
  H   -14.38288830797867     -2.24409007600674      4.40961345813860
  H   -12.82693111720302     -2.24173357377968      3.57776156785160
  C   -13.80737944511649      0.04443563896634      1.87678640314507
  H   -11.91171728976393      0.79833916886328      1.20856024997868
  H   -12.70494317550604      1.81067238488289      2.41142988144832
  C   -15.59684957685626     -1.52115903670387      2.29799479354112
  C   -14.52984720009029      0.48807837341501      0.75025452088757
  C   -15.75968466063478     -0.06043722499559      0.38209310030132
  C   -16.31076794991576     -1.08828411608035      1.18566947773044
  H   -16.04639680828413     -2.32184842796069      2.89022777992835
  H   -14.09433902666520      1.28471509945582      0.14436198472177
  O   -16.47605976722807      0.30882927276909     -0.71361410494490
  C   -15.95703414057814      1.29420373242340     -1.57727512814509
  H   -15.83255869647093      2.26756198673684     -1.06784717311220
  H   -16.68392304839906      1.41056068750100     -2.39288298060990
  H   -14.98408420260586      0.99197933238801     -2.00585676558251
  O   -17.48300809480292     -1.71219768878438      0.86857869640751
  C   -18.67158413292890     -0.93516282543634      0.90041290282219
  H   -19.50255341605019     -1.62416587645269      0.69113356259610
  H   -18.66263089877483     -0.13748663292292      0.14087506208765
  H   -18.82612909699055     -0.48433200557910      1.89834883372739
  O   -13.63803994126730     -0.61154345944963      6.08341166866659
