37
Coordinates from ORCA-job 4027_0.0
  C   -4.46001499700474      0.93231114612400     12.59673330099792
  C   -4.31170470970911      1.91590718543044     11.41714276514813
  C   -5.99221915603877      1.20443925527463     12.62644192848953
  H   -3.89144408537549      1.15562383755174     13.51434388631004
  H   -4.24513862088460     -0.10561241895671     12.30009785932473
  C   -5.86916022550472      1.85192572023450     11.18833174405652
  C   -3.37550341193860      1.62761019996910     10.27727648482649
  H   -4.06208921001989      2.92296265802635     11.79838823696909
  C   -3.42997302022279      2.60365836948962      9.11354549130881
  C   -4.09420798992248      2.11523822568853      7.82317022848113
  H   -2.39774825984641      2.88620631796169      8.85070794962422
  H   -3.92600406302612      3.54025316311063      9.42498256469645
  C   -5.51331132983494      1.76547840603308      7.60315944228203
  C   -6.60197191200652      1.77108561798117      8.67968239569285
  C   -6.37812042678270      1.01772875951864     10.00737000036952
  H   -7.49045255833468      1.32663590249635      8.19936033726537
  H   -6.88269670259653      2.82225763324972      8.87978976010640
  H   -6.34912357378300      2.84535241523160     11.14173630112676
  H   -5.72700603406042      0.14765062662269      9.82335766045469
  H   -7.36057618990045      0.61123995203279     10.29561448675155
  C   -6.36991914494471      2.26252466479707     13.67015239618263
  H   -5.73527781967648      3.16056635354015     13.59168448375315
  H   -6.25888659386318      1.86452941071446     14.69334266549464
  H   -7.41838888487899      2.58359847467294     13.54552002517849
  C   -6.87667802084940     -0.03135874920856     12.79231291778708
  H   -6.62643111451600     -0.82478852570189     12.07139740242669
  H   -7.94641188233542      0.21160595808177     12.67087142858441
  H   -6.74926263991642     -0.45303149668722     13.80426928348753
  C   -2.50416802162281      0.61010241643017     10.27645461496091
  H   -2.44086928564083     -0.09989800369722     11.10457502163349
  H   -1.82161329286166      0.44711422829118      9.43690051374647
  O   -4.49817939445158      0.75535659564485      7.67949873901585
  H   -3.57827766718648      2.50352088568381      6.93030778759959
  C   -6.07403561002244      1.96675743621291      6.20488634592081
  H   -6.64375201028016      2.90918033703348      6.14073911423172
  H   -5.27141539041693      1.99137951733894      5.45311401415030
  H   -6.75892674974345      1.14180752378255      5.94682042156383
