66
Coordinates from ORCA-job 4029_0.0
  C   -4.81716605933672      2.68696653727425      9.37169969837647
  C   -4.08394263411203      3.74447244948068      9.77799807211674
  C   -3.08638129314348      4.34742824532028      8.87375105172050
  C   -2.97022272807207      4.00305094849122      7.57451881729243
  C   -4.63559721606399      2.02321641344237      8.02571289467698
  C   -3.90654735980140      2.96011357880779      7.01595341225478
  C   -5.90732098212774      2.10923685015710      7.09086062988873
  C   -5.28931529805992      3.38341678980682      6.40239499270744
  C   -7.29746082678678      1.98876507137299      7.68594214655068
  H   -5.81059968499937      1.28596396454075      6.36006660815936
  H   -3.37241362202088      2.35068205115038      6.26642914907852
  H   -5.53227212663625      2.22421404776248     10.06027417492472
  C   -1.95759346233208      4.61290458255451      6.64714522976108
  C   -4.01069106913726      0.63519679046452      8.21150998956018
  H   -4.59789743365406      0.00843241339087      8.90254649782847
  H   -2.99960607548054      0.73018947782699      8.64000150158599
  H   -3.92650652456270      0.10052106624663      7.24968554538022
  C   -7.60005464726732      0.81491878946344      8.41043664207805
  C   -8.85316825363300      0.60549472268385      8.97877215657091
  C   -8.31812897872583      2.94533240452946      7.53251570408462
  C   -9.83539327417414      1.58439047691195      8.81442169839198
  C   -9.58325305587437      2.74810058340851      8.09235808118728
  H   -8.14300652378962      3.85967557245184      6.96482568887236
  H   -6.83742677566521      0.04180762726499      8.52675171981869
  H   -9.08625484976049     -0.29873534621155      9.54099025477657
  H   -10.37627040863623      3.48687201134702      7.97551090735771
  N   -11.16887739445950      1.37768914087244      9.41324634833942
  O   -11.34829736359364      0.35161944998606     10.05102363973497
  O   -12.00986828367698      2.24481030688458      9.23528697411255
  C   -5.81813407534222      4.76716159456759      6.80361662210566
  C   -5.39822154713800      3.48888183296328      4.87380574385230
  O   -6.81556002132146      5.11376391964799      5.83816504922354
  H   -5.00150825753532      5.51028130464841      6.77382969018028
  H   -6.27016131784277      4.80546454039392      7.80421691653813
  C   -6.68478241465771      4.31474612572642      4.66722601016490
  H   -5.43477983401226      2.51298944680337      4.36730794401444
  H   -4.53037257346348      4.04215895808741      4.47814100392998
  C   -6.71287086531340      5.13414871112936      3.39621148118922
  H   -7.55426987532065      3.63128148310622      4.60950110623101
  C   -4.22005823498704      4.34662346350686     11.15252236565129
  H   -4.50251304041431      5.41258543826258     11.09317846609029
  H   -3.25921779343016      4.30694482078123     11.69560245366378
  H   -4.97686499881479      3.82432583039792     11.75604044606743
  H   -2.42187864443950      5.11109440502009      9.29244569354552
  H   -1.30201992825152      3.83818044150074      6.20982377538506
  H   -1.32323144869022      5.35128163466662      7.16013865412391
  H   -2.44445016542115      5.12054865212560      5.79386073156014
  C   -6.29584918625903      6.40239393370601      3.16863625899940
  O   -7.21830922485521      4.34688686223282      2.38703481347012
  C   -6.40068346536407      6.96028181559201      1.78814017003483
  C   -6.94854276937132      6.07074829032997      0.76453503552902
  C   -7.31714239742344      4.81093177555588      1.12733461887184
  O   -7.80735026318907      3.91750906516548      0.26212504718828
  C   -8.27326826535591      2.65485764288415      0.72381186854744
  H   -7.46090324243702      2.06689799774009      1.18020029208689
  H   -8.64866415099943      2.13312913652688     -0.16568312330244
  H   -9.08824952360814      2.76804644221450      1.45701233280870
  O   -6.03891056994597      8.10558818202513      1.52535792788594
  C   -5.72213250108881      7.31370846295386      4.22240104724017
  H   -4.81536526454566      6.89380284374382      4.68808932193955
  H   -6.44411461658459      7.50299130325413      5.02910098817330
  H   -5.45534956358987      8.26292496229541      3.73858549594876
  C   -7.06850415418257      6.58738598491286     -0.63928207816784
  H   -6.07207082371997      6.82159027632105     -1.05050497195685
  H   -7.63038239273621      7.53528831369145     -0.64636999642456
  H   -7.56494838276337      5.86572708783526     -1.30107942957848
