57
Coordinates from ORCA-job 4034_0.0
  C   5.35959812397766     -3.56141857157909      4.39953445064138
  C   6.19109818229733     -3.78644676616228      3.14755669306671
  C   5.88333432520532     -3.30558693548429      1.92889875809517
  C   4.57746492626189     -2.60104192269262      1.71822418658109
  C   3.99793858785433     -2.81302902551932      4.16598479294915
  C   6.16305090085582     -2.78444280110129      5.46633296171480
  H   5.14431583204740     -4.53007457560663      4.87986531078915
  C   4.14350427935513     -1.84275870501773      2.98887319669224
  C   2.80390875543101     -3.72004320637631      3.93430286186627
  H   3.79439484439041     -2.24726738003842      5.09364016391993
  C   1.75449370146045     -3.36965578220880      3.17064237231266
  C   1.63993842422918     -2.05183108807438      2.45245244288075
  C   2.86891844488505     -1.11489257748179      2.56232536606375
  H   4.92404688987375     -1.09728266218648      3.22525792754266
  H   2.79927425583933     -4.68832195853273      4.44813085769751
  H   0.91724511239659     -4.07103232973458      3.06668507824023
  H   7.10925910784113     -4.37049631251131      3.28244626848840
  H   6.54037495970505     -3.51252585520544      1.07622483399471
  O   7.08633554451666     -1.92228360048141      4.98906837208996
  O   5.96241421926064     -2.88595460559320      6.64577437886174
  H   7.13283300791925     -2.01304436189770      4.02118351334197
  C   4.31263955619672     -1.58957994549952      0.59706665467162
  H   3.85027924612004     -3.41906720369445      1.56905320726210
  C   2.93981687237857     -0.97902492563793      0.99650681741610
  H   2.69314150472061     -0.18671302261767      3.12706339774433
  H   4.29484162704763     -2.04358451317879     -0.40891104627564
  H   5.08459369541068     -0.79934489083891      0.59253335324848
  C   1.75351797896505     -2.02200892488305      0.88342044850036
  H   0.72136537655591     -1.54111746795635      2.78122226913663
  C   -0.60365644398604     -0.85128044990298      0.52314250468916
  C   2.71726788102749      0.41278992725932      0.42139889530888
  C   -0.78377798026678      0.44963948724382      0.03158611141179
  C   -1.51844509324537     -1.35539234098243      1.48336918368148
  C   -1.82851282560813      1.28929157228909      0.47191366616244
  C   -2.53926273024228     -0.52627988011215      1.90992487137273
  C   -2.69236774290669      0.77459778152935      1.42030252418976
  H   -0.10251499238562      0.82795277377721     -0.73382810933660
  H   -1.43820780458603     -2.37425076147373      1.86787514681715
  H   -1.95518515201332      2.29928506013192      0.07811954876515
  H   3.55378279269092      1.07651786561160      0.69865594000990
  H   1.79069934006154      0.86821336075629      0.79909234433081
  H   2.66108489163321      0.39700585324474     -0.68057669526811
  O   -3.51731316056258     -0.77866123788358      2.82980251386622
  O   -3.76381558142305      1.36439723822938      2.03078658422760
  C   -4.42778304254210      0.33063878990190      2.76895497164458
  C   -4.80919677677789      0.80670001109793      4.15460181014327
  H   -5.32080939295763      0.00812842581641      2.19184915852548
  C   -5.55456716082720     -0.25529496202577      4.96340470675939
  H   -5.42798924948274      1.71111366128361      4.02824331306614
  H   -3.88301429619791      1.11740273858687      4.66620383364092
  H   -6.49026121541112     -0.55972200039710      4.46488173080847
  H   -5.81835551229233      0.12708297419859      5.96128499343048
  H   -4.93539826121054     -1.15587220493680      5.09539542468541
  C   0.50326951945572     -1.75239266833812      0.00474228839433
  H   2.15983301900643     -2.97854297209041      0.51701519196742
  H   0.05076181590172     -2.73613018718782     -0.21010565285255
  H   0.85054687214959     -1.37295593783460     -0.97102668997607
