51
Coordinates from ORCA-job 4037_0.0
  C   0.49313748925426     -7.40206568309679      8.59393138039212
  C   -0.17532966327119     -6.09684964353442      8.10038500055846
  C   1.78660712066227     -6.85254719758157      7.89994556550419
  N   0.93443733038985     -5.82920762130583      7.24922610526538
  C   0.35319414837215     -7.82677361987442     10.05273232099210
  H   0.10611469894324     -8.24183179561545      7.99099900757168
  C   1.29232854361200     -8.98157163530057     10.41515730004367
  O   -1.00190929811083     -8.23073441882833     10.18189572557871
  H   0.55351749713009     -6.96385221977017     10.71314813374992
  H   1.06426692221320     -9.85764382874174      9.78754976870481
  H   1.15011485631407     -9.27455374682096     11.46850464381408
  H   2.35402156201898     -8.72185118019212     10.27938651282305
  H   -1.24817153313857     -8.19821477933382     11.11443723042414
  O   -1.15745302962452     -5.46973967565750      8.35543929576564
  C   2.94669167754797     -6.01929555308300      8.54161004838557
  H   2.21472478695282     -7.55458595294345      7.16611147441888
  C   2.86163698751214     -4.72707938756598      7.70453561144008
  C   1.67462751583994     -4.65140211329117      7.04008010120020
  H   3.90177701969866     -6.52783741294079      8.33157065615025
  C   2.90417168704591     -5.70599311860677     10.04374650140456
  H   1.97528758421504     -5.18861721973827     10.33090900085519
  H   3.74602050074714     -5.04970113438294     10.30779312777589
  H   3.00085199185884     -6.61793659422302     10.64985834205288
  C   1.09617061678594     -3.59263265193926      6.14211957945962
  O   -0.05282683072129     -3.61867438516927      5.79467350037415
  O   1.93748183860921     -2.62079998540118      5.74835167641648
  H   2.85311113017719     -2.81193293460468      6.05069155741006
  S   4.19913512452688     -3.55717099024960      7.62316389864094
  C   3.60560805918506     -2.06595711252986      8.58476446301924
  C   3.77120206770077     -2.16358203408532     10.11466652160034
  C   4.39847091626338     -0.81246705013357     10.50873929039722
  H   4.47789513305557     -2.95563541932571     10.39895813942266
  H   2.82081966602919     -2.36584964313960     10.62988935277339
  N   5.23548176328431     -0.41921657876293      9.36315490694767
  C   4.47158930811262     -0.82391774394360      8.18461347314085
  H   5.13820614523845     -1.00740888098525      7.32829843672963
  H   3.78934416600014     -0.00791967985858      7.89129552676967
  H   2.56059104343030     -1.91829830888421      8.28462499914868
  C   5.20672673263670     -0.88247714621469     11.81854949792123
  H   3.60183995543324     -0.05320780111346     10.61741163248321
  N   5.58917925484644      0.30653890999769     12.37810062646981
  C   6.27097768510862      0.29400389361463     13.66270890528513
  H   6.37039330268840     -0.74449223121553     13.99902782036025
  H   5.69816230261497      0.86857060194620     14.41252361949834
  H   7.27522063548230      0.74622646206472     13.57950426801617
  C   5.31234929855383      1.61444251518153     11.80283848121622
  H   4.41176996137294      2.08178152883291     12.24478704799356
  H   5.20069055370847      1.54122747283870     10.71399123348646
  H   6.16607030085694      2.28193225580574     12.00369041867967
  O   5.48258733598354     -1.96787647867226     12.31371344491810
  H   6.10848613685223     -0.94822105162419      9.40125482654919
