50
Coordinates from ORCA-job 4039_0.0
  C   5.16738496249848      7.70247242614400      5.89401588431234
  N   6.15038472870013      6.96631616747333      6.70768036325254
  C   4.84887938585766      6.32928533383125      5.17543301631325
  C   5.92269546191869      5.74099309438879      6.10278735715246
  O   6.40050881544321      4.64658610024486      6.28425375505351
  C   6.87084550105521      7.34365731896479      7.85145418171649
  C   5.04341232260073      6.17552036610339      3.67512505820876
  H   3.85367867856024      5.95663359262602      5.47331415128065
  H   6.02845796469822      6.54145663920958      3.34944518498140
  H   4.27518526704048      6.73169362940924      3.11468301824714
  H   4.96581754246900      5.11190083437963      3.39909257025875
  H   4.31589196393160      8.05105794039988      6.50511525350834
  C   5.68607121057213      8.84734069880352      5.05553036563450
  C   4.78477939440161      9.83827670150640      4.62272658660436
  C   7.01883699607528      8.94271561187307      4.65256216770490
  C   5.18928470756175     10.89081796632175      3.80332255589306
  C   7.44370161932374      9.99913345127620      3.83286918180162
  C   6.54636455450886     10.97775173756760      3.39604137027279
  H   3.73547044999992      9.79263630905576      4.93667390887492
  H   7.74540423145500      8.19889139045011      4.98593356983880
  H   8.49291932114265     10.05235215229351      3.54065835475670
  O   6.85827012405920     12.03368550739609      2.60646730830084
  C   8.18996136633338     12.19599161411991      2.17741472654539
  H   8.88490658786244     12.32034563070381      3.02851258132184
  H   8.21237083633871     13.10715989003067      1.56398106811169
  H   8.53288258383964     11.34280673596450      1.56306401716985
  O   4.34826530080953     11.86216685639791      3.36782796425602
  H   3.46417277898578     11.69574647754872      3.72036869848066
  C   7.66919404229342      6.38836661196893      8.51112088451418
  C   8.35951909363646      6.76223069566130      9.66523575223814
  C   8.28985371085556      8.08659458370858     10.17463518865126
  C   7.49349469456716      9.02752716212705      9.49212858921496
  C   6.78354264404628      8.64769223338818      8.33753821896817
  H   7.71009377223509      5.37566854005947      8.11838540763968
  H   6.18740994010734      9.41068261154296      7.83809941921390
  O   9.11335231774456      5.89769102961149     10.39466450897515
  O   8.89953814654561      8.41805150671911     11.35727518836699
  O   7.28678932817551     10.31199880145250      9.88094716009205
  C   9.19416911954406      4.54692074961348      9.99068666202277
  H   9.82897412224983      4.03910861370092     10.72972006288382
  H   9.65127680080315      4.44301229218486      8.99037156382502
  H   8.20070071596132      4.06506034152984      9.97582778671061
  C   10.31915546767885      8.38733446232366     11.40084747247199
  H   10.61218953318693      8.77275515564801     12.38856738705846
  H   10.76020929660207      9.03509902198383     10.61965334228676
  H   10.70785016358387      7.36505679970508     11.28008747821895
  C   8.22981414627832     11.03984013248790     10.64728433589906
  H   7.93155825085759     12.09576856029660     10.56533997359802
  H   9.25254805919064     10.93134213996481     10.24461991550979
  H   8.22894197581256     10.73826577983654     11.70466948178618
