63
Coordinates from ORCA-job 4045_0.0
  C   2.88203603900021     -0.02126928211255      0.89032738593357
  C   3.51363264836642     -1.28642844258902      0.33234447440567
  S   2.22808870037965     -2.63826315059199      0.41737158010724
  C   0.78461986216319     -1.79886018950022     -0.17813903167144
  C   0.60984880280845     -0.41874943206536     -0.05863006572579
  C   1.61735177433807      0.37016253325983      0.64681219684973
  C   -0.59648588015790      0.19211924020703     -0.56853342681703
  C   -1.61780412263507     -0.64542091495927     -1.12578948492060
  C   -1.42376956283728     -2.05545273155705     -1.18045854763265
  C   -0.25373823299528     -2.62218672564769     -0.72192188392072
  C   -0.81926902453911      1.59725160811311     -0.55453221555614
  C   -1.98928897412012      2.14649438294229     -1.04440652767494
  C   -2.99928173635931      1.31438528539300     -1.57985536850489
  C   -2.81161179316783     -0.05248547769786     -1.62013931871521
  H   -2.21812624523940     -2.67183441204549     -1.60234844797386
  H   -0.04772639508818      2.26293605015218     -0.16520202722027
  H   -2.13114646214980      3.23020730463506     -1.02303068683296
  H   -3.92236742187807      1.75449179770336     -1.96628334187605
  H   -3.58421974466227     -0.70302069358268     -2.04033077366596
  O   0.01890984583997     -3.95286820711578     -0.73571826226441
  C   -0.94162406226038     -4.86001811625676     -1.23555977891475
  C   -0.34075869958067     -6.24918490476489     -1.11380908988626
  H   -1.18188312679267     -4.63979387819493     -2.29220153188599
  H   -1.88158944427628     -4.80074261262872     -0.65621036646437
  O   -1.32662440270777     -7.15894665297564     -1.60795426462992
  H   -0.09345170161648     -6.48093857587110     -0.06544535939045
  H   0.58896335983890     -6.33304732504949     -1.69841766511063
  C   -0.99091929012370     -8.47027054664618     -1.61705816514378
  C   -2.11896478085060     -9.31350295945361     -2.15904880211344
  H   -3.02306860446070     -9.17138523781277     -1.54663138014965
  H   -1.82331353567677    -10.36946689785694     -2.15374291743593
  H   -2.36722101298593     -8.99620009991633     -3.18394365114651
  O   0.07619132360101     -8.87656204616855     -1.23485899089382
  H   1.30610682852955      1.34019113000019      1.03946587192153
  H   3.53710700790596      0.63588547489943      1.47000661729333
  C   4.63756796206832     -1.82249330036912      1.23747456486493
  C   4.55291948173323     -1.68085240837765      2.63384640663985
  H   3.69248873521538     -1.17253241484152      3.07458738166644
  C   5.54539455221088     -2.19805734653508      3.46937122081157
  H   5.46043666866039     -2.07117504704717      4.55209451718240
  C   6.63853626714063     -2.87959045254676      2.92520434507209
  H   7.41557476308802     -3.28597264943510      3.57820431110680
  C   6.72595169566860     -3.04063073319407      1.54033546371146
  H   7.57193157440876     -3.57754051477503      1.10271478939227
  C   5.73509572289115     -2.51658243976691      0.70398458147803
  H   5.81893684920254     -2.65001057994887     -0.37593626510394
  C   4.01030118831733     -1.00912927932988     -1.10165112936742
  C   4.87775635845764      0.08089420467716     -1.31036320224255
  H   5.19150685637922      0.70056792503569     -0.46689201892466
  C   5.35771462076997      0.38597769612348     -2.57896616892787
  H   6.03118087564076      1.23055505081202     -2.73968777633694
  C   4.97921445424352     -0.39464760589317     -3.68094246961107
  C   4.12356945386407     -1.48492096211013     -3.50268169937755
  H   3.82738138884362     -2.09708235785833     -4.34980745169298
  C   3.65145098013539     -1.77536441335759     -2.21446335892751
  H   2.98610023193673     -2.62990791415659     -2.08140224492285
  O   5.52246753500777      0.03186715287438     -4.88491579935907
  C   5.36567714859647     -0.56562763838543     -6.09699614602273
  C   6.12407336966031      0.21332483195327     -7.14437325487900
  H   5.73662733689630      1.24282382726675     -7.19967029457575
  H   6.01490518600937     -0.28149446281240     -8.11689214493002
  H   7.18816378054214      0.28026926996584     -6.86947222668183
  O   4.71981302680145     -1.55942273221218     -6.30066068241464
