24
Coordinates from ORCA-job 4046_0.0
  S   4.67274735851179     -4.78730056136627     11.14763667990954
  S   4.90128208897438     -2.93750191559259     10.31169440440117
  C   2.84150039852511     -5.04350004842746     11.14221688714517
  C   4.72118331133647     -1.79663604232041     11.75237129679860
  N   4.89845556909872     -0.50683349886330     11.37872871174419
  C   4.75279494281436      0.54034071496462     12.38889101370355
  H   3.74341955370973      0.51841918772767     12.83091602969029
  H   4.92982484359654      1.51679589387568     11.91918602281349
  H   5.46908563711098      0.38883604460126     13.21192679613483
  C   5.17891963466250     -0.12374561115321      9.99489799509966
  H   5.32565951876416      0.96212252364206      9.94684950471451
  H   4.34633948865036     -0.39210848138887      9.32214995060245
  H   6.09629489080158     -0.60858060748426      9.62112223146133
  N   2.47492690090635     -6.00419661926732     12.02369525930848
  C   1.11178009131996     -6.52737094784659     11.98457239870613
  H   0.40890472769807     -5.85035162882785     12.50143885226332
  H   1.09423151529291     -7.51220065412797     12.47349026457951
  H   0.77607730481963     -6.62067200707530     10.94305452440379
  C   3.31758234977874     -6.48959734247076     13.11731700391813
  H   4.07307654574196     -5.73815828372545     13.38019177689737
  H   3.82125416722652     -7.43914570500594     12.86128327054598
  H   2.68710408756575     -6.66206886393031     14.00269211719699
  S   1.82691804959111     -4.25731608158254     10.10638732569963
  S   4.36740702350218     -2.29209946435477     13.28850968226158
