76
Coordinates from ORCA-job 4056_0.0
  C   1.01792563629992      5.51265350708301     -1.65036063716922
  C   2.13569398145114      4.89500190532929     -2.46297286396375
  C   0.39953174521085      6.72650933653672     -1.98792606678259
  C   -0.67708642306125      7.21409209009786     -1.24034032011847
  C   -1.15703048201605      6.49814042574505     -0.14177424632758
  C   0.51970339022564      4.79761558806186     -0.54522020929463
  C   -0.55340106842653      5.28516703437520      0.20260363553725
  H   0.97688955080177      3.84859441526126     -0.26084729645461
  H   -0.91856337694163      4.71283266879400      1.05951169619235
  C   3.02853810345696      5.78196981692600     -3.42624205551866
  C   4.26953250010685      4.89803278108836     -3.72687772848965
  C   4.06944572553500      3.58709781450392     -2.85018159804073
  C   2.85486946128458      2.88391299585804     -3.49736616424072
  C   1.74491785837951      3.64404152473342     -3.28273776793992
  C   5.47626023224931      5.73957394292219     -3.32584622914461
  N   5.00634879572376      6.93181826152732     -2.73339983661207
  C   3.60901396882500      7.07451013903161     -2.83484032246225
  C   5.88203944410761      7.93269371181296     -2.21331754024342
  C   5.66408893762224      9.29053475459397     -2.49135174450998
  O   3.00657436293490      8.07819812745923     -2.54823017653228
  O   6.63739038392509      5.47261633804215     -3.49523779978811
  C   3.29351030265857      4.22311400905392     -1.66644307014860
  C   6.53726054417021     10.25088548829465     -1.98588939452435
  C   7.64155743573135      9.86721976948081     -1.20339526913321
  C   7.85196497574259      8.50327997800189     -0.92687793127310
  C   6.97609222884279      7.54355733020726     -1.42496241123078
  H   7.14708652911801      6.48918425297713     -1.21015822955029
  H   8.70445357007896      8.19931888409709     -0.31658632875241
  H   6.36786011308610     11.30761894261191     -2.20139667013386
  H   4.80870648017528      9.59612127977029     -3.09098321125036
  C   8.54918901449400     10.85743249651163     -0.69368612224435
  N   9.28588858678358     11.65574915323540     -0.28286365502713
  H   0.76730517194802      7.31775415892867     -2.82557121079404
  H   -1.13911694209435      8.16418582392082     -1.52117111913088
  H   -1.99694673192035      6.88236691199954      0.44311899299003
  C   5.30084783447609      2.74456027528652     -2.58975703044375
  C   5.57653300575251      2.21180457313002     -1.31859459662282
  C   6.68942791726453      1.38702569088553     -1.11789577740070
  C   7.54182081387837      1.07797096450938     -2.17977703189785
  C   7.27673648813527      1.60330874861437     -3.44851191162306
  C   6.16913963990409      2.42737659668592     -3.64897972621515
  H   4.92842410535019      2.45279410092580     -0.47706700517914
  H   6.88799901079997      0.98723794147621     -0.11976987185620
  H   8.41141823349900      0.43464304425889     -2.02060064015199
  H   7.93772179307522      1.37332113979402     -4.28814373719237
  H   5.98355299265079      2.82800550571423     -4.64709789128557
  C   2.96026399529496      1.66370738186617     -4.33352056312057
  C   3.43985389106918      0.44754602631091     -3.80999438352874
  C   2.57873073079291      1.70658429381460     -5.68839403533167
  C   2.67060958060289      0.56905663503474     -6.49425169858056
  C   3.13982191127607     -0.63419842548548     -5.95949651726862
  C   3.52146675011905     -0.69058983498264     -4.61501891591455
  H   3.74314879095809      0.39132996742376     -2.76317908829704
  H   2.20562441490990      2.64221283600605     -6.11178899686937
  H   2.37309191468825      0.62434578371904     -7.54481394465762
  H   3.20924815316497     -1.52545988971983     -6.58878519498595
  H   3.88938700000950     -1.62727320330348     -4.18795619989523
  C   0.36965873993052      3.36286276558507     -3.74962656778792
  C   -0.19660656737574      2.08431185960332     -3.58657875928713
  C   -0.40702410143605      4.35800012650165     -4.37835583475900
  C   -1.68744219897343      4.07708311446381     -4.84351829403982
  C   -2.24708085233539      2.79775958057532     -4.68426127644415
  C   -1.48439428634172      1.80664809319779     -4.04383070506887
  H   0.37953646972877      1.30269949860946     -3.08828354205291
  H   -0.00103130052699      5.36178727110073     -4.51396464196934
  H   -2.28694834806768      4.84235977979324     -5.34071933472265
  H   -1.89056211303575      0.80435613698858     -3.89358154703625
  H   4.37845354368634      4.62505604831348     -4.78518287636200
  H   2.46031790258109      6.05779740974292     -4.32571159236932
  C   -3.63665576392009      2.56086475191834     -5.21012491960435
  C   -4.26053824808613      1.18827922090880     -5.03028805740565
  H   -3.64979656059007      0.40816004323820     -5.51366637561366
  H   -5.26309620942015      1.19567856314376     -5.47683097497043
  H   -4.33803801404436      0.92716986732786     -3.96191398615847
  O   -4.24453051204303      3.45382181287101     -5.76853674487523
  O   3.50202544608813      4.21706824527677     -0.48846830904684
