20
Coordinates from ORCA-job 4059_0.0
  C   2.31755208572475      1.54036438887695     -0.90385772846492
  C   2.65783068139479      2.80773467844822     -1.72514527427471
  H   1.38943098076034      1.09879614716253     -1.29203339444782
  H   2.17899480503099      1.82129178309768      0.14998358946405
  H   3.13569972139760      0.81101314310481     -0.98097540111117
  N   1.44179696060607      3.68869585742480     -1.66054283908054
  N   1.63860220389944      4.78479125591700     -1.15137941450787
  C   0.42273078405982      5.66565637225842     -1.10456172167218
  C   0.68590993856334      6.81812016638352     -2.10589778260958
  H   1.63959756054422      7.30317149027524     -1.85544865279487
  H   -0.12764078048953      7.55463227540380     -2.05164843864898
  H   0.73717106675153      6.40477924631560     -3.12330303841769
  C   -0.83621609298653      4.95797192937594     -1.43228801999150
  C   0.34672960890703      6.18500281748203      0.27888857760391
  N   -1.83444329838538      4.43398892936593     -1.69323396788061
  N   0.29094873522009      6.61203960421477      1.35287453149899
  C   2.83284707246675      2.47374979150535     -3.15613062276488
  C   3.89017466061725      3.45255505279475     -1.21678798763603
  N   4.86875643949244      3.92140001623196     -0.81475017092692
  N   2.95756686642495      2.19770505436062     -4.27305224333666
