44
Coordinates from ORCA-job 4061-_0.0
  C   5.77457664451779     -0.66912191270916      7.67190556621706
  C   6.28719443088045     -0.20918355815850      6.37670166588110
  C   6.20235924157203     -0.78601574264548      5.15293049506252
  C   5.43625664669172     -1.97722036261827      4.80820126287200
  C   4.62426725995569     -1.23853679255692      8.09627373033211
  C   3.27576981258265     -1.48165435411263      7.45038704839620
  C   3.24795138731469     -1.27037709776878      5.90331293236421
  C   2.23413349523934     -0.63563917919854      8.18708130595290
  H   3.01100051142564     -2.53654275331033      7.64043644810642
  C   4.16965466457644     -2.23236418834840      5.18662561472057
  C   1.83975057108937     -1.36538380733680      5.32388396567110
  H   3.61572556809250     -0.24869683952858      5.71922516505434
  H   6.96858684641556      0.64750146593737      6.45794302020760
  H   6.83188760055806     -0.36331805603284      4.35978703211324
  H   6.50590791024578     -0.49730276313279      8.47425668259143
  H   4.60183122143846     -1.47362474767663      9.16768270612624
  H   3.72716353291921     -3.18789913386861      4.88419195833434
  H   5.94027948244275     -2.70948903703598      4.16436665128566
  C   2.36907922384126      0.75816421142954      8.28220632433420
  C   1.11953578459724     -1.22593740534217      8.79958208420939
  C   0.17194893342207     -0.45381194935535      9.47621317436410
  C   0.29873189447044      0.94109872355591      9.56168165211968
  C   1.41810215977204      1.53050356785107      8.95236448747148
  H   3.24057775172982      1.24761507670548      7.83852121099574
  H   0.98872942183381     -2.31076398063281      8.74696942535012
  H   -0.68402407354387     -0.94717523977079      9.94726883588167
  H   1.55270902890296      2.61515400920547      9.01063754052820
  C   -0.74442205143897      1.77803324727444     10.26301036523001
  H   -1.16849604786635      1.25190528522307     11.13302866249830
  H   -1.58525922185504      2.01496855942492      9.58670033700475
  H   -0.32852987027219      2.73558312965166     10.61295856112971
  C   1.09107300410032     -2.55119018973097      5.39088024338613
  C   1.25437180841053     -0.26643683977732      4.67895750664437
  C   -0.02747547821100     -0.34535334040378      4.12920992157303
  C   -0.77875248675737     -1.52819807929321      4.20242971551589
  C   -0.19083990255271     -2.63059076890400      4.84198605559770
  H   1.51159526889859     -3.43697171251347      5.87674208819624
  H   1.81374085429430      0.67069104743343      4.60370932334940
  H   -0.45137416413618      0.53210718929545      3.63073201752256
  H   -0.74582470554732     -3.57156640580273      4.90899807848280
  C   -2.17617950483784     -1.60212206319576      3.63516853241888
  H   -2.26448793673123     -1.02647484233986      2.69999828881015
  H   -2.91602019789623     -1.18558650733178      4.34197684686606
  H   -2.47419632058527     -2.64100586255453      3.42541546923015
