42
Coordinates from ORCA-job 4062_0.0
  C   5.73026709887047     -0.66128353650136      7.75164255848140
  N   6.21109214144084     -1.80011609005586      7.11908054932098
  C   5.61573710486038     -2.55487383254379      6.12001047517516
  C   4.53756612553897     -0.04427091399934      7.62842612580381
  C   3.34730729767195     -0.40476999461476      6.77347221139702
  C   3.76057441529538     -0.95946051104394      5.34573165958716
  C   2.33546885233922     -1.28529735870245      7.50419767956175
  H   2.82254701743131      0.54243256485173      6.56425818092631
  C   4.53272957544227     -2.25854887916978      5.37442781885430
  C   2.56882605280959     -1.00831822808486      4.39822463683907
  H   4.43253785147907     -0.17792482476264      4.95093735548674
  H   6.45886089908919     -0.24237681396949      8.45286700632231
  H   4.41432309719458      0.84690474190204      8.25079199406784
  H   4.23233363884331     -3.02801914135160      4.66000102108551
  C   2.71526520903095     -2.42506321659709      8.22955880882573
  C   0.96588824058449     -0.97215173882058      7.46255662099391
  C   0.01689083598808     -1.76808013507686      8.10531333911671
  C   0.39581391397173     -2.91550325025003      8.82110668270545
  C   1.76297699414948     -3.22438156529928      8.86994719010039
  H   3.77104200423242     -2.68809892525431      8.31058888679850
  H   0.63639673354043     -0.08690883950725      6.91077493843058
  H   -1.04091321634822     -1.49148172912257      8.04927836040630
  H   2.09378606284199     -4.10563642862557      9.42873953429939
  C   -0.63555296677761     -3.77065923383421      9.51797749754581
  H   -1.38510007784934     -4.15823711699098      8.80677630593295
  H   -1.18776728547368     -3.19517142336498     10.28087144799851
  H   -0.17354033928016     -4.63406147194083     10.02038217570165
  C   1.69092882737827     -2.10171690958844      4.34528806820840
  C   2.29900780569166      0.08007738436061      3.55248114585013
  C   1.20126803450045      0.07779847714574      2.68998854907687
  C   0.32265533800915     -1.01650073465256      2.63747351878479
  C   0.59293236538023     -2.10495185850382      3.47985913659840
  H   1.86239654950289     -2.96549076957967      4.99192089919940
  H   2.96984044694129      0.94528940411398      3.56304551746381
  H   1.02849603180585      0.94033350783130      2.03830614220010
  H   -0.07037980666944     -2.97534222230218      3.46173394249199
  C   -0.87589185364972     -1.00788577895680      1.71861394438534
  H   -0.61745317423853     -0.62096165922280      0.71932944256004
  H   -1.67937521692770     -0.36173791867423      2.11501298871274
  H   -1.29784606851013     -2.01682070733907      1.59341044702587
  H   7.09892027342827     -2.14376142093167      7.45878345796338
  H   6.12341317044027     -3.51038090096971      5.95525173771333
