42
Coordinates from ORCA-job 4062_0.0
  C   6.07302601553390     -1.02266474036587      7.68699017612743
  N   6.78914310987433     -1.36255301157322      6.55395770640271
  C   6.30957443682915     -1.57292231128961      5.27418529096949
  C   4.74007003383706     -0.91632570977980      7.86347282167219
  C   3.59158323374643     -1.18120617793818      6.91340366002324
  C   3.85230423548919     -0.73444230572837      5.41620581677557
  C   2.31739918380164     -0.54238461153731      7.45827324904041
  H   3.41434727250657     -2.26995895652043      6.86901792384907
  C   5.07698184908632     -1.35027693169227      4.77391854805550
  C   2.62545890291440     -1.00001177441944      4.54934017133708
  H   3.99009282007731      0.36022928530049      5.45634090165417
  H   6.72185659642106     -0.82674621975400      8.54637865193453
  H   4.44361814508772     -0.62293985144469      8.87377434293247
  H   4.96341031310965     -1.61826486627987      3.72044811821237
  C   2.28051027691777      0.82066255918546      7.78782730887008
  C   1.14344281140959     -1.28754295215874      7.64213355872468
  C   -0.02018877525628     -0.69459046455867      8.13588906249616
  C   -0.05945103556756      0.67059186550661      8.46296011587269
  C   1.11464607208855      1.41578104612706      8.27829194673930
  H   3.18241695392576      1.42880052635300      7.66725263776561
  H   1.13934890376843     -2.35208689667208      7.39060778925305
  H   -0.91825540982937     -1.30623864918661      8.26948796560727
  H   1.11887911718081      2.48196434806483      8.52581704234514
  C   -1.32268636588987      1.30343375351195      8.99667616941392
  H   -1.64230198314362      0.83041256645387      9.94110527054912
  H   -2.15934907955528      1.19364457840326      8.28562700354939
  H   -1.18672379686776      2.37823511033816      9.19053432410970
  C   2.28122966305445     -2.30616904411953      4.16900344184600
  C   1.79997844908012      0.04365628766081      4.10753916939664
  C   0.67430358042024     -0.20737606048925      3.31963963694998
  C   0.32477973803599     -1.51413828679768      2.94457634356382
  C   1.15317587077898     -2.55830719570879      3.38385109723011
  H   2.91263781138965     -3.14320920236921      4.48283435535201
  H   2.04174983868183      1.07341153369166      4.38625462979163
  H   0.05437345407074      0.63185609799758      2.98845903433110
  H   0.91421151307525     -3.58882468971505      3.10265032733329
  C   -0.90858639997184     -1.78263921143781      2.11567880266078
  H   -1.00993376356831     -1.05680971641682      1.29230951443103
  H   -1.82570861754979     -1.70511104540141      2.72645374465676
  H   -0.89059789239314     -2.79227658360373      1.67727876680762
  H   7.78341408013767     -1.49137815306950      6.68139990714358
  H   7.07473883726221     -1.97257393856677      4.60131365422312
