47
Coordinates from ORCA-job 4063_0.0
  C   5.90433979901013     -1.04735562389713      7.49895289267887
  C   6.43176718437664     -1.45921383903120      6.14675379241650
  C   5.79669405010670     -1.39632445096297      4.90923426433246
  N   4.53014594867584     -0.57623253959553      7.53060752314108
  C   3.60736066236029     -1.40095324537595      6.76170653959950
  C   3.34823272243350     -0.85248436046377      5.34711457893172
  C   4.48543275679196     -0.86895574836704      4.48754613320386
  H   4.12281644339010     -2.35988981365207      6.58773398377760
  C   2.38966774280676     -1.88831353368237      7.55756447052405
  H   6.54322595093801     -0.25543961239722      7.92654427926139
  H   6.01973422090019     -1.91216081561976      8.18532797519304
  C   7.73365408732686     -2.03671802343271      5.92546993266252
  N   6.67249730650239     -1.89674976545616      3.94451228796518
  C   7.84297459657670     -2.30951450464134      4.53248402542366
  C   8.81709569216387     -2.35125755463708      6.77102894051733
  C   9.95573226708941     -2.93318707773039      6.22120089587711
  C   10.03802192641782     -3.20671513828821      4.83764092197206
  C   8.98686968663853     -2.89965556358713      3.97643875025910
  H   8.76600307905271     -2.14577598882762      7.84372174230211
  H   10.80143878622778     -3.18464072407505      6.86658033025253
  H   10.94467937930804     -3.66579506847091      4.43457573314954
  H   9.05477393069267     -3.10913007170451      2.90555618860657
  C   4.37504732246742     -0.35685921208811      3.17958836707877
  C   2.13253464682225     -0.28554858581203      4.88576956694863
  C   2.06849870970445      0.19849964594757      3.56767348704136
  C   3.17105044147381      0.15920022085152      2.71742672051041
  H   5.25463016156984     -0.32724541832069      2.53258265372713
  H   1.13733862774700      0.62915197803014      3.19905115154246
  H   3.09675526062397      0.55673758133354      1.70178281372966
  C   0.89160821611928     -0.18424641165657      5.76500573738340
  C   -0.22175378632194      0.74789743050327      5.28007998370392
  H   1.19608939940824      0.14312511844858      6.77090363417599
  H   0.47436297263550     -1.19540721170112      5.90106060709554
  H   0.14164784865567      1.77515855700778      5.11340008511785
  H   -1.02310972916350      0.79588533945535      6.03442619269530
  H   -0.68390252912231      0.39834387346455      4.34331084241520
  O   2.16202328070629     -1.19302571845513      8.68336285022754
  C   1.08805940946527     -1.65601597960314      9.50191944590633
  H   1.08045475493474     -1.01157762024472     10.39009783990582
  H   1.24207700854911     -2.70653126606241      9.79151839900532
  H   0.12720941626635     -1.58211895005034      8.96847098130682
  O   1.73158984499866     -2.84650208247979      7.22767745605130
  C   4.33153203091810      0.85919166526716      7.49047924086801
  H   3.27721537816701      1.09479599160496      7.69995682723164
  H   4.60565633411717      1.34048213340799      6.52743251950503
  H   4.92905095455816      1.33266068502060      8.28627634788331
  H   6.40459580491215     -2.09454869997274      2.99015006689499
