49
Coordinates from ORCA-job 4065_0.0
  C   10.88728438217993     -3.35313462155210      7.23564304632527
  C   11.35615221256505     -3.39222766448479      5.92559705910290
  C   10.46133865234387     -2.94448142391582      4.93660992102933
  C   9.60529224578843     -2.89905665939904      7.55095826997347
  C   8.70714803546411     -2.45763609653310      6.58552600003918
  C   9.17129071700881     -2.48950501052649      5.25820969776996
  H   12.35274584484183     -3.75238362515231      5.65530676357953
  H   10.77344047596687     -2.95192286717974      3.88816092041656
  H   7.70456554459712     -2.10620969009385      6.83839713633175
  H   8.51436138178702     -2.15205510637104      4.45116719853486
  C   11.24307743808052     -3.64750859840127      8.69176004515003
  C   9.78835589292483     -3.11912183855438      9.04790592230658
  C   12.41865686214379     -2.88548447215001      9.32850191947581
  H   11.35595407173607     -4.72689858428234      8.89842183102837
  C   8.86746655929595     -4.10842575886482      9.75533804442507
  H   9.82154829437046     -2.17351115171473      9.61649182501908
  C   7.45083238051921     -3.59834054815263      9.92946108117851
  H   9.25819716061128     -4.37734295371917     10.75149846373909
  H   8.80673282079501     -5.05677882549271      9.19111795020492
  O   6.74392980347728     -4.39801322725087     10.75047087301663
  C   5.37912531843167     -4.03700326269981     10.96729162975067
  H   5.30522459086955     -3.03264778754848     11.41217346557405
  H   4.96853695087119     -4.78829337304960     11.65365235061640
  H   4.81763792668503     -4.03792957519649     10.02016561276315
  C   13.76001274931477     -3.29907016199017      8.79794139528912
  H   12.38862577566372     -3.02931929528440     10.42276571001403
  H   12.26627706449301     -1.80536274641409      9.14180986203133
  C   14.73644920954643     -3.88642819159016      9.52090532745502
  C   16.02810591809903     -4.28701081498664      8.99631513005194
  C   17.00294373269750     -4.85791817511139      9.74341935517488
  C   18.33364122813995     -5.28856051983518      9.30755400117957
  H   13.94121522949983     -3.10633488081439      7.73216584188882
  H   14.56195681673030     -4.07693434599553     10.58851904782806
  H   16.19633211988735     -4.09976458779412      7.92929420639792
  H   16.79168253418784     -5.02162922153621     10.80756828306133
  C   18.79138452230281     -5.18622102923598      7.97484420869799
  C   19.22457174725940     -5.83520206076173     10.25159007431845
  C   20.50588116032506     -6.25482651207052      9.88897034857566
  C   20.95708129378887     -6.14928398265219      8.56598935491779
  C   20.06836243758397     -5.60651005187536      7.61784195699612
  H   18.13654508721197     -4.77200368060819      7.20445729129774
  H   18.90280811784295     -5.93069544418645     11.29298186605446
  H   21.16958602331122     -6.67260895976666     10.65196634753624
  H   20.38912385487852     -5.51254297729969      6.57543969567663
  C   22.34080094916444     -6.59447628544453      8.16135361016824
  H   22.89327844674420     -7.02341163440854      9.01082663565075
  H   22.93409954661494     -5.75162908902618      7.76639800796662
  H   22.30139717329206     -7.35733361289405      7.36498620525279
  O   6.98631169806433     -2.61411901613185      9.40546920916696
