55
Coordinates from ORCA-job 4068_0.0
  C   -0.47993249866380     -3.67646440526292     11.91080681562445
  C   -1.03194588946192     -4.30183438037423     10.78690605951714
  C   -0.45126050942790     -4.14095791736536      9.52018112776721
  C   0.69340027736757     -3.33995326742254      9.42311031831655
  C   0.65784373793877     -2.88009260046944     11.80262962908184
  C   1.27018137775953     -2.69812463379151     10.54188472651399
  H   1.16073590496279     -3.20532800460029      8.44196785461205
  H   -0.94757638402632     -3.81353787239774     12.88964055195649
  H   -1.92630570482728     -4.92298100346511     10.89471698049122
  H   1.08237710417770     -2.39378033910321     12.67889867136848
  C   -1.03468814538988     -4.80150948480325      8.29317222628130
  H   -1.90677244185763     -5.42295714940475      8.54543744631506
  H   -0.29387421473163     -5.44821590344045      7.79359311076131
  H   -1.36007019455841     -4.05229440661183      7.55146112293799
  C   2.46933505796741     -1.89457723534023     10.27983955084069
  C   3.32094675569396     -1.13674046487061     11.01846852886626
  H   2.74331310943184     -1.91739547992974      9.21788566577032
  C   3.34397006816044     -0.82289579752665     12.46043395744533
  H   4.14441518473932     -0.66549807402048     10.47613380304283
  O   4.41910874084798     -0.03913478811171     12.73301495401241
  C   4.58338184842691      0.36145875367258     14.09761162156097
  C   5.86269738672022      1.15219835250437     14.17652212518664
  H   4.60874420513689     -0.52409040722197     14.74963181387979
  H   3.71836268683628      0.96988682153187     14.41064356751616
  C   7.21670024303894      0.46377909491698     14.26087110067591
  C   6.68498445509743      1.24000895241484     15.43427805161789
  H   5.84585933065757      2.08535212278610     13.60178036418653
  Cl  6.18671629759978      0.33450083862968     16.88155448950645
  Cl  7.39770322207795      2.81398205670777     15.84739288410826
  C   8.37983243178078      0.92995417707261     13.42955247693592
  H   7.18121952756199     -0.62184282994917     14.40602733807383
  O   9.58037851028637      0.49016518236733     14.07051010811460
  H   8.39400656444399      2.02570874819725     13.32509624697461
  H   8.32281205117981      0.50250545481246     12.41459044719340
  C   10.74150248291261      0.79397616667946     13.44256887250282
  C   11.90206240073356      0.29965724096150     14.21352624197944
  C   13.15514537490051      0.48626920092766     13.75145145519971
  H   11.68146145618156     -0.21164818160637     15.15297990422405
  C   14.41465945696347      0.07055056795410     14.37400179310566
  H   13.24188315605586      1.01149167685270     12.79317336542178
  C   14.47737300035386     -0.58602542468633     15.62198369954283
  C   15.61999360233452      0.33917643230624     13.69916877160729
  C   16.86883544075620     -0.02622450833645     14.22429330579138
  C   18.13808159686894      0.26583828409523     13.45992501241397
  H   18.20300019211590     -0.34947356557164     12.54599008810470
  H   19.03240500771208      0.05734987959886     14.06583649613715
  H   18.18160075900489      1.32020541856730     13.14115523658234
  C   16.89538801359083     -0.67492602786949     15.46688289583191
  C   15.70796724072934     -0.95173083406346     16.15792506486793
  H   15.75039861860169     -1.45732052734652     17.12640218331260
  H   13.56054091148913     -0.80557110351677     16.17323130551025
  H   15.57612660110050      0.85090151359490     12.73234436198561
  H   17.85549747790711     -0.96691147457634     15.90246137470872
  O   2.57148498162972     -1.16484905362164     13.33140348757670
  O   10.78150213110991      1.39163020952650     12.38954934653860
