55
Coordinates from ORCA-job 4068-2_0.0
  C   0.94915943707738     -5.19132441261168     11.49743110263045
  C   -0.24380365979941     -5.26378398052502     10.76913392137683
  C   -0.69209524717489     -4.16728551508755     10.01772053522379
  C   0.09173851877780     -3.00675256615136     10.02350360555098
  C   1.72256402762169     -4.03269776410994     11.49399361703584
  C   1.30101932058715     -2.90899394876429     10.74760223470012
  H   -0.24383061068759     -2.14072318272301      9.44332194666798
  H   1.28184812802512     -6.05628969913945     12.07779788315458
  H   -0.83518165177457     -6.18429496985664     10.78447069928313
  H   2.65206753990090     -3.98164937677234     12.05794516233712
  C   -1.98008809581907     -4.22266888223598      9.22992765212027
  H   -2.44253156352788     -5.21964845998160      9.28181291221610
  H   -1.81215551189052     -3.98441371203766      8.16622253227333
  H   -2.71493834926195     -3.49287687241620      9.61072820626639
  C   2.00950839004075     -1.62725167662980     10.65542621740033
  C   3.17621191262666     -1.11795105160863     11.12849162264867
  H   1.45170302019432     -0.90334961630763     10.04857538197299
  C   4.23748347470926     -1.72317190717991     11.95756406090196
  H   3.40100384283964     -0.08438904397730     10.85382948273019
  O   5.23523870096192     -0.82187618444920     12.13786656747155
  C   6.35249431021457     -1.25741447541724     12.91791847299551
  C   7.26762212547909     -0.07305105720736     13.08492822751951
  H   6.87533170327735     -2.07447687586313     12.39332089582221
  H   5.99817518243808     -1.66151499597381     13.87661064724242
  C   8.35595259151461     -0.02369044353149     14.15286036130070
  C   7.16107982045662      0.89081575686647     14.23482766025173
  H   7.53124678468129      0.40110759623898     12.13386750078823
  Cl  5.93197186593781      0.63203396757607     15.49250738760910
  Cl  7.41919500765622      2.61728217841858     13.90238404198189
  C   8.58976783362508     -1.14230426416150     15.13732373409799
  H   9.27525749973995      0.48017694508184     13.83746657079245
  O   9.22490289156770     -2.21172715548978     14.42459302070103
  H   7.65848737236173     -1.50163531055370     15.59765687175074
  H   9.24295503698584     -0.80710334640649     15.95924202332633
  C   9.57864225731720     -3.29509919979817     15.16152206240670
  C   10.21988465516171     -4.32213333360041     14.31426613385163
  C   10.63520552046028     -5.48635825287330     14.85389871407318
  H   10.33007210991525     -4.08320466349681     13.25436190941194
  C   11.28563079293999     -6.60979303220966     14.17526152142572
  H   10.46559477022594     -5.60611538768534     15.93027977470914
  C   11.57446927678078     -6.61201906357203     12.79367282262377
  C   11.63873946445507     -7.74161787578353     14.93367932521612
  C   12.26563298429194     -8.85894784697804     14.36184720513699
  C   12.64323210812746    -10.04676647370752     15.21459295282307
  H   13.47447773147664     -9.79783860822820     15.89679882374278
  H   12.96208166730484    -10.90182071579196     14.60014629841566
  H   11.79920402055400    -10.37512059001608     15.84279142930650
  C   12.53785064421617     -8.82843549161301     12.98682636734219
  C   12.19447702816582     -7.71270837876803     12.21133178264239
  H   12.41393984873337     -7.70945994490820     11.14028429483336
  H   11.31009426336157     -5.75084119946122     12.17631013855972
  H   11.41373087751231     -7.74528792154730     16.00502977423919
  H   13.02331652220828     -9.68721979006472     12.51400619240501
  O   4.29311729498326     -2.83661950101969     12.43740605209217
  O   9.37705451244510     -3.37032842588884     16.35292366459976
