42
Coordinates from ORCA-job 4069_0.0
  C   -2.43696798920916     -1.29609050002146     11.70473365417619
  C   -0.91965551425875     -1.49596819567207     11.84181812621321
  C   -1.72690064619042     -0.82246492604579     12.93530911850173
  C   -0.28125249306839     -2.85057861019443     12.06089174314847
  C   -3.46675442680576     -2.38804659404437     11.66193135228900
  Br  -1.47219474844233      1.10586938726472     13.12986239345546
  Cl  -1.95629838527349     -1.60947184656072     14.49322942960631
  H   -2.67212105589108     -0.47074513286094     11.02082379979075
  H   -0.31969493175633     -0.80151238704095     11.24746595630298
  C   -4.58203578789787     -2.35376330439788     12.51188207344466
  C   -5.59337060369857     -3.30928298239210     12.39805065234363
  C   -5.53241636268337     -4.32346314696680     11.42918628404098
  C   -6.64251060143758     -5.33801623215839     11.29557894338323
  H   -7.00979983472195     -5.66686460175428     12.28093544548992
  H   -6.31209821963600     -6.22924252141600     10.74045022717918
  H   -7.50698903155589     -4.91428864981445     10.75386447288385
  C   -4.41662878517243     -4.34689953583948     10.57828705612842
  C   -3.40065268116533     -3.39610965270961     10.69084575263338
  H   -2.54208812850751     -3.44455316962430     10.01619655451341
  H   -4.33717522321733     -5.12842512030714      9.81661997537595
  H   -4.65659405271759     -1.57778500658615     13.27695522084039
  H   -6.44892425200577     -3.26536576973906     13.07902449527166
  N   1.02926699516072     -2.89418142642129     11.62665599643951
  C   1.92901830993762     -3.98413791649832     11.82486168520482
  C   3.09511579520933     -3.73533790550462     12.56354493117163
  C   1.69213658641575     -5.25899284341073     11.25771376956759
  C   2.65471371893145     -6.25441690101310     11.49439601172465
  C   4.04245018338996     -4.73844930307649     12.76661735868975
  C   3.81305642787562     -6.00890355365482     12.23584485679318
  H   3.24788442832348     -2.74016194376775     12.99094212128259
  H   4.94559541361997     -4.52930580631740     13.34551933736389
  H   4.53862362167628     -6.81164075240142     12.39164376406685
  H   2.50183388249862     -7.24999262905240     11.07439026052386
  C   0.46269019393020     -5.52138070638632     10.41146621288682
  C   0.48445712788108     -6.78418778790591      9.54946568642168
  H   0.30237395174459     -4.63841427852780      9.76685077141985
  H   -0.41315443778209     -5.54114752535920     11.08150177176142
  H   1.35153283212160     -6.80794917150788      8.86867107568269
  H   -0.42636766250808     -6.83573454168032      8.93216036225173
  H   0.51128454005202     -7.70207791505336     10.15862017416172
  O   -0.85758583267769     -3.79747260143790     12.55483786079747
  H   1.46326767951253     -2.00320599214120     11.41096326477526
