44
Coordinates from ORCA-job 4070_0.0
  C   3.53194247663409     -2.08230817822594     -0.58704943113448
  C   2.61319602814733     -2.29256305992440     -1.62700320007835
  C   4.66286496099739     -2.91495963356782     -0.53669417139899
  C   4.87095116257358     -3.92216396820624     -1.48578969159764
  C   3.94603384351451     -4.10614973530717     -2.51286983925081
  C   2.81134588117043     -3.29051717844991     -2.58396384204912
  H   2.07989432673987     -3.43057855970146     -3.38371039842561
  H   4.10974401726422     -4.89204157255097     -3.25493451081175
  H   1.72690002459574     -1.65640079774018     -1.68546516909808
  H   5.76567439602712     -4.54162829348249     -1.39670216369513
  C   3.39017594739896     -0.93596799708943      0.41332255385180
  C   4.16537295656776     -1.23739968074274      1.70796054382199
  C   1.94504578425301     -0.55782336767208      0.72862581438511
  H   3.88117301970389     -0.06657003240984     -0.05007535977137
  C   5.26322159121381     -2.28436675082850      1.67996724087974
  C   5.59673383232890     -0.81386000013978      1.93921146090906
  C   5.38884300230392     -3.32774063883409      2.72936374306169
  H   3.55479830066736     -1.21659284544624      2.61358595035115
  S   6.83468131009130     -4.30824582134188      2.80497289356547
  C   6.24159862924643     -5.19451752713920      4.18448983969322
  C   4.99497530402355     -4.74304256331428      4.54808273974679
  C   4.50913206733639     -3.68508394584728      3.72186625022771
  H   3.53890722382501     -3.20588084345524      3.86243707220914
  H   4.43427851034239     -5.16442922490016      5.38500352160226
  C   7.05468407040601     -6.29099896811993      4.80491702750976
  H   7.25791671903204     -7.10702037897578      4.09072128881400
  H   6.51435145873608     -6.71985005200308      5.66212957137584
  H   8.02967091525875     -5.92510129976058      5.16873883152648
  C   1.07907652439491     -1.53534277439318      1.24699882482316
  C   -0.24161572637968     -1.23630445151243      1.58302730224924
  C   -0.71847805370983      0.06412980335888      1.39848196444992
  C   0.13263924423244      1.04266392539125      0.88329216307784
  C   1.46762655162937      0.75981854021024      0.54265043152488
  H   -1.75100782909828      0.31717072947383      1.65382533260515
  H   -0.24242257709683      2.06015467456368      0.73916513296982
  H   1.45015590322754     -2.55602015101150      1.37959262788488
  H   -0.89496242128895     -2.01603074845117      1.98336546258150
  C   2.34311297496344      1.86557186722712     -0.00588685699137
  H   1.78554584421195      2.81171490422465     -0.06519808137068
  H   2.71119920363581      1.63603146964472     -1.02018570729002
  H   3.23126536179471      2.04273404106680      0.62297497709511
  O   5.64304612624953     -2.74656558393625      0.41267012731378
  Br  6.09043561922922     -0.25705236449804      3.72311154542998
  Br  6.55414549360472      0.17207903381815      0.57732618742692
