50
Coordinates from ORCA-job 4073_0.0
  C   10.55881207433857      7.92209065239751      5.26635428584110
  C   11.93772978276738      7.82457817980559      5.83089001419559
  C   11.17679736158181      9.13035122481570      6.01926559540097
  C   9.34786522055039      7.16603620013187      5.72963187291357
  H   10.57182530524614      8.05573304916286      4.17524671302923
  C   11.48832515818781     10.28696519824208      5.09692843055744
  C   10.68801064459207      9.55352876557021      7.39907911121710
  C   8.15332163138008      7.84444236871616      5.99662831453208
  C   6.99850867813607      7.13256929981183      6.33500285686749
  C   6.97224656512050      5.72702652602261      6.42455304096698
  C   8.19335680654510      5.08094826095393      6.14135317344251
  C   9.35865197760297      5.76693629470210      5.79783156217823
  H   10.26696099278432      5.20262228752993      5.58648112725004
  H   8.10344642213265      8.93205654657654      5.93645030981981
  C   5.74304647541096      4.94009837331645      6.78986828662800
  H   4.88756065279365      5.59822087180823      6.97836845538378
  H   5.92660365185225      4.32961225846948      7.68880521366839
  H   5.47920550570544      4.23710262792508      5.98323480994744
  Cl  8.26764837423258      3.33206834612783      6.21828072664782
  Cl  5.54997012710084      8.07135592402941      6.64873374819082
  Br  13.43764101020134      7.72513278268924      4.58509425559297
  Br  12.29006455531705      6.71093942659652      7.38293516679743
  O   11.30323816086588     11.44039288206177      5.39334219958150
  H   11.86558876021726     10.00098381447268      4.08498955842877
  C   11.78086415582334     10.22149746582355      8.26302725239989
  H   10.27280723163516      8.68668742624541      7.93081581896631
  H   9.86120339642147     10.26797994886994      7.25579157800217
  C   11.27880292723977     10.58649906738157      9.64245697470036
  H   12.13446689270594     11.12689232929038      7.74835237500176
  H   12.63999655106262      9.53923569381233      8.35443479379564
  C   10.51483000872256     11.74462215053330      9.85512963280872
  C   11.54193583582975      9.76712537300538     10.74787673749926
  C   11.08468616983611     10.07518456499968     12.04054264580373
  C   10.31959920956409     11.24128361199983     12.21684430231720
  C   10.03417811154477     12.06679434998284     11.12451073117900
  H   10.29645480690987     12.41234478438818      9.01642712047832
  H   9.43523243997528     12.96562087590387     11.28212927235018
  H   12.15697124436094      8.87297498587233     10.61008397997692
  C   11.49882098411896      9.19034306400537     13.19089945957864
  Cl  9.66924019130897     11.67945139742330     13.77609049623158
  O   12.00755600625652      9.61209598900868     14.20971375943052
  N   11.28392856638646      7.84655212854131     12.96704469369061
  C   11.81262014895883      6.83883562922286     13.84659121622151
  H   10.82249280616256      7.55529327220625     12.11376048631465
  C   12.96939842558409      6.08639099175439     13.20665480575000
  H   11.04893897054632      6.09710364982340     14.13281093944929
  H   12.17814163105256      7.34005994204412     14.75398174727756
  F   12.57271113106686      5.47408070674221     12.06865254193631
  F   13.98014690620251      6.90365194503733     12.88236265966207
  F   13.44141935605769      5.14265649414413     14.03321515009610
