39
Coordinates from ORCA-job 4075_0.0
  C   12.09590014489552      5.02779522657165      7.77690131745535
  C   12.35831042783506      5.05613015354450      6.27224010061509
  C   10.62924921631349      4.86541585173397      7.97672185391415
  C   12.99182122675154      5.82731515782999      8.69410471122914
  C   9.92059105232364      4.87128851607376      6.62583218574028
  C   11.05809360225936      4.52967713560776      5.62901626075073
  H   10.87611635242240      4.95374993955606      4.62925581853294
  H   11.11628404150537      3.43616320881225      5.51393368461491
  H   13.24746824299809      4.46901907691805      5.99077600404519
  H   12.54963788231775      6.10413656914531      5.98249074773187
  H   13.03092076040136      6.86998944056695      8.33892620441094
  H   14.01411089942242      5.42068974834859      8.69676853571056
  H   12.62660973154327      5.82456724314191      9.73012061308980
  C   8.67935233419234      3.98190284243846      6.48894115748644
  H   9.60860888063281      5.92273537247746      6.46749508993716
  C   7.53315952667792      4.34130699927528      7.43720168718680
  H   8.97875360911734      2.92959155602574      6.64130143147843
  H   8.32385096576778      4.04141758430133      5.44473767534648
  H   7.82432894354159      4.22350173798461      8.49389702189140
  H   6.65553938348147      3.69774404531990      7.26444071523167
  H   7.20915065001598      5.38679913047438      7.29847328801511
  N   11.52873976123512      3.70581633376303      8.17926041766169
  H   10.15167656641917      5.26791107789873      8.87586976378619
  S   11.82124131709100      3.14035177813769      9.76898572903506
  O   13.27961244174053      3.05372567154825      9.93016643174061
  O   11.02373958876667      3.91523891514058     10.74105671816705
  C   11.15434540647841      1.40020120628360      9.73318774501620
  C   9.64235550063048      1.45800309211730      9.50537957129711
  H   9.14775009782833      2.06490250168576     10.27740011471242
  H   9.23165375326520      0.43578748919719      9.55086103677086
  H   9.39935388923741      1.87480366787392      8.51782042518982
  C   11.48775336827276      0.84243362485540     11.12696286837344
  H   12.57288913224873      0.84079780136290     11.30448023053932
  H   11.12027456601180     -0.19453652538315     11.19279581115692
  H   11.00447993565174      1.43415936875676     11.91833334883897
  C   11.88591079482566      0.62780765955521      8.63178677581483
  H   11.66198272894352      1.03953146146118      7.63758429018479
  H   11.56210202592380     -0.42600614412559      8.65641248745019
  H   12.97415125101284      0.66064448372327      8.78577012984985
