57
Coordinates from ORCA-job 4078-2_0.0
  C   13.41484473116292      1.47325620473997      3.97401550963243
  O   12.21541617720871      0.73379715763024      4.12070996962492
  C   13.40916904685225      0.10704282473002      4.56259203337687
  C   13.58864228590353      2.75575115539651      4.76841875825918
  H   13.80738729419427      1.56860178646460      2.95234467048423
  C   13.62398298756147     -0.20765754400492      6.02483289174894
  H   13.78210396923275     -0.70712583681967      3.92787305269633
  O   12.75705625404210      0.39499486119788      6.84305618538188
  C   12.90793813107986      0.12077932108904      8.25650356088292
  C   11.85226417167373      0.89575813120001      9.02544294970193
  H   13.92909511566923      0.40218886029567      8.56143849564050
  H   12.81183988211214     -0.96718159162474      8.40804579581064
  C   11.89960651240451      0.58286121756443     10.52305298699124
  H   10.85875158000565      0.64291011240571      8.61583809951783
  H   12.00481889056176      1.97713450052716      8.87307081255026
  H   11.72088350958896     -0.48715724778517     10.72323662722653
  H   11.13394279529540      1.15758049075599     11.06604459576158
  H   12.87792573279911      0.84734319648165     10.95769513592849
  O   14.50336460160115     -0.95414778024787      6.37687612950197
  O   14.62534344141888      3.40198647636982      4.62196620833620
  N   12.53911155266257      3.06791873119172      5.55044526581664
  C   12.32878818332666      4.19706437342275      6.47505319493506
  C   13.36152875943710      4.33093267445853      7.62360997800703
  O   12.94029945171203      4.51878891046485      8.75930351342298
  H   11.82245651960592      2.34719383000167      5.57263937335100
  C   11.95218206409350      5.52511182351213      5.76969476272366
  H   11.42604318175296      3.91025413754864      7.03014910018700
  C   13.02644445695763      6.32881319655167      4.99667182924562
  H   11.50085189565159      6.17393130485077      6.54111971092290
  H   11.13285001967528      5.26137713571093      5.07887227195072
  C   13.80022378343599      7.29508720504272      5.90635571830858
  H   13.12251634542799      8.05091260861621      6.34084802892647
  H   14.57554614229567      7.83351490072115      5.33669029894119
  H   14.29974206594000      6.77661503913477      6.73714613939199
  C   12.37195679770737      7.10283376038354      3.84218040318075
  H   13.74516306953508      5.61942002726962      4.55524585225102
  H   13.11943820304513      7.69066422237349      3.28448809162440
  H   11.60810247227640      7.80822626638450      4.21505782051984
  H   11.87783976895704      6.42455568167460      3.12674221387906
  N   14.67510586171549      4.24886246640123      7.30313208749367
  C   15.73343708561162      4.36534553157581      8.29344610733312
  C   16.65608505348836      3.14099811879108      8.31337567524864
  H   15.23946424673119      4.51561003328046      9.26302372582866
  H   16.33295806743138      5.27263300615965      8.08703077901469
  H   14.92280922658789      4.09560179583426      6.32136348928143
  C   17.85486634218822      3.25981890252510      9.27289344690392
  H   17.03390976970325      2.96730216224188      7.28949756029179
  H   16.06210460222228      2.24516303669173      8.57482211169751
  C   17.42377949946723      3.35663252417545     10.74348792321232
  H   16.77209911474445      4.22387853181928     10.93330098261845
  H   18.29948058186399      3.45224303057998     11.40621428454985
  H   16.87211171581300      2.45091523450903     11.05158981056971
  C   18.83142404105972      2.09431921708627      9.06633522651447
  H   18.39186172278322      4.19449801565694      9.01745113731885
  H   19.71398969222995      2.19117916967085      9.71973040862864
  H   19.18800664678436      2.04526269978836      8.02433869147681
  H   18.34944488570717      1.12864439753145      9.29845851537521
