31
Coordinates from ORCA-job 4080_0.0
  C   -1.49678648602444      2.18311204698814      1.81589419634301
  C   -0.64265273005745      3.41082777759489      1.43389701596763
  C   -1.49655730774531      3.42068017924562      2.68582709020391
  C   -0.83601420182388      0.91097845216807      2.33640765185150
  C   -2.69808391935270      1.89100318104717      0.94432898996597
  C   0.85400433332496      3.48626087869906      1.33945601562172
  H   -1.07200245918653      4.02130060628120      0.63650081256405
  H   0.01992219767569      1.11924555420945      2.98610671873275
  H   -0.49468749569929      0.30197726494346      1.48446928931149
  H   -1.57584874306857      0.31805948233967      2.89648206791556
  O   1.39852549190886      4.09186306401498      0.44562397995220
  O   1.51374552203022      2.83373369334952      2.30790724770663
  C   2.95459643657937      2.90841892281684      2.30164192227810
  C   3.57450582039840      1.85315194872114      1.40098496566860
  H   3.23958106383517      2.75791874323782      3.35307253865263
  H   3.25410087805007      3.91922553486421      1.98761189357659
  H   3.24706414672696      0.84206073303814      1.69067263296375
  H   4.67297201569881      1.89392597924596      1.48237240904107
  H   3.30382435711945      2.02910707873757      0.34926440379482
  C   -3.90802414155383      1.48364626656908      1.52971046395329
  C   -5.00438151428281      1.14613499869939      0.73320561361175
  C   -4.90537151931397      1.20300742029823     -0.66138108411210
  C   -3.70324976325588      1.60020989340806     -1.25267101494284
  C   -2.60714617717902      1.94223339034278     -0.45364761987084
  H   -1.67005568954743      2.25193560051999     -0.92460358633483
  H   -3.99552238496034      1.44566095558376      2.61883603289114
  H   -5.94265433255445      0.84037026692461      1.20393754272508
  H   -5.76426051559200      0.93972686995366     -1.28439147603065
  H   -3.61544311725308      1.64623144495725     -2.34149318786713
  Cl  -2.90051057884354      4.51681391920314      2.65696322164088
  Cl  -0.77814918605346      3.37359785199710      4.30677325222423
