59
Coordinates from ORCA-job 4081_0.0
  C   -4.74947518735500      0.58360479582984      3.17788007600328
  C   -5.61859592648447     -0.14183176767312      3.96772515169677
  C   -6.08982083455703     -1.42351359476056      3.55320480806479
  C   -5.66561657074104     -1.93203616315804      2.33492848575424
  C   -4.77946307775229     -1.21654358460254      1.48902326001949
  C   -4.31483450335093      0.06658712713016      1.92987486209156
  H   -6.36137725164322     -0.44477954469761     10.22245857352699
  C   -7.23673383203563     -0.00795598299144      9.73760173035179
  C   -8.32943000814331      0.42497311799458     10.50562390251533
  H   -8.28834677935164      0.31690936047565     11.59317270629154
  C   -9.46417162399823      0.97686330004231      9.90743275378336
  C   -9.51669628765662      1.12158357063752      8.50838680657285
  H   -10.39805058533768      1.56825452303727      8.03866029829127
  C   -8.44518577218079      0.69818681328985      7.73465249254250
  C   -7.30814802026917      0.13014738241270      8.34613595664992
  C   -6.98733882702177     -2.12516879396981      4.45849821004836
  C   -7.39566075456060     -1.54901648108833      5.60111521523887
  C   -6.96224659391770     -0.16887522361195      6.04130463150077
  O   -5.98935798193092      0.39828051859071      5.16473858228512
  C   -8.18978277632243      0.83537852251595      6.23906488453516
  N   -6.36963882033133     -0.22273456649367      7.38748448812620
  C   -9.39959058059112      0.49553644997422      5.35803996795944
  H   -9.83623716062730     -0.48380680548678      5.60013525153571
  H   -9.12361078433394      0.49387301810807      4.29134511261758
  H   -10.18729831860498      1.25416010454368      5.49289062341849
  C   -7.73412536004333      2.28274964960254      5.94645955093815
  H   -6.83269482390404      2.54469547274429      6.51878825131682
  H   -8.53806490910810      2.97842939982563      6.23338799662521
  H   -7.51254666190234      2.42418678520687      4.87803902587049
  C   -5.09523066498168     -0.83943619327985      7.66697536569802
  C   -4.34407236693768     -1.73165477352333      0.23274168708878
  C   -3.48267773018438     -1.00002817825873     -0.55202734341464
  H   -6.02378592209803     -2.91538363408661      2.01549482056332
  C   -5.15671563263948     -2.33076182056045      8.01058741657084
  H   -4.61867298336350     -0.30498312903680      8.50701101884848
  H   -4.43929615379273     -0.69131041148577      6.79554448184397
  O   -3.82108146694122     -2.72476699653625      8.35233709358423
  H   -5.51556213095933     -2.93178604882947      7.16201398533771
  H   -5.83021129273910     -2.52730587457726      8.86082100125418
  C   -3.61282198641785     -4.03666889356495      8.59462994228188
  H   -10.30896718435491      1.29617731128091     10.52237754351488
  C   -2.16459676229194     -4.30307015053359      8.92835238989901
  H   -1.52165621686692     -3.98287446766621      8.09358319346702
  H   -2.02278570733788     -5.37290477094496      9.12333914133511
  H   -1.86678519809079     -3.71561457180295      9.81094101974483
  O   -4.48796227504593     -4.86440269024922      8.54630910108136
  H   -7.31863239673609     -3.13301164985651      4.19055971164831
  H   -8.06874751532517     -2.06601141282718      6.28964924102225
  C   -3.01022109191708      0.27100045829016     -0.13192034502422
  H   -3.14840172846952     -1.39347337517311     -1.51567790646124
  C   -3.41449468506485      0.79939435831316      1.08358495513398
  H   -2.32658363123994      0.82098391058717     -0.77893139107102
  H   -4.70462224774931     -2.71029879465919     -0.09458773631036
  O   -3.01751096513485      2.00322696306285      1.56954541170620
  C   -2.13132099161977      2.79611183364756      0.81357643143520
  H   -1.96040519516893      3.71440241025024      1.39194712050127
  H   -1.16324010095575      2.28749019052654      0.65209273098555
  H   -2.55790889568415      3.06575344040287     -0.16978602450438
  H   -4.39798826583342      1.55733955766303      3.51773228606650
