58
Coordinates from ORCA-job 4083_0.0
  C   -4.66405148792964      0.80311209621112      2.23487605030637
  C   -5.67746429003070      0.32670577236033      3.13682180263507
  C   -6.32883866095661     -0.87890652260141      2.88672803897502
  C   -5.98345165357767     -1.62455004529246      1.72192167921170
  C   -5.03660262149195     -1.20851749000647      0.81316117243614
  C   -4.35193179556018      0.03196429897272      1.06035009419060
  H   -5.84304077800009     -1.36710499195495      9.36431762357381
  C   -6.77388212050012     -0.82377192806640      9.19108750183195
  C   -7.74457110293850     -0.74310971679699     10.20245953869345
  H   -7.55063281800267     -1.23012736881304     11.16228622544686
  C   -8.95028794486777     -0.06783991828060     10.00103136170868
  C   -9.19860143625771      0.56735042533516      8.76992695733228
  H   -10.13257572362819      1.11542187175479      8.61476443457683
  C   -8.24775653207569      0.49795943259297      7.76155506300977
  C   -7.04095118380561     -0.20224729647280      7.96516997048220
  C   -7.34366407942067     -1.40484522498854      3.79013926123903
  C   -7.68745733231104     -0.88837471351135      4.98413060763124
  C   -7.07948157169028      0.30696500458231      5.67778015215258
  S   -6.12388902761151      1.37253121441760      4.49987622916603
  C   -8.18650662991879      1.19866237439836      6.40772450146188
  N   -6.25284220018239     -0.14900179614656      6.82033490896078
  C   -9.51184298501628      1.25987580852372      5.64056533795532
  H   -9.99589294034891      0.27761641287778      5.54802716631443
  H   -9.35193191774886      1.66148465420306      4.62738097352481
  H   -10.21495847969955      1.93106611650643      6.15915921611143
  C   -7.68578341292025      2.64172462888823      6.66551960456453
  H   -6.69149404978558      2.64489878626837      7.13695301192508
  H   -8.38433196552852      3.14625381390380      7.35049445496725
  H   -7.63749711900565      3.22879012110444      5.73532579545153
  C   -4.96721654679049     -0.79488609049565      6.69750784972309
  H   -6.50860032204260     -2.56943678134458      1.55165263692203
  C   -5.00231133318879     -2.31520709790648      6.51255389579052
  H   -4.37646818853459     -0.57141131072939      7.60286720692371
  H   -4.42764059750621     -0.33530554262944      5.85498393254575
  O   -3.63878985944583     -2.75640180174440      6.58011916573796
  H   -5.44039558790213     -2.60590443602078      5.54789112424009
  H   -5.59024113177866     -2.80941490085319      7.30325057167851
  C   -3.40219490663791     -4.05879043821851      6.31624744932255
  H   -9.69788454943079     -0.02958617833449     10.79691758355950
  C   -1.92596679148779     -4.36754975382276      6.39370453330561
  H   -1.39904341076999     -3.85279394276256      5.57405856258825
  H   -1.77108417358632     -5.44988429249378      6.30737314853492
  H   -1.50383811400954     -3.99198071581599      7.33801682628974
  O   -4.27265562556462     -4.84797510511343      6.04578271072107
  H   -7.83838835443001     -2.32727196665708      3.46927811349998
  H   -8.43116395319997     -1.41786269003647      5.58842065728900
  C   -3.35934374335427      0.52809715575896      0.16960232021571
  C   -2.69688735456385      1.71511205065186      0.41221684291010
  C   -3.95354018803464      2.01695351289838      2.45858910994612
  C   -2.99528096048331      2.46506416822535      1.57206462327630
  H   -3.11555842248131     -0.04488548086494     -0.72639117565124
  H   -1.93844370515892      2.07202652502464     -0.28955077749162
  H   -4.16551961927015      2.60031360933095      3.35675159915342
  H   -2.46351408872452      3.39919955040111      1.77107336721475
  C   -4.72727055363833     -2.03875697343851     -0.40761477462796
  H   -3.66996909728665     -2.35381875229134     -0.43155241659400
  H   -4.91574548223413     -1.48165390145551     -1.34124515645080
  H   -5.34612947765192     -2.94754423923155     -0.43092826640995
