51
Coordinates from ORCA-job 4085_0.0
  C   -4.88041892104906      0.72748589123551      2.64412278764891
  C   -5.75968990882693     -0.00635973135916      3.44727065411527
  C   -6.26520437797865     -1.25591260078143      3.02386093164647
  C   -5.86532957177237     -1.73055083411287      1.77434858676377
  C   -5.00785336560958     -0.99967637246859      0.95057121319246
  C   -4.48769867617093      0.25314214702102      1.38205388870166
  H   -5.80472427186623     -1.17298603156033      9.53719940611782
  C   -6.69623370798199     -0.60672050996263      9.25914814121614
  C   -7.66057896446929     -0.30709839312040     10.23852237344120
  H   -7.48841098075802     -0.64989528205578     11.25973815200055
  C   -8.82983188895268      0.41078311182576      9.92523928186294
  C   -9.02396064743577      0.82523512794838      8.58049752917995
  H   -9.92819478444540      1.38416174501730      8.31781897315544
  C   -8.07738011269701      0.52577333430670      7.61671438229402
  C   -6.90490622284486     -0.17886886673094      7.95030167117490
  C   -7.16645072007589     -1.95326087998052      3.92749040786056
  C   -7.48967976851067     -1.41437060497267      5.11502763202387
  C   -6.91347889427021     -0.11460491128978      5.62539254197265
  O   -6.09657868088361      0.53739433462977      4.63271627959051
  C   -8.01221247802063      0.91179903884594      6.14461152827231
  N   -6.09533327591194     -0.34611726294995      6.81853958003476
  C   -9.34255973161646      0.79879259726824      5.39105305650324
  H   -9.82689778818150     -0.17828636338188      5.53111126482478
  H   -9.19466234175734      0.95586178202937      4.31025351576930
  H   -10.04354138185297      1.57285787243481      5.74265712308232
  C   -7.48069036918736      2.35932154190255      6.03434955807715
  H   -6.49073574651462      2.45865510619789      6.50176250104962
  H   -8.17641906973178      3.03856768796336      6.55076573238350
  H   -7.39830614304678      2.67488487931689      4.98358000742403
  C   -5.00612088848305     -1.29357457059467      6.80079007381063
  N   -4.68664146440344     -1.57762640420114     -0.35883933681132
  O   -4.82981435885370     -2.78939910012965     -0.48233744199936
  O   -4.32178921888708     -0.83190996457112     -1.25209993710878
  H   -6.21943059384214     -2.69465586858302      1.40743584319006
  H   -4.48666527438062     -1.23915862836901      5.83356707592701
  H   -5.32406502698106     -2.34272598874575      6.96924047862839
  H   -4.27323228695660     -1.03049070237517      7.58095235044765
  N   -9.78102867769461      0.74396168570662     10.88497079432654
  C   -9.77648011574541      0.17524756746666     12.20950426775297
  H   -9.80466863284835     -0.93513839071672     12.22017478628751
  H   -10.65225924188418      0.54328129961495     12.76401727931238
  H   -8.87961129583138      0.48528175890749     12.77443563760098
  H   -10.69252107467008      0.98159226899563     10.51466582954353
  H   -4.51164981102476      1.67443911283192      3.03410575579309
  O   -3.62631451439168      0.90794884057461      0.59311167085192
  C   -3.06341838615205      2.13246362343459      1.02047484317337
  H   -3.83813788944229      2.90300532268619      1.17891043646888
  H   -2.39457452989448      2.45693860707195      0.21279991615835
  H   -2.47909150134842      2.01057897096139      1.94950341305806
  H   -7.56872811986510     -2.92363554117742      3.62187809512964
  H   -8.15190430399878     -1.93418145200485      5.81157946707820
