78
Coordinates from ORCA-job 4087_0.0
  C   2.87928891389253      0.12684486763503      0.59914403299939
  C   3.11484373072323     -1.19714744193247     -0.10368406157996
  O   1.87439053311929     -1.95645483683541     -0.13464051830105
  C   0.68080508046491     -1.32989877682470     -0.30109877312356
  C   0.49681987603305      0.00125690057340      0.07327259997134
  C   1.65445625244766      0.67682928832714      0.65622711939402
  C   -0.79559569831245      0.58832631907645     -0.04452417844836
  C   -1.89900263667953     -0.17287742298132     -0.45337143458835
  C   -1.69056946867128     -1.51632616500944     -0.93630278189200
  C   -0.38164470633824     -2.10971591740267     -0.83252603292353
  C   -0.12689880224904     -3.44644858353407     -1.28452444338195
  C   -1.16153792257999     -4.12925184397934     -1.85593627067744
  H   1.51246250212136      1.62348289253670      1.18205929458616
  H   3.74431634405281      0.60701644019905      1.06176434118505
  C   4.10591314092987     -2.03440126066034      0.71900130051464
  C   3.66051696378652     -2.97295336911756      1.65930445097096
  H   2.58814668308796     -3.15051647269089      1.75713098449393
  C   4.53971838243486     -3.70010991212257      2.46961883222089
  C   5.93311087264663     -3.46684495311730      2.35182156071927
  N   6.83893514447542     -4.20303003005236      3.10746407521387
  C   6.38351224378301     -2.51762936212053      1.41535283165373
  H   7.45785032389576     -2.33633921261072      1.31236398502448
  C   5.48670306669768     -1.81813177879199      0.61060802610489
  H   5.87553251386775     -1.09818311146346     -0.11401196871515
  C   3.58951584106978     -1.03015465788349     -1.56114702151264
  C   3.72635655159016      0.21966253748585     -2.17583196989741
  C   4.14415033671182      0.32232477221146     -3.50594569731845
  H   4.25246107400429      1.29494919823049     -3.99073116169202
  C   4.41663757270502     -0.83221270003426     -4.24030381546927
  C   4.27295058575029     -2.09622926085792     -3.65251280128834
  H   4.49050741781648     -2.99851920927588     -4.22081559860943
  C   3.86633590134409     -2.17889313753648     -2.32153641096291
  H   3.76498616820878     -3.16327366694509     -1.85859220847837
  C   -2.43497688064415     -3.53889254770481     -2.02062646965802
  C   -2.72152538015376     -2.27224944246299     -1.58973555635233
  H   0.86868429415065     -3.87496204150215     -1.18612393907293
  O   -1.19164153917971     -5.39723475302552     -2.36170557173377
  C   -3.36454055819407      1.85600908898798     -0.44771441006889
  C   -3.24807602977806      0.44848809043019     -0.32509945958709
  C   -4.61285553918189      2.47280687397102     -0.31893180522272
  C   -5.76130004666697      1.72611333152812     -0.03993986532450
  C   -5.64784287130852      0.34697356022962      0.14826042298657
  C   -4.40630139729781     -0.27961089873407      0.01475921387242
  H   -4.68201032924026      3.56007849007846     -0.42370079801039
  H   -6.73064871775605      2.22210747795633      0.05796098783609
  H   -6.52668947301429     -0.24728925147935      0.41313516104407
  H   -4.33370051689853     -1.34979866122117      0.21157340420144
  H   3.50196328936661      1.12889456265999     -1.61499156172782
  O   4.76145166115742     -0.63215937186890     -5.57067753150030
  C   5.67254289997997     -1.40190753155716     -6.23479169453846
  O   -3.25737446990674     -4.42932161418368     -2.64652623507669
  C   -2.09387824221827      2.64377360544589     -0.63761469966237
  C   -1.00102007645714      2.05933851871614      0.26415782358156
  C   -2.44393422615606     -5.54558786089941     -3.03784885912787
  C   -3.10329723948845     -6.86066326663104     -2.67694272358539
  C   -4.43064401340470     -7.08173540908102     -3.40216186890095
  H   -3.24196839611219     -6.87258712121482     -1.58294130117530
  H   -2.38404081734948     -7.66107559609650     -2.91960375672004
  H   -5.15293605019512     -6.28988486976791     -3.15116074093301
  H   -4.87312117936508     -8.04958994838632     -3.12088698527075
  H   -4.29753169699693     -7.08172294124863     -4.49711060739993
  H   -2.26355463997131     -5.46874842801737     -4.13067865158541
  H   -2.26193325545488      3.70892373160038     -0.41385283347078
  H   -1.75591532758126      2.58202723582400     -1.68976941061253
  H   -1.28724703720500      2.19892127060498      1.32495545789276
  H   -0.06265444015028      2.61287035815295      0.11594007528714
  C   5.82180361111040     -0.90185210647809     -7.65019999717198
  H   4.84683217279791     -0.92598994420351     -8.16156193951748
  H   6.54580588722226     -1.52779426665209     -8.18557171360077
  H   6.15910077634227      0.14643059118079     -7.64439134673821
  O   6.26052243555866     -2.33007729926970     -5.75006124310688
  H   7.77982307547236     -3.82996511686866      3.16159687120924
  H   6.50836119003572     -4.56319344207701      3.99489623908179
  C   4.02981823381804     -4.72646190022253      3.45009306338715
  H   2.93526715553288     -4.81734533954120      3.40057369338339
  H   4.28862786717147     -4.46720460112032      4.49459407492274
  H   4.46242256125914     -5.72381835962429      3.25313462246946
  H   -3.70519150647943     -1.84731298872182     -1.77383382089459
