78
Coordinates from ORCA-job 4088_0.0
  C   2.66795292492634      0.19510081102721      1.01871318869759
  C   3.02275910486102     -1.02435395539054      0.18632328412139
  O   1.84764906350066     -1.87683053550323      0.06714618209434
  C   0.62865021644959     -1.32022277714396     -0.13194341118533
  C   0.35491881812071     -0.02444675210735      0.29647773564655
  C   1.40956112015691      0.66694309498176      1.03655902108423
  C   -0.94154456746804      0.48299342226530      0.04408814918322
  C   -1.96939131504306     -0.26765694076513     -0.53931971049297
  C   -1.74285741572806     -1.66861850844846     -0.83626293866385
  C   -0.38606219332208     -2.16335319785592     -0.67800104981973
  C   -0.04067296353996     -3.50299619175544     -0.99319705574312
  C   -0.97319122330942     -4.43025913204620     -1.41011664673860
  H   1.13732913523645      1.53923793755892      1.63276680575588
  H   3.46652224004688      0.66533994137257      1.59657930934132
  C   4.07036274917915     -1.86423821990344      0.93475282189708
  C   3.69580228179049     -2.93780039604131      1.75543023948038
  H   2.64320240162892     -3.21400479637305      1.82639832013481
  C   4.65573484538224     -3.65458080786287      2.47259050948079
  H   4.33582436145964     -4.49356268199482      3.09884202401901
  C   6.01826972617737     -3.32096673733583      2.40930053624602
  C   7.04543291822706     -4.10664492933207      3.18875628414269
  C   6.38337654239299     -2.23951457853492      1.59436857430138
  H   7.43677594382696     -1.95310254021211      1.51942743538602
  C   5.42843615825443     -1.52472472445548      0.86614219858615
  H   5.75089888324884     -0.69759129515636      0.22881148664979
  C   3.49699144630146     -0.67363256507234     -1.23613875325209
  C   3.65262658313602      0.64556877183699     -1.68775214527422
  C   4.08435019021988      0.91760590459081     -2.98490943465500
  H   4.20883566570467      1.94398479844480     -3.33706115397835
  C   4.36173844382512     -0.13145959525280     -3.87533621943727
  C   4.20211642350206     -1.45867704925136     -3.44029772572606
  H   4.40533285397812     -2.29781592666923     -4.10639115733331
  C   3.78029713975563     -1.71259791104951     -2.13368756148743
  H   3.66802372073323     -2.74933771056079     -1.80707952823593
  C   -2.31313995027571     -3.97516996362911     -1.49057254670748
  C   -2.69418042247333     -2.66346620385252     -1.21791881060113
  H   0.99306227877654     -3.82557693052839     -0.87982632486918
  C   -1.31981527049163     -6.81067756867756     -1.34910889120177
  O   -0.55310257882704     -5.67978291906266     -1.73901443521463
  C   -1.36630707651343      1.92860109272715      0.30809542922640
  C   -2.83372021173244      1.88441790382955     -0.07714371241599
  C   -0.55454176060115      2.88409160981974     -0.60939705281013
  O   -1.13978165276173      2.36197313282142      1.64859562102205
  C   -3.14751498446337      0.64321027413161     -0.68436029932772
  C   -3.77886126240240      2.89347701498008      0.07207042439377
  C   -5.06097383998411      2.71935482471660     -0.46881433424886
  C   -5.34986176949141      1.55200101610853     -1.17706227411128
  C   -4.40621621083195      0.52082456814552     -1.29105945224432
  H   -3.52135536040214      3.81151010074140      0.60441609083562
  H   -5.81649710752895      3.50168222476144     -0.35902210090920
  H   -6.32918194187027      1.42927741905040     -1.64818447151958
  H   -4.67491809077840     -0.35432857946065     -1.87032997417241
  H   3.42980860032671      1.47757185366525     -1.01663572926826
  O   4.77425066074973      0.22610062251400     -5.11812495094764
  C   5.05411845993280     -0.77657104386471     -6.06867546449063
  H   5.35795494729470     -0.25972840448641     -6.98941463425661
  H   4.16678084643404     -1.39925521576095     -6.28503332888385
  H   5.87823201203437     -1.43708081644411     -5.74192955552396
  H   8.05667748454945     -3.69275115147667      3.05850268629077
  H   7.07112861489280     -5.16224509138075      2.86797662283377
  H   6.81743149715878     -4.10580063632654      4.26817492799126
  H   -0.67821788981340     -7.68749454014103     -1.51787768514072
  H   -2.24287994636977     -6.90969339847574     -1.93910280771803
  H   -1.58548939332849     -6.76555637015425     -0.27734071016011
  C   -4.20007646880974     -2.62722574710967     -1.43912321876816
  C   -4.55633646864050     -4.11995452180795     -1.46538807421389
  H   -4.44493488405229     -2.15817178328914     -2.40747963637339
  H   -4.75056528034514     -2.09329261268340     -0.65424938574168
  O   -3.34426284668010     -4.79964447055803     -1.82904735384681
  H   -5.33341416616111     -4.38590530328489     -2.19584039323795
  H   -4.87037401226163     -4.47689742860448     -0.46671999745141
  H   -1.65131029256364      1.78695621237575      2.23493493498008
  C   -0.81846367558937      4.37803438103061     -0.41864819191616
  H   -0.74479015981908      2.58715111299665     -1.65354671803350
  H   0.51235145697421      2.68292457210435     -0.42199763749921
  H   -1.82732527812382      4.66902432445834     -0.74808382249987
  H   -0.09842738190110      4.96545413157668     -1.01128451194428
  H   -0.70407144684778      4.66513808250081      0.63735213647078
