80
Coordinates from ORCA-job 4089_0.0
  H   4.58381135868984     -1.77424546815555      0.27350100219626
  C   4.02362443323134     -0.88288376701265     -0.01319052330170
  C   2.65592138510420     -0.86215539416839      0.20668594423047
  C   1.89526751764625      0.25038545785177     -0.28804309687380
  C   2.55616039106623      1.34078507558229     -0.96689386409803
  C   3.99444905245152      1.35125977555747     -1.01181778405728
  C   4.69125920405377      0.21087692245517     -0.60089043919830
  C   6.19444494378819      1.63699391314361     -1.71423668062852
  C   4.97521317883874      2.31071683988450     -1.57619334913065
  C   4.90254684276097      3.70552767325243     -1.92067872523457
  C   6.00214972309795      4.27000242406320     -2.66375649271707
  C   7.14666542340460      3.47532204622240     -2.94863608040554
  H   7.95912285669680      3.91288693699127     -3.53504445655428
  C   7.26741599888578      2.19970701238089     -2.43650884383448
  H   8.18217030330268      1.62956314161003     -2.60318962735698
  C   1.98128266019723     -2.02674819187426      0.88938862936701
  C   6.16388491156111      0.28377685012869     -1.00655687383677
  C   6.45066006948924     -0.86259031071184     -2.00386211790942
  C   7.04766638125279     -0.96034529983998      1.14826839992510
  C   11.21988472387472      1.18698241700591     -1.00741743610913
  C   11.61217620004296     -1.18603794437235     -1.90082305519873
  C   10.74335036523629     -0.14989147460132     -1.23152279128412
  C   10.40018705172257      2.14114535393004     -0.29862035592583
  C   9.44342111491332     -0.46033172390894     -0.86479609843297
  C   9.14662730703000      1.69456399649493      0.24614336779029
  C   8.63193633901306      0.46810249812352     -0.18032062225757
  C   8.17032045917906      2.30005446960393      1.18241157108156
  C   8.28435405585402      3.35017926281082      2.16084692084781
  H   9.05851684558185     -1.45754623308394     -1.08796859059640
  C   7.17769717988829      0.29631835499574      0.25436258049520
  C   6.99470245045296      1.54074556481845      1.12255323828258
  C   7.09457566602821      3.72591971940844      2.88434232365349
  C   5.85340192752041      1.88670617061219      1.87574334988117
  C   5.89076046334744      2.99287437500842      2.69865554259960
  H   4.94508482304720      1.28713433101920      1.80927155575891
  H   5.00442012373196      3.28753266037506      3.26731657620324
  H   5.67611003435875     -0.86613042703287     -2.78594552846955
  H   6.43570428062790     -1.85010080980464     -1.51764652509430
  H   7.42298300597037     -0.73597529172828     -2.49837667503811
  H   7.17521413733911     -1.89036087560083      0.57306921186985
  H   6.07784118467133     -0.99963256494463      1.66106889455612
  H   7.83125977370158     -0.93651019855683      1.92069091814672
  H   2.71795668438566     -2.78949708108095      1.18131525026427
  H   1.23624228465358     -2.51329106320882      0.23685323379670
  H   1.44753153518230     -1.71249403299310      1.80271382895997
  H   11.08729514826129     -2.14980726649118     -1.97440514923551
  H   12.54765090983559     -1.35666857560496     -1.34087848481568
  H   11.90349715250137     -0.88710902493161     -2.92262411726327
  C   0.47267959199335      0.26575431301875     -0.19484839343947
  C   1.73601578448721      2.28852701488381     -1.64499137751458
  C   0.35819095529388      2.24698502333357     -1.56956172646666
  C   -0.28216177600667      1.24522289104920     -0.80567939165831
  H   -0.03275931161874     -0.53202418276675      0.35160385081414
  H   -1.37246913949719      1.22734021678874     -0.72679863936787
  H   2.20635076532851      3.04372133213702     -2.27043938317273
  H   -0.23753274765443      2.98590810829123     -2.11227104819061
  C   3.87973254914615      4.59811480310140     -1.48527040134106
  C   5.95116676538746      5.63902569720237     -3.05313918718104
  C   3.88299513225713      5.93199964832716     -1.84292892844424
  C   4.91044815127014      6.45469273044204     -2.66500696137255
  H   3.10320151696299      4.23284894457772     -0.81504906853143
  H   3.09285493028253      6.59230889743582     -1.47514713553135
  H   6.77817754569357      6.04170864713139     -3.64517635266180
  H   4.89348878625084      7.50737783222202     -2.95964043613064
  C   7.15894622525750      4.78194238432111      3.83789359046557
  C   9.50690567927645      3.97205520044868      2.55027045043021
  C   9.54154229921899      4.96765074793330      3.50679308484135
  C   8.35146769990496      5.40392604257563      4.13710928594646
  H   8.38664562550098      6.20585474999388      4.87932330677807
  H   6.23862306736224      5.07249499323403      4.35288488838078
  H   10.44321891585261      3.62917757842613      2.11526623924458
  H   10.49985161939622      5.41295958710951      3.78779374176800
  C   10.82638405170811      3.50027315157657     -0.28096472619203
  C   12.03184999573006      3.89075233656979     -0.83013214345285
  C   12.88572294084728      2.93325379306849     -1.42314378763586
  C   12.47933452683715      1.61792363682581     -1.51666731942466
  H   10.16175378154696      4.25620524778222      0.13397725302387
  H   12.31909952176321      4.94557792734759     -0.81633886103722
  H   13.85009471917711      3.24023043608784     -1.83678086470764
  H   13.12469996757075      0.89579004590143     -2.01949751328625
