58
Coordinates from ORCA-job 4090_0.0
  H   2.36690442363119     -2.29609951160123     -4.64900844754784
  C   1.67686068283721     -1.45602578541292     -4.58707080234227
  C   0.43655232952129     -1.56051553353918     -5.22097353960658
  H   0.20365637919174     -2.47268458816254     -5.77920628556021
  C   -0.51181690776814     -0.53431133447415     -5.13999958377021
  C   -0.18428089865168      0.60494380082614     -4.39292841901251
  H   -0.91724559690678      1.41014651282049     -4.30353953190030
  C   1.05524710254697      0.71505850297732     -3.76149509194452
  H   1.26078996459093      1.61774551404603     -3.18653681903831
  C   2.01490779270309     -0.31049891418387     -3.84725314054579
  C   5.37694700144248      0.50953356833493     -4.22988909363695
  C   4.17482222779494      1.01627667332882     -3.72468307697446
  C   3.90607637610161      2.37563759623779     -3.90582197186580
  H   2.96785234799980      2.81632966967661     -3.57185521396002
  C   4.85884447755294      3.18940026564709     -4.53632423903587
  C   6.06581061943129      2.65333191580043     -5.00051083679351
  H   6.79641076543628      3.30142876192058     -5.49135938734681
  C   6.33966381176130      1.28751986213750     -4.86022471163610
  C   -1.84779462454875     -0.63539158220084     -5.85137727475677
  C   3.37939711530290     -0.14982321953777     -3.14229883010345
  C   4.34423258076609     -1.33611062606223     -3.47902875583368
  O   5.49032232530068     -0.84540226039096     -4.06389283401352
  O   4.20235481779854     -2.50433759659244     -3.29843587171102
  C   8.28247343154827     -1.48834323321202      1.21050241468649
  C   6.97785095018618     -1.13541921206272      0.52170587519798
  C   6.83703464545195      0.05560565086073     -0.20278489211100
  C   3.22045665896277     -0.12117610887173     -1.51531191732344
  C   5.88477121566715     -2.00879602196950      0.56740007646276
  C   5.64204139703071      0.36351076747317     -0.85403563199241
  C   4.68766101298481     -1.70555243410565     -0.08576371842190
  H   7.67165304673014      0.76166435764769     -0.25758709562333
  C   4.53819402876144     -0.50770442202753     -0.80461446056601
  H   5.97645274573636     -2.94401947769221      1.12457758983799
  H   5.58303797129167      1.30003218886020     -1.40740423262708
  H   3.87474469007077     -2.42934163238666     -0.04857040902388
  C   2.06970931223675     -1.11784169277153     -1.15031739732620
  C   2.64633056678935      1.17426847193151     -0.94320924404914
  C   3.13298698695774      2.47839823909042     -0.81470417095658
  O   1.99220469341346     -2.29046466742752     -1.34186520612305
  H   4.11072900980498      2.75819175999131     -1.20290875767306
  C   2.35004018512310      3.44896227898868     -0.17252672983976
  C   1.39793531437087      0.88169176976462     -0.38304858600721
  O   1.05250298253893     -0.43684381653495     -0.51944362238314
  C   0.59971938636409      1.81822162181127      0.26114368768965
  C   1.09450588494852      3.12454310782618      0.35414835347358
  H   0.49813920373514      3.89252398950433      0.85333508945898
  H   -0.36621858029787      1.52862628780572      0.67841716351880
  H   2.73128304854895      4.46857435048437     -0.07877748669869
  H   4.64908754976724      4.25295091702353     -4.67279187299319
  H   7.25980663229734      0.83526077602716     -5.23409726454629
  O   8.12610975353270     -2.30869216757940      2.34663087187883
  H   8.83793699696298     -0.55631549262637      1.44245820332560
  H   8.92007176619331     -2.06217681987515      0.51441637750145
  O   -2.88568655519316      0.08423290898491     -5.22255838472305
  H   -2.10804942771632     -1.70412953781307     -5.99240954613479
  H   -1.75787886061362     -0.20344609682853     -6.86418204044588
  H   -2.99194585977439     -0.26832905549444     -4.32793413176571
  H   7.54051310175121     -1.85190924639247      2.96646485525962
