122
Coordinates from ORCA-job 4091_0.0
  C   4.59271775963323      1.48755542174829      0.01234470747339
  N   4.23548164906541      2.71781189508978     -0.69745754111356
  C   3.72466110535592      3.52412050405670      0.16459262313383
  N   4.19867630660063      1.66843459774930      1.40011263230430
  C   6.11735503164232      1.24796215799150     -0.14245949418278
  C   3.71541529321783      2.85456037239766      1.51892681437290
  C   3.23373404078602      4.86542266105160     -0.21672060472261
  C   3.26522089148435      3.38532858362510      2.82191648242416
  C   3.91005443220166      5.59003999698939     -1.21145819184552
  C   3.46175593296378      6.84226127502704     -1.63576074858996
  C   2.29849813403006      7.39346060274960     -1.07227921569900
  C   2.06473213305488      5.42918198291405      0.33472154925340
  C   1.60111692927332      6.66941437101587     -0.08804850733201
  H   4.02426086480237      7.37718003500610     -2.40161252249577
  H   4.80972160460335      5.15875494375413     -1.65501379785285
  H   1.49853258410302      4.88073483988715      1.08965248920362
  H   0.69048667057835      7.10514858844753      0.32839616819576
  C   3.43261010317746      4.73676947481725      3.18864219684642
  C   2.71940913887256      2.50681582867976      3.77253199145319
  C   3.06326463741915      5.18667658598741      4.45084116699520
  C   2.33355192745387      2.94832400247138      5.03872948251530
  C   2.50506996663122      4.29881239507251      5.38820735563029
  H   2.59914222777652      1.45540346634379      3.50505450782840
  H   3.87851455644443      5.44215992896933      2.48556906627099
  H   3.20266359114709      6.22945121915468      4.74357575941283
  H   1.90579492959290      2.23502385566343      5.74377811478095
  O   1.77871216414970      8.59872182251679     -1.40982573196194
  C   2.41173857598821      9.37374824432974     -2.40416419290359
  H   3.44374899629735      9.64760088948249     -2.11838770651756
  H   1.81738008734502     10.29147620508360     -2.51082775096662
  H   2.44005934249333      8.85078648297849     -3.37743924849914
  O   2.16853635748540      4.82916010958688      6.58873946887664
  C   1.62630561669109      3.99503462149436      7.58902558884780
  H   0.67209423105953      3.53705209669345      7.27054201751271
  H   1.43935816057329      4.63493493232154      8.46218060429353
  H   2.32718458946019      3.19097632500832      7.87818016215120
  C   6.96373902482580      0.55850695863247      0.82882166037699
  C   6.68803694449576      1.73358286007313     -1.29157254743053
  C   8.07836225153690      1.60220020428952     -1.59422956265301
  C   8.94220820672469      0.94574506834861     -0.67675855115411
  C   8.36944100695047      0.41514296902704      0.55412176715825
  H   6.05508593398524      2.24460564391609     -2.01552504062091
  C   9.18353281437970     -0.25608122285739      1.50190921584793
  C   8.66705687059370     -0.78089921145643      2.67171591589342
  C   7.29331157290483     -0.64865833480260      2.93967758967119
  C   6.46895620787338      0.00540058932241      2.04190282808814
  H   5.41417463854294      0.11971114450563      2.27011253242438
  H   9.32418896400128     -1.29459342551054      3.37879681933783
  H   6.86864472366548     -1.06168859502037      3.85858933763165
  H   10.25020370292123     -0.36897576404064      1.30708899620958
  C   10.31673327197319      0.84452627212033     -1.01386723995915
  C   10.83584953450635      1.35769302719591     -2.19600786105496
  C   9.95439935964129      2.00686683033460     -3.09764423035036
  C   8.61170352068188      2.12496931608043     -2.80083275037244
  H   11.00561259071075      0.34785622811230     -0.32907594620774
  C   12.30266964109567      1.23599502233268     -2.53088628360783
  H   10.34683322439213      2.41720284880805     -4.03326301194137
  H   7.93550886828400      2.63002315385171     -3.49696787312495
  C   3.69117201482391      0.30238129548872     -0.63697003462284
  N   3.95680192631861      0.23832385043663     -2.06489219462773
  C   2.86312492788034      0.52088236259195     -2.67989464040831
  N   2.29319556790284      0.71135044228778     -0.47981254285740
  C   3.89378855247675     -1.06620859614671      0.06409482387590
  C   1.79756677064575      0.84453396836637     -1.65922226048478
  C   2.76352300376802      0.48701834690530     -4.15332493840181
  C   0.40064423136010      1.27726024429418     -1.87642150970866
  C   3.88306514876151      0.82554574622212     -4.93118915883050
  C   3.85307922340635      0.75406352930585     -6.32464722999342
  C   2.68623861817687      0.31754414917474     -6.97536119702239
  C   1.60130247223602      0.04860534608364     -4.82119829350005
  C   1.56300959894759     -0.03970565113729     -6.20768961791095
  H   4.74094039673777      1.03621518424640     -6.89122393909304
  H   4.79384229977804      1.15071064273797     -4.42493973192926
  H   0.72189456796589     -0.24977982273920     -4.24795641623347
  H   0.66951646018219     -0.39069383485878     -6.72824646755674
  C   0.03444901823475      2.15194194046903     -2.92031417956545
  C   -0.59782048788188      0.86583884615751     -0.97887207612222
  C   -1.27798222291701      2.58704709949177     -3.06131425431542
  C   -1.92223283371489      1.28559932795634     -1.11712305216288
  C   -2.27241509031137      2.15322276053433     -2.16572621969122
  H   -0.32375005859185      0.19856900556162     -0.15929251886829
  H   0.79135626266136      2.51281222577292     -3.61879193237714
  H   -1.56441211103416      3.27305047718227     -3.86119715705086
  H   -2.66954683088142      0.93234876500946     -0.40600145664140
  O   2.55190298437047      0.20766343475459     -8.31901645618285
  C   3.64233689625252      0.52830981290346     -9.15476188797153
  H   3.94720081519360      1.58522747937504     -9.04672180100385
  H   3.30535616455130      0.35979782183757    -10.18670228181469
  H   4.51756752895732     -0.11606576224755     -8.95441885519388
  O   -3.52490279122721      2.61986658407353     -2.39075308125368
  C   -4.57147749814068      2.24566742465880     -1.52210534914886
  H   -4.73603428187000      1.15271916717241     -1.52230221259549
  H   -5.47864079755799      2.74158333590022     -1.89360948909282
  H   -4.38256405724178      2.57582432097165     -0.48438776219396
  C   4.86737704105132     -2.08012176524516     -0.33437394228485
  C   3.08361791481306     -1.31362071221146      1.14303083630505
  C   3.14411683886070     -2.51709924714400      1.91093686961641
  C   4.07419644027652     -3.53270984067271      1.56084895301399
  C   4.94547088984198     -3.30712732628516      0.41423205261818
  H   2.35998915585229     -0.55564377357711      1.43907458880245
  C   5.89012519308880     -4.28770237229984      0.01686731516265
  C   6.74005448662166     -4.09584606867536     -1.05634032837948
  C   6.67326142408369     -2.89411266173247     -1.78303716253955
  C   5.75991935849476     -1.91754797444345     -1.42948912275226
  H   5.70205381684886     -1.00240178763510     -2.00976325415684
  H   7.45766080254815     -4.87316359456064     -1.33295235725414
  H   7.34152257698148     -2.72443541775795     -2.63152314061940
  H   5.95540416163709     -5.22381641173897      0.57185230566551
  C   4.10271854173407     -4.70964119747888      2.35291380620462
  C   3.26191070783201     -4.89674246862520      3.44306323004988
  C   2.34047242650711     -3.87034483235128      3.77247995722810
  C   2.28543416065529     -2.71235126661434      3.02365558909956
  H   4.80825115392718     -5.50591761228502      2.11131048764068
  C   3.31102750932605     -6.15823078552793      4.27038607683988
  H   1.67102739888415     -4.00232536546359      4.62809873526888
  H   1.57242769998581     -1.92322785480568      3.28001718383722
  H   12.76139037946208      2.22754954208212     -2.68744813653804
  H   12.45452009795889      0.66460754402899     -3.46310656847798
  H   12.86236272575495      0.72856364287708     -1.73090400878002
  H   4.08827098171336     -6.85039813023635      3.91324978522685
  H   2.34540517649790     -6.69245510190289      4.24284008933834
  H   3.52012111039764     -5.93358132993183      5.33056607316052
