86
Coordinates from ORCA-job 4092_0.0
  C   -2.56592424392473      0.40912270910411     -0.81137746856996
  C   -1.83495161550602      1.09934617648405     -3.46426328005324
  H   -0.25176664617478     -0.34014673361324      0.67507182271981
  C   -0.02044858338908      0.02039310286473     -0.32120683972280
  C   -1.06235625879912      0.41699131216072     -1.17720818951617
  C   -0.71940110002661      0.81560394413713     -2.48818570933456
  C   0.61778037621682      0.89174065705613     -2.88721896536205
  H   0.85290110297027      1.21769784377007     -3.90474430055065
  C   1.64466385328334      0.54280518947626     -2.00819655449848
  H   2.68884821804778      0.60831727005123     -2.32544470787762
  C   1.31499242571137      0.09056539169173     -0.73152726418382
  H   2.10058864309405     -0.21562081186356     -0.03567047403665
  C   -4.91304105236965      3.38880052653642     -1.53841582862794
  C   -4.31539930765453      2.29010675449167     -0.89989320585259
  C   -4.45186618843855      3.80538682691171     -2.78211962546173
  H   -5.73352645234689      3.89576546262324     -1.02772714254096
  C   -3.25784987424459      1.59183362284885     -1.49915041334294
  C   -3.42563178712527      3.08866664846864     -3.40803884179424
  C   -2.84978677687309      1.97845247764793     -2.78759057027969
  H   -4.89706028982138      4.67327854112756     -3.27487251629007
  H   -3.07613552084195      3.38624691344164     -4.40108690318565
  H   -1.83720035075152     -3.41464403233632     -0.61618789028667
  C   -1.61624679882424     -3.08633680297188     -1.62864118000385
  H   -0.26080938339568     -4.72511945640461     -1.97915851778466
  C   -3.28703612067049     -1.08237036830808     -1.39101244730508
  C   -0.71208390158455     -3.82360485277248     -2.40176452769121
  C   -5.73891226904802     -0.94367142949943     -2.12239077658518
  C   -2.22100768259866     -1.92752994923954     -2.13686795819356
  H   -7.76664966529965     -0.79151190239424     -2.81276218691659
  C   -4.37894337699273     -0.77115300844765     -2.40737717897647
  C   -6.72019811558923     -0.64140817327365     -3.08314206263225
  C   -0.38899800893693     -3.41500247506337     -3.69423266634932
  C   -1.87891701170371     -1.51138265883913     -3.44463731203849
  C   -4.00285752297175     -0.34064193127196     -3.69539270844722
  H   0.31330782549391     -3.99168992035581     -4.30180717576250
  C   -6.34332967314543     -0.19039944665476     -4.34172423803352
  C   -0.97538986598903     -2.25506376390955     -4.20739603229052
  C   -2.52357065984585     -0.25876327000603     -4.00321049444227
  C   -4.98293034701050     -0.05641883714573     -4.64756671267568
  H   -7.10039603269095      0.03951253472546     -5.09547914260564
  H   -0.72962707117138     -1.91955354350825     -5.21923400799130
  H   -4.67917277750260      0.26892561896645     -5.64684109860348
  H   -1.42628008064421      1.61573091010486     -4.34368053365209
  H   -2.39468802638566     -0.25310951953950     -5.09428710048530
  C   -2.80286334331654      0.52676480449530      0.72238940088730
  O   -2.00410844576808      0.19139388665562      1.56586998534536
  C   -5.63939852556847     -2.67506509598650      1.25691671042475
  N   -5.19602741565211     -1.97139961388493      0.03792994108635
  C   -3.82091690108858     -1.83699639751929     -0.15855747670747
  O   -3.05444557344997     -2.29133349427210      0.66930050183487
  C   -6.19730001923040     -1.53036322997594     -0.83978385531828
  O   -7.37238691618241     -1.67825154141854     -0.56412931092128
  C   -5.80892366499923     -4.18203850414820      1.04166355251531
  H   -6.59512964490075     -2.22429070799931      1.55286123095379
  H   -4.88872606611507     -2.48460315368967      2.03330622978294
  C   -6.22261666245651     -4.91451679978730      2.32141690462020
  H   -4.85876643006500     -4.60110116315665      0.66729743072785
  H   -6.56773614709924     -4.34775778849022      0.25740949387221
  C   -6.42846079834252     -6.42034559842609      2.12367289394775
  H   -7.15505047692454     -4.46877260991664      2.71638488171829
  H   -5.45545144197806     -4.75078603826963      3.10165328933934
  C   -6.82226998691834     -7.15811029600339      3.40454851880690
  H   -5.50129606726273     -6.86136865865166      1.71349438613262
  H   -7.20334193166481     -6.58077951857438      1.35174847951200
  H   -6.04824347461014     -7.05167612870231      4.18369044746150
  H   -6.96458698129542     -8.23579254008205      3.22308609319516
  H   -7.76486144338230     -6.76417896152497      3.82145707464972
  C   -4.85102226535788      1.88791044626169      0.42324026764756
  N   -4.06417360285107      0.98291212041769      1.14249770999542
  O   -5.87709469752450      2.34172918127601      0.89265581037867
  C   -4.43236586717762      0.75714090746524      2.55358771282030
  C   -3.98046071998097      1.87539441899351      3.49782677188933
  H   -3.98089723271287     -0.19780898173727      2.85226294396561
  H   -5.52691273233624      0.66432520570701      2.57712651361909
  C   -4.41495050800654      1.62436339926095      4.94470192533687
  H   -4.40592596029261      2.83167693064136      3.14938890039742
  H   -2.88242051459574      1.96385431592328      3.44682711089573
  C   -3.98940538611163      2.73566744841081      5.91041964267055
  H   -3.99938835937369      0.66008084647496      5.29365805977621
  H   -5.51496533351002      1.51163585101568      4.98375063314567
  C   -4.43127096491156      2.49320566043070      7.35453877850837
  H   -4.39975267521892      3.69875565936065      5.55509310379414
  H   -2.89013544300628      2.84619607728512      5.87277356400780
  H   -5.52937045757852      2.41651142257386      7.43065115488656
  H   -4.10906159369458      3.31100584554861      8.01938642648633
  H   -4.00779933201570      1.55511484674723      7.75223709402605
