82
Coordinates from ORCA-job 4093-2_0.0
  C   10.73300521619348     -2.08059486086370      7.49796784664040
  C   10.49307772221355     -2.86430452242726      6.34921754492658
  C   9.38873921430777     -2.58658380760517      5.53245247611453
  C   9.85023246450652     -1.02298972940434      7.77796325566021
  C   8.74041752425772     -0.76303240509667      6.97481506173436
  C   8.50872576655779     -1.55387750232658      5.84053618161451
  H   9.22574491622264     -3.19772686476332      4.64348097303122
  H   10.06019886996106     -0.41910795717801      8.65900849748779
  H   7.65416438942934     -1.35671151287668      5.19434031299754
  C   11.86299592264492     -2.22117503558869      8.48193446871029
  O   12.45291290079947     -3.42062071010042      8.46780996416207
  C   13.53119031988511     -3.60622498235890      9.38613369623440
  H   14.32858347994631     -2.86896529330916      9.20702000233483
  H   13.90377305240385     -4.62345411013977      9.21331921356507
  H   13.18219197370290     -3.49563245958894     10.42426724441514
  O   12.18196532480177     -1.33549293575337      9.24246943075141
  Cl  11.52732686562637     -4.17063924224172      5.83061616991810
  N   7.84678067631957      0.30282775752731      7.30526718590217
  C   7.41354129328084      0.57622458725543      8.61431029156245
  C   7.32866503609686      1.20222405906201      6.35218047731054
  C   6.50552857679950      1.79605661169565      8.57136686518968
  C   6.44422330644452      2.21165450721494      7.08028120495207
  O   7.73857188892930     -0.05628755472897      9.59086730777125
  O   7.59497319354625      1.16776935971124      5.17600622147458
  C   5.00761819844222      1.57670705993091      9.00398582461439
  H   6.95008901734110      2.57643472884797      9.20774602221448
  C   4.90411109133526      2.23087341531672      6.72821423462187
  H   6.86159682785508      3.21431695985672      6.89861654794871
  C   4.41743276527464      0.41482891563823      8.17767414972165
  C   4.38502691994172      0.77775034193138      6.85610798312092
  C   4.40289730854339      2.71100001156332      8.12556651199515
  C   4.67846900452974      1.66063449869778     10.47598907466130
  O   3.74429620943162      3.65492942444632      8.44160700833277
  C   4.48353415560846      3.08045971752658      5.54654339175613
  C   5.33479216208283      3.30591100779269      4.45229416849020
  C   4.91929111794926      4.09205194810144      3.37178596817042
  C   3.20188891989376      3.66524141764801      5.52514360537651
  C   2.78962690642703      4.44965055471847      4.44587034282920
  C   3.64731404107332      4.66796424348459      3.36296555554442
  H   5.59866357999701      4.24781769827405      2.52934981505915
  H   3.32445276326368      5.28378922089342      2.51912315261636
  H   6.32068912438050      2.83994092782606      4.42527448271933
  H   2.52041912012853      3.51739994351972      6.36302658811059
  H   1.79192857397739      4.89700028631512      4.45529151665662
  C   5.66026477333038      1.62802728700049     11.47857337518984
  C   5.30832274591737      1.74016143415789     12.82822072533189
  C   3.96995571041020      1.88413597016687     13.19887538739499
  C   2.98197161225728      1.90983409556465     12.20910310345228
  C   3.33320363028511      1.79932063696405     10.86328162699249
  H   6.70756242460096      1.47348244200779     11.21601024605007
  H   6.08986193522189      1.70621286815620     13.59207745848235
  H   3.69558052020165      1.97122894720875     14.25365141338712
  H   1.92999354399071      2.01905412909810     12.48609335179068
  H   2.55004069403373      1.82519360990128     10.10299683577426
  C   3.92597380523912     -0.84405855940838      8.78129566766699
  C   4.06835605292601     -0.10408141421370      5.70444412507972
  C   4.65375006450883     -1.52780725207163      9.77215096497854
  C   2.68191786631935     -1.38200275537393      8.39137157780854
  C   4.16577156791164     -2.71317420317910     10.32796657163713
  C   2.93292942579555     -3.25328632054225      9.93581817432913
  C   2.19848085723325     -2.55844549139682      8.95824143278067
  H   2.08482644059524     -0.86085529591845      7.64006490355851
  H   5.61890227167464     -1.14420563383862     10.10612052451363
  H   4.76060082653590     -3.22616855392915     11.08933501980682
  H   1.22562692054403     -2.94531195630585      8.63903696467188
  C   2.40303945386421     -4.53222346416629     10.53652591167075
  H   3.06389306839864     -4.91170225151896     11.33021107392329
  H   2.30682804567621     -5.32316636571733      9.77264481668612
  H   1.40044864102696     -4.38553073968291     10.97255118475516
  C   4.63362255260055     -1.39411540785519      5.63843655187165
  C   3.21876765286646      0.28314448991769      4.64998466652115
  C   2.95220124705754     -0.58036171098134      3.58620897321015
  C   3.52298754364361     -1.86044742410457      3.51703249968303
  C   4.36732455199158     -2.24917571337002      4.56927558160633
  H   5.29098496393384     -1.73293405772926      6.44145646127084
  H   2.74436310887829      1.26346881304116      4.66361508028749
  H   2.27925167127700     -0.24689041210541      2.79036471224688
  H   4.82562948237038     -3.24278902146667      4.55403634286452
  C   3.25918965438166     -2.77163704976386      2.34345489829594
  H   2.22541556805889     -2.67066408087636      1.97676011106082
  H   3.42876198139981     -3.82777341830524      2.60372574796399
  H   3.92684942068691     -2.53107388780807      1.49684809638196
