82
Coordinates from ORCA-job 4093_0.0
  C   11.99585592426009      0.06234642519272      8.12681855943365
  C   12.77474001134494     -0.38039058081674      7.03478226534680
  C   12.15504032323282     -0.99071054277689      5.93647487741869
  C   10.60534729088666     -0.13929658378783      8.07460128636864
  C   9.99258500948321     -0.74675786696823      6.97926046060072
  C   10.77646002887588     -1.17552988415166      5.89966925278592
  H   12.77500218906672     -1.32792790845275      5.10445149923221
  H   10.02005855740854      0.19389861663893      8.93132992046868
  H   10.31411048985019     -1.64200606399817      5.03076743957107
  C   12.47627515338577      0.74364567218999      9.38049166237450
  O   13.73211978587149      1.19790096093951      9.31038458771686
  C   14.23019510364211      1.86017381587644     10.47285508866910
  H   13.62169896443678      2.74674498813361     10.70856765860146
  H   15.26030675748714      2.15362332518614     10.23520222872752
  H   14.21406139136008      1.18678432855645     11.34356618984292
  O   11.77424684607847      0.89364483987030     10.35432263301918
  Cl  14.51381699173353     -0.25295902758848      6.95713657832729
  N   8.57521711771556     -0.92527882303853      6.96763153176734
  C   7.86171047533684     -1.47730966112721      8.04981622473846
  C   7.76861683258286     -0.70767347645496      5.83571470637675
  C   6.36990135826161     -1.49299319209551      7.68974243431471
  C   6.31648483239943     -0.96426141122960      6.23008600044536
  O   8.38191665474749     -1.90643803856149      9.04781348917737
  O   8.18130986463847     -0.40043190207497      4.74606341492048
  C   5.43268380334161     -0.50410505467120      8.50141634679266
  H   6.01364189529077     -2.52711817781319      7.79596369497149
  C   5.41740091398968      0.34303433866961      6.29296333591914
  H   5.88590957401288     -1.67702002653581      5.51355725587596
  C   4.01660118583809     -0.67808606903407      7.90549117870443
  C   4.00535559024222     -0.18556242471186      6.63473272374322
  C   5.78021294932198      0.80263977104908      7.72923995560397
  C   5.50071968849174     -0.44272222151378     10.01241244355801
  O   6.19662730580133      1.84396244642585      8.14730406985242
  C   5.53803905690979      1.30621906033030      5.12988863224611
  C   5.48692114113220      0.82037512938346      3.81144236931064
  C   5.54176807687807      1.68930585835584      2.72155578795687
  C   5.64852807192054      2.69368961186431      5.32466914931110
  C   5.70562962667203      3.56469861508535      4.23061679355831
  C   5.65133186584191      3.06828737498968      2.92673601361882
  H   5.50243958097975      1.28561994093201      1.70636292303831
  H   5.69896412332622      3.75032663751418      2.07341367841106
  H   5.40362299169178     -0.25228730724896      3.62771685868957
  H   5.70853292111913      3.09522600655471      6.33526292070719
  H   5.79765152461923      4.64018874460419      4.40530939752267
  C   6.00646066824693     -1.48698681392399     10.80207127699147
  C   5.97930063048219     -1.40843508349948     12.19790950461804
  C   5.44505119434671     -0.28523222611203     12.83230953810337
  C   4.93441235133284      0.76056380067856     12.05796807062801
  C   4.95978856460018      0.68082075223655     10.66449605604455
  H   6.45052618057903     -2.36485142283149     10.33476297496735
  H   6.38492706724822     -2.23334650299123     12.78974214286445
  H   5.42756417222394     -0.22343246822917     13.92376164003072
  H   4.51261307025194      1.64661105256522     12.54000212735221
  H   4.55413416893086      1.50655965186893     10.07811320539671
  C   2.88035619674071     -1.28097926681963      8.63622118025966
  C   2.89941121821501     -0.27192648332759      5.65096706467298
  C   3.01742586143383     -2.48010569075153      9.35759626414625
  C   1.61225914006243     -0.66596449036365      8.62586579925225
  C   1.92939093511368     -3.04774045187145     10.02460623994613
  C   0.66702545735324     -2.43745620055830     10.01192177864416
  C   0.53303898023857     -1.23279280324320      9.29971697674747
  H   1.47896917190014      0.27447244106238      8.08758896524490
  H   3.98325769442930     -2.98700125515219      9.39632289724404
  H   2.06785151525126     -3.98522361321998     10.57109482192283
  H   -0.43669282194768     -0.72595683431153      9.27698731887367
  C   -0.50968621006101     -3.03840512386976     10.74116005683144
  H   -0.24904548515713     -3.99836606163586     11.21135849010900
  H   -1.35728376829630     -3.21528078981359     10.05747552509195
  H   -0.87464087961244     -2.36398882268124     11.53478796095854
  C   2.35062750564938     -1.52328699381760      5.31789638177972
  C   2.36541633527676      0.86871516987979      5.02087349173745
  C   1.31960838558058      0.75537273181657      4.10555795762021
  C   0.77277199734285     -0.49476602408405      3.76831288484855
  C   1.30980387650331     -1.62981440186696      4.39288763954836
  H   2.74253429741615     -2.42512892267960      5.79429169967193
  H   2.76679484944514      1.85566614378986      5.25784996774739
  H   0.91946646813460      1.66122616643999      3.63990949480215
  H   0.90553200121446     -2.61821114930945      4.15466438688553
  C   -0.33958532725542     -0.60569278675278      2.75421462005703
  H   -1.13078919919059      0.13903958723423      2.93977172995289
  H   -0.80212044287724     -1.60410534932829      2.76695153170890
  H   0.03563433734535     -0.42658972821718      1.73115481705939
