54
Coordinates from ORCA-job 4096_0.0
  C   7.76635702914586     -1.03579548382832      7.27340393437141
  C   7.59259788423622      0.03432149155304      6.14458497211614
  C   6.26658096494744     -1.43934033146248      7.61053841766847
  C   8.62510256134092     -0.64895066605979      8.46563956295064
  C   6.03757427493954      0.08443381668294      5.91821097068577
  C   5.60541202153813     -0.20495223266654      8.21093284297319
  C   5.44976044273763      0.70738256449984      7.19995769846136
  C   5.65958082741416     -1.39365597943552      6.17970746810138
  C   6.09658050097112     -2.79315465747178      8.30038307200247
  C   5.59461939384229      0.66497876679152      4.59118872889695
  C   4.22674109194238      0.88671740948363      4.35414372040739
  C   4.70114174456859     -3.18928250703004      8.74435845275531
  H   4.27462806483712     -2.44360460175159      9.43303655960466
  H   4.73923708687205     -4.17620898567855      9.22380763047260
  H   4.02653605040644     -3.23309913986940      7.87296068089710
  H   6.15035603870723     -2.10170764309765      5.49541809783369
  H   4.57286931629758     -1.55786513074746      6.16334384334573
  C   5.08345348248946      2.06061467954872      7.39042355103563
  N   4.76264688106568      3.16774172242729      7.56600716448453
  N   5.33472486050641     -0.06139163849270      9.53889578919272
  H   5.11666819184406      0.87427648313002      9.87065983655312
  H   5.86173104124399     -0.62476345654719     10.19679133703943
  O   7.03615762597315     -3.55097192045052      8.42299693630955
  C   6.52627256430178      0.95706361038639      3.57152323638255
  C   3.77351460692783      1.38472280720509      3.13345806891811
  C   4.69499257123574      1.67068853841755      2.12094361695543
  C   6.05445747861986      1.45608568100645      2.34587735608863
  H   3.50658727608658      0.67127092244691      5.14834406633839
  H   2.70528045420977      1.55262502475461      2.97361778171677
  H   4.35430458254696      2.06090567684865      1.15811673355522
  H   6.77564577374826      1.68044003281558      1.55380476006269
  C   8.34490148490555     -0.27919017900343      4.84906343415782
  H   7.92792091166581      1.02369030886973      6.49009697354896
  C   8.01731132608045      0.76913102334071      3.78370462098433
  H   8.06685136387504     -1.28318682150316      4.48155887444763
  H   9.43107294122791     -0.30538634481915      5.03969405338929
  H   8.49570836267149      0.50747502259054      2.82565999522474
  H   8.45932870149546      1.73863662470990      4.08371428904496
  H   8.21015167968218     -1.94363131233820      6.83983543900719
  C   9.46161150471299     -1.61230702722444      9.05795270179829
  C   10.26253586922185     -1.29917679842920     10.15705188908681
  C   8.62150151980837      0.64629212099623      9.02113351177635
  C   9.41740767332849      0.96036543227643     10.12084634582164
  C   10.25215831930902     -0.00648847778432     10.70661840096845
  H   9.46769433190211     -2.62721264211392      8.65597095016013
  H   7.99396853997069      1.42686474653547      8.58586766957936
  H   9.41665764595875      1.96561457187925     10.54791774525148
  H   10.89859835993492     -2.07815289089855     10.58282652276199
  C   11.09166855280430      0.39618960222097     11.88736043968750
  C   12.01806422392569     -0.63506376222874     12.50837940460042
  H   11.45330833366091     -1.51098548811491     12.86750238394564
  H   12.54681484953748     -0.17160733576882     13.35119498867814
  H   12.75206808956528     -1.00077332435993     11.77166372875240
  O   11.03007272920980      1.52576809775891     12.33392874914814
