74
Coordinates from ORCA-job 4097_0.0
  C   6.17095666080565     -0.82560918221717      7.15283373407271
  C   5.95954851165980     -0.75966762087845      5.54835660303063
  C   4.85712488801024     -0.18138354312840      7.76864940502596
  C   4.52165069718114     -0.01129485089916      5.44567176016816
  C   3.63919990014899     -1.04048408889412      7.38999102702122
  C   3.42665084390737     -0.92038215992336      6.04614314927367
  C   4.60069457812133      0.89316122912848      6.69904521281163
  C   4.94386054129429      0.30982617073672      9.20363244418599
  C   2.25082457442460     -1.43466100021211      5.29662410066777
  C   2.86070851896017     -1.87632333005396      8.34192799540784
  O   4.44215066854424      2.07748181100194      6.81805001288948
  C   7.10000567643082      0.03463534978953      4.87940609893817
  C   7.43432969326582     -0.12615849055133      7.69475168196263
  H   7.38351657420906      0.96543903183502      7.57701834334226
  H   8.33774573192227     -0.46873821882072      7.17209897075399
  H   7.54910755498526     -0.36271771959909      8.76169253857268
  C   8.20011999780207     -0.60611935766143      4.27861634584557
  C   9.27360716508293      0.10944089025546      3.73850849797489
  C   7.14071123432295      1.44508793649708      4.91398800562946
  C   8.20978467535662      2.16583588065215      4.37358551939198
  C   9.28624256433915      1.50410522063177      3.77935868641053
  H   8.23048460335874     -1.68996111920400      4.20931333014537
  H   10.10227350658166     -0.43632970518628      3.27901917418437
  H   6.33552449274793      2.01536412769655      5.37446966284988
  H   8.19486724596220      3.25797047859926      4.42423154968330
  H   10.12197721448499      2.06714439849113      3.35561729736130
  C   6.31784403325343     -2.31304227747767      7.50172805062011
  C   5.85350313505413     -2.29292574656516      5.13829763342998
  C   6.54877672047894     -3.14059699635470      6.24317685997338
  C   8.04852730150261     -3.47997969869721      6.13492322136400
  H   6.00965570977261     -4.09178951670823      6.37883934501023
  H   8.32996106676192     -4.12255888094836      6.98326568152180
  H   8.68986213695498     -2.58812105949774      6.16732422352916
  H   8.27155361592330     -4.02229918801587      5.20408319549284
  C   6.02762173459051     -2.76190004956393      3.69382257052102
  H   4.79343381117453     -2.51326903836528      5.33701698629643
  C   6.16427264308415     -4.14008392563497      3.43110500535049
  C   6.21748913206857     -4.63656214086894      2.12569319559420
  C   6.12904650093523     -3.76637252708170      1.03618313037660
  C   5.92960949932764     -1.90536273258875      2.58255620397094
  C   5.98083730420392     -2.39824460631865      1.27450888922812
  H   5.90605813389663     -1.69999003510993      0.43636518823295
  H   6.17198163795484     -4.15081957223811      0.01380265279237
  H   5.82305468602509     -0.83238660145490      2.72973838452387
  H   6.21753398927448     -4.85006813532026      4.25874019890183
  H   6.32514931519448     -5.71256021137374      1.96306140940882
  O   6.30910819607098     -2.75009098870057      8.62803714338511
  C   4.11681176699512      0.70535628689419      4.16328417641770
  H   4.91925947044813      1.34305663250347      3.77335013862225
  H   3.25124841227233      1.35351896964152      4.36962671376881
  H   3.82151846040461      0.00446333072330      3.37261329401485
  H   4.02918254160866      0.85264141916499      9.48001166014170
  H   5.77498925320060      1.01643921911987      9.32812644918264
  H   5.08600888549135     -0.52788204172528      9.90096155053057
  C   2.16305157900513     -1.32083196649256      9.43178670189939
  C   1.43507284400376     -2.13139566594231     10.30653723331526
  C   2.80114658519874     -3.27132227184357      8.16099686547157
  C   1.39230710239403     -3.51554461537959     10.11623908315059
  C   2.07749420507205     -4.08202582822135      9.03768924488305
  H   3.33382507277837     -3.72553942237271      7.32278517725737
  H   2.16701010053441     -0.24059784065816      9.58536503491472
  H   0.89500898364970     -1.67535728053930     11.14077465856297
  H   0.82622217880875     -4.14914632144371     10.80419525066403
  H   2.05232165490105     -5.16317250922588      8.87730002922249
  C   0.95448676451389     -1.20894397265242      5.80370835262350
  C   2.36775419124378     -2.13037665788685      4.07651014736723
  C   -0.17615759062810     -1.66943699064439      5.12711838868922
  C   -0.04117069311057     -2.36867501579954      3.92369382028646
  C   1.23538526535370     -2.59611122627678      3.40257477406816
  H   3.35032332790186     -2.32493538610910      3.64457176524062
  H   0.83687528893272     -0.65630682041394      6.73736857570298
  H   -1.16930817604657     -1.47705513570060      5.54192966964325
  H   -0.92622207205967     -2.72967319900235      3.39297827188749
  H   1.35648597971853     -3.14011389891769      2.46200265534497
