42
Coordinates from ORCA-job 4098_0.0
  C   -8.29089608952720     -3.05667302079962      3.41133047044657
  C   -9.12136536298609     -2.69711330698926      2.35436629050367
  C   -8.53430515749385     -2.71109162038462      1.07656602149259
  C   -6.96118546091720     -3.43092527555866      3.22094016241769
  C   -6.36404113614255     -3.44005978737523      1.96407011849119
  C   -7.18827217498799     -3.06849121578605      0.88694313664145
  H   -10.16882077113295     -2.41360245070696      2.48901731913373
  H   -9.13510560302703     -2.43292745051703      0.20586267865449
  H   -5.31946806203812     -3.72002557135048      1.80211246096189
  H   -6.77681043618504     -3.06016961216363     -0.12652776561672
  C   -8.23335177210672     -3.20797723760207      4.92704349395062
  C   -6.71794290345437     -3.73179686678464      4.69563133412867
  C   -9.19101355277447     -4.12357260179879      5.64708114349426
  H   -8.20538683668316     -2.23042364843537      5.43595286736091
  H   -6.67384994520321     -4.81583732535144      4.89104575785465
  C   -5.61185618797183     -3.03819752926201      5.45035974969867
  C   -9.50293349307474     -3.90588808182258      6.99742947857197
  C   -10.35122896232049     -4.77300580012485      7.69242689884265
  C   -10.92375030166706     -5.88811028373168      7.06381875884875
  C   -10.61241048960274     -6.10338317106747      5.71005369806704
  C   -9.76495758676314     -5.24055315547306      5.01465830944745
  C   -5.14597534608818     -1.76505327209078      5.07727371500291
  C   -5.04177520605572     -3.63555316840311      6.58438590163224
  C   -4.04701036277569     -2.98572384561847      7.32119384574449
  C   -3.58127776540272     -1.71595585377678      6.95095234854413
  C   -4.15225929005482     -1.11943370774673      5.81339793167551
  H   -5.56472727975147     -1.27592291607507      4.19318764545224
  H   -3.80822322084856     -0.12970443512981      5.49598609444138
  H   -5.38173891126830     -4.62743034351732      6.89766295987140
  H   -3.62206797705566     -3.47923529746647      8.20068956285793
  H   -9.07465651672292     -3.04240167617620      7.51549120446806
  H   -10.57568034262207     -4.57511524718797      8.74511991397553
  H   -11.04547927963432     -6.96358201183812      5.18937380907019
  H   -9.54757998336290     -5.43283504214278      3.96016926551107
  C   -11.85424115816055     -6.82085780788624      7.80140503124084
  H   -11.89898116242138     -6.58309078880576      8.87493421615856
  H   -11.53439102460729     -7.87156071087166      7.70070180361621
  H   -12.88207119711548     -6.75985979429285      7.40311882856928
  C   -2.49640872859396     -1.01224954720554      7.73052870958165
  H   -2.23200109690594     -1.56347630756673      8.64559848268464
  H   -2.80741892075668      0.00394759477778      8.02589917233864
  H   -1.57691294373519     -0.90294080789380      7.12947717417075
