33
Coordinates from ORCA-job 4100_0.0
  C   -5.92613280091388      8.04387903864016      1.91071223730891
  C   -6.81110219696736      9.14315634336479      1.35973237054792
  C   -7.77359482162726      8.52717940413074      0.66295688839718
  C   -7.51149011943123      7.02761031427316      0.76788444870062
  N   -6.91855888672985      6.98054383951610      2.12926031139647
  C   -6.43308722691191      5.71190418666321      2.63874367497605
  H   -7.27972212359595      5.02718303697581      2.80394046060958
  H   -5.95903305926453      5.88177508608971      3.61894842575258
  H   -5.69373903580672      5.18108623900142      2.00001221767725
  C   -5.10254569672361      7.47751585976594      0.67061711087383
  H   -5.31086484896572      8.27945675902128      2.78929176454088
  C   -6.21419739627735      6.77346662890807     -0.14576245517297
  H   -6.61213769813033     10.21163249761135      1.44349041524382
  H   -8.54967849340711      8.98066910641550      0.04477796223073
  N   -4.53943871059250      8.48067149393378     -0.24083252216505
  H   -4.28956982027974      6.82618167121453      1.02892812195137
  N   -6.12598643182902      7.51441956982702     -1.39326028177376
  H   -6.06206144928890      5.69179243023447     -0.30779112863080
  N   -5.12429347339747      8.43505212816937     -1.34753290838113
  C   -6.51745695946711      6.98018479181401     -2.68887219833338
  C   -6.74132186738538      8.06490745365823     -3.73796287855567
  H   -7.44860165631304      6.41248655638295     -2.53306616224065
  H   -5.76195812947279      6.25148191318140     -3.05204811591741
  H   -7.52950224110854      8.76418207894354     -3.41721224045298
  H   -7.04617772042818      7.60645426874623     -4.69214026667572
  H   -5.82331887039243      8.64520359189190     -3.90516205550810
  C   -8.68546841115127      6.09089373371862      0.51319914570558
  C   -9.86714745422030      6.29245128569721      1.46516379183314
  H   -8.33316715345961      5.04492505984445      0.56496647009249
  H   -9.01542578552967      6.24025679445574     -0.53025831394258
  H   -9.56316366353439      6.14452626132701      2.51259121252477
  H   -10.68316719058429      5.58759189870374      1.23854324441205
  H   -10.27331860681246      7.31373867787847      1.38917125297499
