35
Coordinates from ORCA-job 4104_0.0
  C   1.35564923747814      0.73007144672833      2.51271088704220
  C   2.36351921846574     -0.23144619589878      2.34469576771528
  C   2.37543724181198     -1.02575793923177      1.18527115699909
  C   0.36655106676119      0.88366570330147      1.53920215648030
  C   0.35966045311301      0.08598604794833      0.38402229074166
  C   1.39071330297282     -0.85772812224788      0.21955953930928
  H   3.17175862017894     -1.76328141136588      1.06392235536660
  H   1.35310348010786      1.36819762649088      3.40248123355382
  H   -0.38404434976313      1.66569660516094      1.68195411747390
  H   1.39830015001057     -1.45523717554284     -0.69448469627446
  C   -0.64915432044013      0.20516139261032     -0.72500997736562
  N   -1.86474366413722      0.75533898034919     -0.33726256184566
  N   -2.85616090327690      0.96593448863343     -1.24077540820696
  C   -3.96879437481831      1.40586858035588     -0.82253325104987
  C   -4.55789665296115      1.91952845025459      0.53232592938287
  C   -5.43849288788838      2.81514827906565     -0.39336684535716
  H   -3.88333388545612      2.43244979113939      1.23664923404908
  H   -5.10481744784234      1.12310139517111      1.06529671286360
  C   -5.27017766348981      1.78678233296013     -1.50879441517889
  C   -6.86362291105164      3.32009875688691     -0.62306705446005
  H   -4.77959868334275      3.65836304348076     -0.66572858287671
  C   -6.85388122402598      3.32029657462939     -2.17534570242967
  H   -7.09127677262223      4.31268128242499     -0.20057194146402
  H   -7.63232325161886      2.61353216107115     -0.25289318833646
  C   -5.90033417193242      2.50074008521139     -2.68069159541041
  H   -5.93591266717429      0.92616010199468     -1.26430629701769
  C   -7.85422155754690      4.12154717596599     -2.95021380630633
  H   -7.71779699655794      4.00319995202768     -4.03594898949085
  H   -7.78050996525232      5.19712911343432     -2.70843362226416
  H   -8.88699399891829      3.81631897385014     -2.70120696709293
  H   -5.74002545578524      2.30404020677658     -3.74274921099117
  O   -0.41898673229485     -0.16678115675575     -1.85650823085156
  H   -2.05615094678884      0.88168918879763      0.65552492324349
  O   3.34650163616906     -0.42932258828094      3.25558827467120
  H   3.23249707791680      0.17984685260258      3.99739776537823
