76
Coordinates from ORCA-job 4106-2_0.0
  C   -11.76467960876881      8.94216700483483     -0.34420506608880
  C   -12.43389576264273      8.13357812238159     -1.48241603037179
  C   -11.05081624980637      7.64219431473904      0.14376650838540
  C   -11.93830780806167      6.78042397618557     -0.81829480323393
  H   -11.20560990348615      7.42988829786699      1.21156014791403
  C   -9.54856016613818      7.58284924372959     -0.13595602026027
  C   -12.90661165803999      5.76752770018891     -0.23144439236937
  H   -11.32095715121527      6.23497536185584     -1.55066606429629
  C   -12.75866775230585      9.64616705072366      0.61365224664765
  H   -11.07203741069489      9.71148735444480     -0.71968550081247
  O   -13.80795923240209     10.28835778860111     -0.17892760692644
  C   -14.40857663944918      9.60280985625112     -1.16900159332723
  C   -13.84155744373639      8.52473436307441     -1.79934148258613
  H   -11.85741776252103      8.24805689525250     -2.41389327147083
  C   -15.70720573235810     10.10310930610969     -1.57120580235578
  C   -16.36890075583910      9.46722101205355     -2.65743760204737
  N   -15.75990861637022      8.40991790077066     -3.31661367704764
  C   -14.48164734215108      7.92959969273223     -2.96592602337851
  O   -13.94055155003115      7.05156121864517     -3.63700816715773
  C   -16.42400736279844      7.77459834199203     -4.44838581480300
  C   -13.48302190438155      8.74035386172443      1.61688940250687
  H   -14.00210059565512      7.90600051140190      1.12601922567191
  H   -14.22859317073418      9.34004636765030      2.16065162307000
  H   -12.78499319945118      8.31946471816685      2.35423802054353
  C   -12.07545801092306     10.80248133925050      1.34216286299789
  H   -11.67516619159656     11.53022347417206      0.62029961664617
  H   -11.24205584582728     10.42427312377926      1.95426817680292
  H   -12.78582355304562     11.32296076745313      2.00295185360120
  C   -8.68774401440788      8.55146640871803      0.70079847496795
  C   -8.88319769305661      6.22586414859085      0.16088320858535
  H   -9.38346577264775      7.81386114422980     -1.20746756236110
  C   -7.23961616037281      8.01205092383805      0.58985912671008
  H   -9.02841201959483      8.51029889885078      1.75131474043432
  H   -8.77789123143283      9.60042734117492      0.37716168195947
  C   -7.37392248080445      6.53234240401928      0.12383778244778
  H   -6.70764027003388      8.09557397031687      1.55076493436497
  H   -6.65564744513293      8.59732034730381     -0.13833252256780
  H   -6.78926704074629      5.83604040044483      0.74536610574449
  H   -6.99785370716045      6.42370851771256     -0.90687894316935
  H   -9.17834586111025      5.42941790768253     -0.54011639264372
  H   -9.18306664412048      5.89285058551945      1.17169966291368
  C   -13.87295217639851      5.16711369845606     -1.06417715054563
  C   -12.83006063573419      5.31218915992364      1.08946522398430
  C   -14.74877930706177      4.19040452469409     -0.59637251042384
  C   -13.69830917716149      4.32542972859519      1.57950484698827
  C   -14.67435742394452      3.76131295639904      0.75293341965752
  H   -13.95456939590526      5.45975821410329     -2.11260063634568
  H   -12.08366633167330      5.71860641862048      1.77397588247354
  H   -13.60638864149661      4.01104907382794      2.61985910827975
  O   -15.70682690219261      3.70209111552076     -1.44301276874953
  O   -15.57915736765033      2.82338633416746      1.14688864983776
  C   -15.57049261713974      2.38424570421987      2.48489510154310
  H   -14.61468157435116      1.89840754956816      2.75576370995954
  H   -16.38168151563475      1.64909386603213      2.57994673863728
  H   -15.75622346087680      3.21454140475318      3.19084450102258
  C   -15.59635181555035      2.34145382130924     -1.82773594245438
  H   -14.63292733848791      2.14670118995547     -2.33512453788389
  H   -16.41387257186716      2.14525666962954     -2.53689378160447
  H   -15.69557333536227      1.65993100352606     -0.96702382051367
  C   -16.33154217089354     11.18278737181893     -0.92291803334279
  C   -17.58142635767793     11.65581754760948     -1.30551218079294
  C   -18.22612917440833     11.01680375738221     -2.37852968267149
  C   -17.63621594525136      9.94175173267885     -3.04391103808954
  H   -15.80499747214096     11.65536944382121     -0.09291818525009
  H   -18.04702977988545     12.49460888383955     -0.79753377586489
  H   -18.18940167651645      9.49141655637934     -3.86495050609017
  H   -15.76026804828321      6.98348434919450     -4.81259652845305
  H   -16.60482205982989      8.49992312838525     -5.25826166235252
  H   -17.38633129260680      7.33605665491795     -4.13988104560042
  O   -19.47628349114035     11.34716586091474     -2.87722255443534
  C   -20.23227394287813     12.42509632623796     -2.52284908731052
  C   -21.51621977344989     12.41759940723549     -3.31544038639024
  H   -21.29353587688573     12.45010522138169     -4.39340182760579
  H   -22.12605872726354     13.28311991634125     -3.03002651233145
  H   -22.06999965174382     11.48482164774317     -3.12566522959821
  O   -19.92069424960145     13.25023779638234     -1.70666886132314
