56
Coordinates from ORCA-job 4108_0.0
  C   -6.58442488874235     -3.76318447990860     -7.26767132080821
  C   -7.80568460222999     -3.28663832600204     -8.11029365324926
  C   -5.27410111020679     -3.04318260145488     -7.59153599275050
  C   -5.45317677442727     -1.52823432606953     -7.64607494308578
  C   -6.76290036991899     -0.97289212073724     -8.27648585252082
  C   -4.59662385902730     -0.54854324697915     -8.52784475141637
  H   -5.36304073430274     -1.23658455872980     -6.58438365568131
  C   -7.68754122110226     -1.99778951329139     -8.91283153895315
  C   -6.93787316887638     -5.23410584846914     -7.68130567661793
  H   -6.70067095662524     -3.60167412008643     -6.18014411970739
  C   -7.86463246359678     -4.66036572649211     -8.83322150711323
  H   -8.70296473082009     -3.16783122706545     -7.47883081190956
  H   -8.84896033254175     -5.13889603128217     -8.90754558114345
  C   -7.19992928509892     -4.67405080021165    -10.18747386231254
  O   -7.78096849286845     -5.54637828461054    -11.01679579399070
  C   -7.18825883253691     -5.70083978661034    -12.30914058922597
  H   -7.77681327615980     -6.47054393730818    -12.82326498988350
  H   -6.13842000651028     -6.01739084224291    -12.21917069696744
  H   -7.22823523251068     -4.75370358907947    -12.86807064504796
  O   -6.22745414329987     -4.01417322334448    -10.48150495470190
  C   -5.94543091575200      0.03748821383453     -9.14170409835748
  H   -7.40071720227384     -0.44834028076760     -7.54213028749113
  O   -4.19139533821956     -3.57678153906022     -7.62412485010012
  O   -8.35418011151801     -1.79003275316165     -9.89975242548001
  C   -6.20276316545676      0.10833492422230    -10.63613239884085
  H   -6.10282243002848      1.06562125610883     -8.79370419229179
  O   -5.93599059350356     -1.04033367511744    -11.26393102867395
  C   -6.25286862920034     -1.10802473402007    -12.65103247057678
  H   -7.33648144868267     -0.98240859875537    -12.79892332334230
  H   -5.93487227299530     -2.10377196274415    -12.98352021561248
  H   -5.72320202517139     -0.32475813804731    -13.21392201700652
  O   -6.60503143029352      1.10160455259947    -11.19348290625671
  C   -5.99586754833376     -6.39279864019812     -7.92719542949277
  H   -7.64062930518563     -5.57612437819294     -6.90697063582744
  C   -3.42698834948972     -0.97852949153204     -9.38793103874273
  H   -4.20173522198157      0.22980117117837     -7.86074933327203
  C   -6.33798224335715     -7.63909553319940     -7.36946881836272
  C   -4.83256199246562     -6.32116460455590     -8.71552744782585
  C   -4.04966129728023     -7.45848551249716     -8.93337975906123
  C   -4.40686695897735     -8.68980232802198     -8.37561546709920
  C   -5.55782169911657     -8.77705834174906     -7.58859511536627
  H   -7.23662964503480     -7.71936886542445     -6.74955457666557
  H   -3.78827582837852     -9.57461542749855     -8.54895000175553
  H   -5.84948346987336     -9.73090984890213     -7.14059949532487
  H   -4.52193526795392     -5.37220456125219     -9.14558591641514
  H   -3.14457251245294     -7.37596149101552     -9.54136893201926
  C   -3.42634908437171     -2.11307540480903    -10.21937337174005
  C   -2.30292956440668     -2.43018481459940    -10.98640419483493
  C   -1.15935255017051     -1.62521623817355    -10.94914910165587
  C   -1.14632924055715     -0.49329766968326    -10.13178270429029
  C   -2.26913253822514     -0.18082874371302     -9.35976954401625
  H   -2.24395647372882      0.70447066155821     -8.71643373935272
  H   -4.30685813717915     -2.74927608411268    -10.28257190319550
  H   -2.32246017280917     -3.32062976716675    -11.62125668893592
  H   -0.28368713318702     -1.88127508558292    -11.55215595981381
  H   -0.26086372098467      0.14678632402798    -10.08774967381600
