88
Coordinates from ORCA-job 4110_0.0
  C   1.94735456469775    -11.73886894880748      7.53064554517718
  C   0.56083223513206    -11.33706065559798      6.94385886095036
  C   2.36752359398055    -10.77133744465565      8.67013709368891
  C   -0.03312390545798    -12.17379213714683      5.72623246485064
  C   -0.85152418194484    -11.16218961315185      4.82656621845863
  C   0.71262547709023     -9.98848358471757      6.17813443484929
  C   -0.62156807825137     -9.75033707637118      5.50606767735809
  C   -0.50502044654791    -11.10827282095219      8.01976455462263
  C   -1.59535968296030     -9.37565279013533      6.60893845353118
  H   -0.57048604462633     -8.95132409976020      4.75561037079091
  C   -1.51965891400706    -10.05499749582347      7.78320859093207
  O   -2.36529460359246     -9.85596047074146      8.81731253556135
  C   -2.61864540655275     -8.31358037580516      6.34743832409446
  H   -3.21360400188596     -8.10096733415806      7.24518420818426
  H   -3.29980857007469     -8.62915978797314      5.53819298061944
  H   -2.13176997480485     -7.38126318299941      6.01116149466146
  O   1.71311218355340     -9.33324328489211      6.06075395329773
  O   -0.53378059638072    -11.71422600228338      9.08561748659377
  H   -2.05336940763240    -10.45543856963526      9.52431065691741
  C   -0.88285670575909    -13.45737442047522      5.93056174807590
  H   0.85452892523346    -12.47787324134227      5.14739327254181
  C   -2.37993941685129    -11.38785677528962      4.79670141586001
  C   -0.31252132175662    -11.13718578655072      3.38880047237175
  C   -2.27524167485585    -13.17295724733628      6.50637036318517
  C   -2.99324979035142    -12.21130238778043      5.87561026811008
  H   0.72836411850776    -10.77752067342269      3.36886556753560
  H   -0.93245919534437    -10.47790782556557      2.76559793689745
  H   -0.33378850475705    -12.14471172639938      2.94142388694573
  H   2.65034758134236    -11.56800934946005      6.69653730614973
  C   2.11663314923127    -13.19225877294600      7.98665434500235
  H   1.32834817516874    -13.48604348812167      8.69168262520902
  H   3.09074688720999    -13.30489637376114      8.48897250138841
  H   2.10970997755114    -13.89245440937017      7.14311430418774
  C   3.89239516344122    -10.57505636266470      8.77522904146506
  H   1.97806854916344    -11.15012065863431      9.62889096721672
  H   1.91136683675479     -9.77967279265326      8.52554737595255
  C   4.28125696651806     -9.62193307965910      9.87307992091182
  H   4.24918391688166    -10.17021651897111      7.81020014589457
  H   4.38941352076328    -11.54912289670787      8.90541836287617
  C   4.93903678689480     -9.87992695374496     11.01913428740020
  C   5.22972821075649     -8.77899076333086     12.01129801158839
  H   6.31696126032714     -8.67483000567672     12.18282270527369
  H   4.78197960584339     -9.00329277337249     12.99692101221012
  H   4.84285063790174     -7.80550431479916     11.67410652984628
  C   5.44329169108515    -11.24081221602389     11.43309622279795
  H   6.53725055669989    -11.22201267517045     11.58938976358804
  H   5.22026491917461    -12.02988359008203     10.70230664207392
  H   4.99908430540594    -11.54104160658657     12.39943864906877
  H   3.96155307917045     -8.58389811723244      9.70710289603395
  O   -3.06184992643329    -10.81422199052118      3.97108499843117
  O   -4.28600313245472    -11.87651171799864      6.09948458787615
  H   -4.63404990452011    -12.38351182418304      6.84485542109128
  O   -0.24903609600709    -14.47863461410147      6.66728647498765
  H   -1.02706315674133    -13.84429601499279      4.90198970424419
  C   0.41524818049911    -15.46653830194874      5.90833517595299
  C   0.80548700763417    -16.60823116419100      6.83385856627597
  H   1.32620776603131    -15.06832828764900      5.41986541337687
  H   -0.24265741158303    -15.85709125205179      5.10760674850322
  O   1.45706576074701    -17.57687845799668      6.05466252516010
  H   -0.10436936091471    -17.02030489235052      7.31926410916357
  H   1.46136131268349    -16.23008718518421      7.64442453571636
  C   1.89579291139623    -18.69396336315691      6.78155236677856
  H   2.62146070144443    -18.41494726865459      7.57289082408807
  H   2.39036022688347    -19.38017216588016      6.07825539893020
  H   1.05472272221056    -19.23128320001551      7.26609235773409
  C   -2.80938267738795    -14.07353676229047      7.60855628748977
  C   -3.71785628160948    -13.35926492118369      8.64311754615815
  H   -1.91997924104010    -14.41684211412055      8.15579601861997
  C   -3.48620985403282    -15.32824946150476      7.01725628934099
  C   -3.59213159215615    -13.94846531053010     10.06414089388799
  H   -4.78360105873808    -13.42408219984398      8.34197394937034
  H   -3.46746822336841    -12.28923278597089      8.70069722243525
  C   -4.54981374987019    -13.32771109423645     11.04834694497644
  H   -2.54780040056641    -13.82375720308331     10.39150349085505
  H   -3.77458853325679    -15.03699353845995     10.02221584766659
  C   -4.30709826551895    -12.31503211638881     11.90203647824347
  C   -2.97696845478168    -11.61426618918009     12.03609163209674
  H   -2.59805581889307    -11.68758895263210     13.07146718325538
  H   -3.09280872452611    -10.53376805745210     11.83265322180846
  H   -2.20046318406409    -12.00812491805518     11.36564580055828
  C   -5.38900373942528    -11.78885417524166     12.81358356071539
  H   -5.09031332104314    -11.87484312162796     13.87426077786460
  H   -6.33983638607199    -12.32678327325737     12.68165687218950
  H   -5.57394352361465    -10.71467274224570     12.63083434859289
  H   -5.56893547134461    -13.73691154835905     11.03490913485241
  H   -4.36271869468398    -15.05799115533405      6.40461773780837
  H   -3.82618311762126    -16.00801158597237      7.81576917117388
  H   -2.79129973834571    -15.89189159341194      6.37572592892950
