71
Coordinates from ORCA-job 4112_0.0
  C   4.02146264542822     -0.10824767802304      8.52410133107975
  N   4.59929428029889     -1.48374384358911      8.51923453773597
  C   3.97721070553783     -2.67785981003603      8.10927739146205
  C   2.53245313468210     -0.04581694856842      8.08758928978792
  C   2.27270467453422     -0.56846030966992      6.68590713066224
  C   2.43479948803712     -1.85136978280761      6.28616417891832
  C   3.03461910300839     -2.86406136682233      7.16267661864015
  H   2.70939817323548     -3.89857368839967      7.01825874806085
  H   4.36052284159878     -3.56796259048703      8.61938786051293
  H   1.86766685246387      0.15494775405259      5.97231065421111
  C   4.23024438593414      0.56368233003242      9.90811812834346
  H   4.57375694784232      0.47974566329913      7.77765336871690
  C   1.52518189718928     -0.64429125117663      9.04980473111359
  H   2.33272944668342      1.03630587982436      8.06257136029731
  C   4.05612338869449      2.06735471189332      9.88681317711290
  H   5.26008909121031      0.36070504754624     10.23085233656065
  H   3.54938701624564      0.10599100555223     10.64226618197193
  C   0.52394778584185      0.06485546206470      9.60415466659808
  H   1.59910941017237     -1.72065594320877      9.23093529122147
  C   -0.55492364902375     -0.43005144663778     10.47318543873735
  H   0.47948641329784      1.14035933751296      9.39319040281080
  C   3.02236171778936      2.70015985623614     10.59621371509123
  C   4.95751194639506      2.86815058530762      9.15930213363005
  C   2.88108672353963      4.08925082140928     10.57701218903384
  C   3.77603327962897      4.87744605881505      9.83798250850515
  C   4.81799386153085      4.25372328278176      9.13202265376754
  H   5.78589407519405      2.39363700814337      8.62517441829119
  H   2.32164149458048      2.09472384171822     11.17730328797622
  H   2.07684771647837      4.57049391944166     11.13549577040741
  H   5.51592289539215      4.87908566199577      8.57132577854480
  C   3.67426340711870      6.36530946496513      9.77364345646272
  O   2.64822685162956      6.84651608549839     10.50554011540571
  C   2.48478124193744      8.26340917363322     10.50375903649391
  H   2.30296736743967      8.63658641989579      9.48393784032949
  H   3.38347692237907      8.76236715461303     10.89848450515490
  H   1.61993675690094      8.47342642999518     11.14583317726394
  O   4.41997042352440      7.07735791833201      9.14047210053312
  C   -0.71512842797169     -1.78875857585540     10.82113759597621
  C   -1.49099332380208      0.49349147306125     10.98403048348156
  C   -1.76091873667862     -2.20271244261711     11.64016702779866
  C   -2.68696885380866     -1.26945763045818     12.13993095054610
  C   -2.53905514872636      0.08439939290992     11.80362340800997
  H   -1.38975851908905      1.55154177563282     10.72586257876651
  H   -0.01493162833165     -2.53508688282879     10.43942835808637
  H   -1.87346611964368     -3.25696414087747     11.89740322032999
  H   -3.26308226526728      0.80200057333438     12.19498435120413
  C   -3.83301558581960     -1.65530806536304     13.01303614161462
  O   -3.87470465597050     -2.98098312576054     13.25985008122316
  C   -4.94498648326411     -3.43285120440692     14.08733640661147
  H   -4.89880697659811     -2.96116195133323     15.08121426725446
  H   -4.82653886507680     -4.52020523412575     14.17602021370364
  H   -5.91950873949864     -3.19046184331910     13.63580199899751
  O   -4.64672430520998     -0.87802164562446     13.45879077434734
  C   2.02003309628448     -2.30027591825724      4.92606038014355
  C   2.77905880200014     -3.26084969931955      4.22971353150405
  C   2.40799523606130     -3.67903517328884      2.94953565133864
  C   1.26616074652875     -3.15106920940805      2.33940846560590
  C   0.49715442979625     -2.20249546875616      3.02186501301396
  C   0.86827261072936     -1.78421074620793      4.30125072121732
  H   3.68387228075999     -3.66656116318559      4.68949437607253
  H   3.01859186281260     -4.41834539217746      2.42395243838380
  H   0.24334909692146     -1.06569886230325      4.83719745776948
  H   0.97326438374370     -3.48126724644508      1.33918589640576
  H   -0.40530336480469     -1.79350696443241      2.55927260598891
  S   6.31952574779268     -1.59902347958524      8.58163612637416
  C   6.66515340323948     -2.20190528832995     10.24517670658577
  H   6.29078666820704     -1.48301524378661     10.98405898749047
  H   7.75879712282179     -2.29189482223535     10.30752941006704
  H   6.19733354535180     -3.18691020112087     10.37352828624145
  O   6.74267645813055     -2.64877016802089      7.65840126669590
  O   6.85031579400811     -0.23728164064111      8.47395930970016
