57
Coordinates from ORCA-job 4113_0.0
  C   3.84890544290875     -1.44745851069402      6.09894320341415
  N   3.91362718617468     -1.98638605179568      7.39656879198181
  C   2.83820848544341     -2.12644281723686      8.38883153983905
  C   2.93054119849977     -0.65175201204250      5.50049393621618
  C   1.65790561762369     -0.18107608419725      6.08673681945857
  C   1.00358583437357     -0.80512122944437      7.09531354002674
  C   1.37633521042635     -2.06333684050191      7.84236319105714
  S   5.51307707719330     -1.95757499929515      8.04109225166398
  C   5.89492262944499     -0.20667249049980      8.23712986865921
  H   5.85091099305172      0.28411732707259      7.25676396888303
  H   6.91418979375413     -0.17008859591839      8.64601646069462
  H   5.18061468877878      0.23671534159547      8.94323984114724
  O   5.43540721970704     -2.54167217230118      9.38079569978596
  O   6.41452457340902     -2.49858098727401      7.02523317919310
  H   4.74072881730045     -1.71310351920257      5.52434577999280
  C   3.24245272549182     -0.17522532918110      4.08387917416804
  C   1.97161829578233      0.14534350364532      3.28778545331074
  H   3.85292509167093     -0.92637810188318      3.55915909157802
  H   3.85138550315729      0.74709758607139      4.13577441118002
  C   1.15571688102805      1.16815455462538      4.03971601302603
  H   1.38225248913165     -0.78051223177319      3.14776477854172
  H   2.22510678088815      0.51586113866187      2.28220363465644
  C   1.03637186815613      1.01264429363281      5.43934021177073
  C   0.53793809182724      2.25509367463137      3.40963838189217
  C   0.31415669672766      1.97053894575937      6.17211975688269
  C   -0.30079054519468      3.04883043437757      5.53304712290929
  C   -0.19402674210457      3.19062924276472      4.14599897945202
  H   0.63313365415056      2.36851999187627      2.32539217107356
  H   -0.66833638389288      4.03573793208484      3.63992324248143
  H   0.25049922808709      1.87865984628522      7.25924684896160
  H   -0.85382227249501      3.78631625698983      6.12091380262045
  H   -1.21189626068870     -5.97500120836506      7.85592006858800
  H   -0.29702287972487     -3.92900720070409      8.88705443333099
  C   -0.53774440122439     -5.33797004286953      7.27473413415219
  C   -0.02379814636891     -4.17639158226609      7.85729689934595
  C   -0.20014046484424     -5.70218590455727      5.96295431454396
  C   0.84998182213210     -3.33155675990122      7.15298888097834
  C   0.67086182111537     -4.85480453312217      5.25902709632354
  C   1.18456298707803     -3.69245674203390      5.83741639599946
  H   0.95740660608903     -5.11093271634396      4.23405917313374
  H   1.85348366195144     -3.05966585076235      5.25348387303940
  C   2.93378324021019     -3.43137351737610      9.23680723499824
  H   2.90113344930380     -1.31319054184017      9.13066445068537
  H   0.81784321932742     -2.01630898969171      8.78906973820153
  C   3.53078042884625     -4.69385480689688      8.65228678441351
  H   2.69849005403343     -5.36236864483463      8.37745077037002
  H   4.12455539130770     -5.19118813805003      9.43173014968453
  H   4.14962140523456     -4.52161731600582      7.76407840529550
  O   2.40484149917179     -3.41365657323869     10.32482866734232
  H   0.02407941939253     -0.40459083990473      7.37371898631783
  C   -0.78957515602840     -6.93607548123448      5.31356629902606
  C   -2.11372325106988     -6.66229409559451      4.58213744010403
  H   -0.95259589329752     -7.71049393776811      6.08242659235980
  H   -0.06081767974934     -7.35613180654645      4.59932552621646
  H   -2.87613398345937     -6.26877795273507      5.27396148733546
  H   -2.51222909313007     -7.58344047620300      4.12608375671786
  H   -1.97913392610947     -5.91754243798666      3.78082729497686
