59
Coordinates from ORCA-job 4114_0.0
  C   4.47415906076422     -0.58037806694286      7.43600802334001
  N   5.42293087473301     -1.49793506893652      7.04309255881992
  C   5.25046181727965     -2.51407196083378      6.10461605150965
  C   3.20129930192433     -0.35394486610447      7.00428835111171
  C   2.44239334413338     -1.08992922261419      5.92455588876613
  C   2.70487216085170     -2.63602504781306      5.97924203823918
  C   4.10694492020764     -3.01046438983759      5.58439016312745
  H   4.83018735312569      0.06882673629510      8.23686786683884
  H   1.38421437249813     -0.92824859396409      6.16940228547145
  C   2.65427651604675     -0.54977894536290      4.45161669407545
  C   6.75006126854781     -1.36538550896268      7.67360884791676
  C   6.80500473989665     -1.84075129899148      9.11465046543232
  H   7.06868374643936     -0.31327791496935      7.61497796327287
  H   7.45933670400921     -1.94295427797028      7.06128167910489
  C   7.29874469759205     -0.99806685300080     10.12005283447147
  C   7.37505180940664     -1.43625883419609     11.44699942744366
  C   6.95116215825433     -2.72354736596948     11.78376005435776
  C   6.45161822780522     -3.57161868607668     10.78790481487063
  C   6.38052094634876     -3.13377255126873      9.46428630248809
  H   7.62821471779559      0.01355936847933      9.86387101035863
  H   7.76185703062627     -0.76587220287568     12.21904581212877
  H   7.00641840377627     -3.06705540922764     12.82008177451419
  H   6.11653494009173     -4.58001462292992     11.04509213106418
  H   5.98571115638696     -3.80342558377102      8.69469984286439
  H   6.19895282010624     -2.94440335455056      5.77053995077352
  H   4.22767448212992     -3.78304203730109      4.82277156178976
  C   1.61946920264042     -3.34548221152182      5.16899258090806
  H   2.50647022208032     -2.93498972609586      7.02038888180186
  O   1.98647281088729     -3.57355790147492      3.89630910468617
  C   0.98204790769316     -4.08658065150349      2.99263169095424
  C   1.47240588302397     -3.87462307051335      1.57593089760441
  H   0.03800924390771     -3.55567943326669      3.18493672662701
  H   0.81818254778521     -5.15167581910893      3.22784462184426
  H   1.59554017080205     -2.79954839404285      1.37607635675295
  H   0.73549069548717     -4.27929151734198      0.86399036124850
  H   2.43253450810004     -4.38667278778684      1.40335598835762
  O   0.52860170051344     -3.61011874875712      5.61063351409958
  C   3.70720959600005      0.56609134420532      4.34845146124527
  O   4.98228575794435      0.11809006240735      4.32817936677148
  O   3.46646290751316      1.73813966841625      4.27148310490183
  H   4.99834831909615     -0.85197395831300      4.39436864582715
  C   1.35847654048730     -0.09820582729164      3.78179187577645
  H   3.01053656905199     -1.38129744936130      3.82633401017348
  O   0.66799414425694      0.74364003530889      4.54157020315949
  C   -0.56807886833659      1.26774196845662      4.02493780957129
  C   -1.09504628329762      2.27019883993364      5.03043137033798
  H   -1.26652176380483      0.42896117802907      3.86657904505615
  H   -0.37507754575394      1.72232495721333      3.03972347709544
  H   -1.22765497303217      1.79921611458235      6.01601873014482
  H   -2.06351153420688      2.67082312415825      4.69110726566587
  H   -0.39052295854500      3.10807052677234      5.14709449275444
  O   1.00875359439484     -0.47687660472116      2.68602573177560
  C   2.41468288049851      0.69431298181130      7.71311180402089
  O   3.16799660176426      1.49720677400006      8.50148487852499
  C   2.46614853530884      2.50694560373094      9.22135487334198
  H   1.94859693287279      3.19127013377368      8.53149589283807
  H   3.22310668748807      3.05311901697202      9.79912598552843
  H   1.71724387421288      2.06459460857991      9.89674072237581
  O   1.21357852238834      0.82709372244620      7.62048413407618
