80
Coordinates from ORCA-job 4117_0.0
  C   0.17964144426455    -11.27502483254532      6.98763475183310
  C   -0.89377519659909    -12.07140192578325      6.14390049603955
  C   -0.91497639972876    -11.28241448802846      4.80058395230801
  O   0.77459643405198    -10.36768359602815      6.08682423707495
  C   -0.26248604569854     -9.91754745698723      5.21176216267717
  C   -0.56098865308051    -10.38910808295907      8.02274560056228
  C   -1.28885825174228     -9.11598038878589      6.01714845485804
  C   0.44196288948268     -9.14767851597160      4.10203425208914
  C   -1.33003732402174     -9.32100749521764      7.35612817067319
  O   -0.55975737840875    -10.58219786352766      9.21953583736486
  H   1.21198584311344     -9.80005486086497      3.66327551870397
  H   0.94799587035544     -8.26836207585114      4.52905305585531
  H   -0.25946705880362     -8.82599530991711      3.32617926625368
  C   1.26777321138766    -12.09174805989853      7.67999327886770
  H   -2.03537347689357     -8.78190970990835      7.99705231853439
  O   0.71754113242736    -13.13213877526322      8.32771102453553
  C   1.60912598516803    -13.93272701773423      9.10399694683700
  H   2.37436129603882    -14.39385515664384      8.46114316257225
  H   0.99158334360917    -14.70452607594385      9.58033932483611
  H   2.11007132087481    -13.32000395188791      9.86829341871212
  O   2.43508322958365    -11.81614554912592      7.69437798472738
  C   -0.54275503078507    -13.52737828399364      5.89214280812933
  H   -1.86952116697924    -12.04254702399552      6.64665569242459
  O   -1.54536177911451    -14.34619299589604      6.25841268249057
  C   -1.32415063512191    -15.74249969210937      6.05522626657591
  H   -1.12682105778512    -15.95914945720714      4.99416244539777
  H   -2.23939254487112    -16.24914803974333      6.38635731512392
  H   -0.46172604244532    -16.08804269039912      6.64558761079320
  O   0.48021584214221    -13.91496339467048      5.38189923355501
  C   -2.36220727046864     -8.23816512397059      5.39504118194666
  C   -2.25498918549041    -11.30518391441671      4.03926094654128
  H   -0.16230348169203    -11.76296105819577      4.15610207418147
  C   -3.14554998606875     -8.85956221343285      4.19609833010518
  C   -3.41145104523449    -10.36930829111872      4.45234639215285
  H   -4.28893470638958    -10.68005687784575      3.86133369199773
  H   -3.69561666731459    -10.51695033840803      5.50831428365962
  H   -2.63396695393228    -12.34098946917484      4.07755251819590
  H   -2.03640395270408    -11.11000385176599      2.97920764933140
  C   -2.00338260702787     -6.76541575300491      5.11699092968178
  H   -3.12513903656137     -8.18954829837011      6.18753084278894
  C   -3.29140097447171     -5.93088362040060      4.94929443308222
  H   -1.35922285125658     -6.68207724169978      4.22885522947032
  H   -1.42582574163315     -6.36623170164188      5.96636339296766
  C   -4.23251574185893     -6.47486964811431      3.84790668923143
  H   -3.00904138463507     -4.88778775099973      4.74853377320442
  H   -3.83124265260254     -5.92569441045843      5.91412170792306
  C   -4.43974624718407     -8.01401298032732      4.09120934483674
  C   -3.64911083288394     -6.12023763612240      2.45974810740218
  O   -2.37888382201743     -8.71781019027918      2.99720591205241
  H   -2.95764987255308     -8.90330940293151      2.24517087518473
  H   -2.61640771931067     -6.46867144715426      2.34360383747379
  H   -3.65082379045733     -5.02819463910795      2.32200563650072
  H   -4.23784889038079     -6.54268791471317      1.63084595866724
  C   -5.54200260489886     -8.39908417665126      3.09875859460532
  H   -4.90726550041103     -8.08773611988620      5.08968512031836
  C   -5.74292559650246     -6.02806143360592      3.90454850961529
  C   -6.46644623598625     -7.15318498289489      3.09031548247799
  H   -6.67302759765402     -6.81250539413755      2.06656449053079
  H   -7.44780802097371     -7.38025069009487      3.52658465692667
  H   -6.08048091559543     -9.30988017313478      3.40111633148315
  H   -5.13571049852550     -8.59671441396049      2.09041253849305
  C   -6.12828191461739     -4.58440945372181      3.47971059057073
  H   -6.04142669651086     -6.12862973762361      4.96598240435178
  C   -7.63105940766097     -4.30231392596071      3.72828486449968
  H   -5.99444539129394     -4.48053685024201      2.38869420984760
  C   -5.29455968569387     -3.49693214019437      4.17216075054883
  O   -7.94297923286761     -2.94268514218939      3.49787279766042
  O   -8.38199871457008     -5.09454368491545      2.85916889952330
  H   -7.88979514229611     -4.55060684584315      4.78493206941903
  C   -8.42519987422386     -2.19504050129968      4.59018750996825
  H   -9.28209968279921     -2.68642243034885      5.09078718103347
  H   -8.76430388365105     -1.22468639699991      4.19720285404930
  H   -7.64443402729774     -2.00497249782456      5.35138012965014
  C   -9.77965908563355     -5.01053019248024      3.01762949577117
  H   -10.09146576389016     -5.27303030575457      4.04922343258018
  H   -10.23242905586019     -5.73058690263426      2.32073733203988
  H   -10.15799972039857     -4.00050530377527      2.78272873197929
  H   -5.33358857069604     -3.58729014575430      5.27133460444373
  H   -5.66507836430109     -2.50146691906385      3.89324197613571
  H   -4.24014320148147     -3.54621669846455      3.87450343249076
