56
Coordinates from ORCA-job 4119_0.0
  C   -3.86205068045353    -25.45754083786248      8.58910550823722
  C   -3.33090192131494    -25.96265415577317      7.18459665296294
  C   -3.23863812730098    -25.11507263109963      6.11254988952366
  C   -3.74108679880364    -23.92490405264725      8.37009776069221
  C   -3.88869659617102    -23.65577944076399      6.05019049645462
  C   -3.78369870546726    -22.35066364379718      8.34522869158000
  C   -3.39725590787420    -22.21365294967650      6.73030175004793
  C   -4.78808040281579    -24.02882253714658      7.14588392609608
  O   -2.24994118313015    -23.97772280160009      8.20583029155468
  O   -5.92245124776136    -24.36342540730575      7.30723322872919
  C   -3.00599872739311    -27.42630618266491      7.17147576629233
  H   -2.16292515190075    -27.63221957525544      7.85427583168186
  H   -2.76891004369557    -27.79328267394713      6.16772277696596
  H   -3.86372902164613    -27.99524859028187      7.56539975892919
  C   -2.93429176993270    -25.49926600104031      4.67175067589476
  C   -4.32089484497417    -23.65435742020597      4.57903309599391
  O   -3.29729445231606    -24.37905016729499      3.89575410859690
  H   -4.38093515389016    -22.66432052148460      4.11372697240806
  H   -5.29942100519651    -24.15542532494366      4.47263202576014
  O   -3.67191163858230    -26.63778998528588      4.31980848746071
  H   -1.85208343310222    -25.65968942395241      4.49956972489248
  H   -3.45897218189810    -26.84966183655167      3.39928396452856
  O   -4.21622218386213    -26.17540016602185      9.47368089191046
  H   -1.91938747864815    -24.39729000638079      9.01495628289354
  C   -5.10380139137921    -21.52666985038890      8.40479946869689
  C   -4.50636779257282    -21.15272373238591      6.36532712189621
  C   -4.76822435543769    -20.01687808743377      8.46755862987642
  C   -4.24611267826873    -19.77204411625001      7.01826311273322
  H   -4.83793182176934    -19.00053974682884      6.50981910985079
  H   -3.19406616178684    -19.46107336233181      6.98768973208269
  O   -5.63925386734025    -21.62412633495065      7.08049184308842
  H   -5.83997050760440    -21.86234108904128      9.14174434425926
  H   -4.74557990320008    -21.09444183595400      5.29755068455382
  C   -2.72139734161927    -21.85140597653059      9.32330312503611
  C   -2.01346573128866    -21.75198062934215      6.37256148493643
  C   -1.36343284429976    -21.39393274898771      8.76874755731519
  C   -1.11534602283170    -21.36327177950846      7.31657801419018
  C   -6.00504559269192    -19.21321793057356      8.85961893079297
  H   -4.01139091926206    -19.76979879965646      9.22763988292495
  O   -5.90432636041773    -17.93337729483683      8.46726238962594
  C   -6.98173139032152    -17.05073815971298      8.84062763833100
  C   -6.66633200549931    -15.67099195105700      8.30314353375797
  H   -7.07712365177794    -17.05636934008588      9.93869578113222
  H   -7.92436419638482    -17.45103134476046      8.43416914641319
  H   -5.72042390311717    -15.29104788856421      8.71955079143998
  H   -7.47033901166566    -14.96992078929361      8.57725131868118
  H   -6.58010373544153    -15.68297850570487      7.20541635964003
  O   -6.93868218674760    -19.65198801451725      9.48330997987991
  O   -2.92512265104742    -21.82089399930181     10.51157306265184
  O   -0.48257061368059    -21.02747299756777      9.53105289763074
  O   0.11341620684521    -20.90020155414018      6.99851630452820
  H   0.54179056866830    -20.70447053540114      7.85620092761551
  C   -1.66161579812554    -21.64113382996925      4.91493092856987
  H   -1.78970427961451    -22.60384907763929      4.39457064816540
  H   -0.62692835349605    -21.30038479760472      4.78667505156971
  H   -2.32353304869213    -20.91988756669292      4.40094163804576
