60
Coordinates from ORCA-job 4120_0.0
  C   12.46747865488586     -6.52600215500098      5.25483549271876
  C   11.79206113138899     -7.71118926539876      5.70358892533982
  C   10.43335579531159     -7.71676751899971      5.75917029507368
  C   11.72033513474749     -5.42126225936237      4.99839456712755
  N   10.33936030628296     -5.38643663557058      5.11391233044336
  C   9.61906757988702     -6.58191166786328      5.36236561364164
  C   9.72423157887035     -4.04795483711020      5.09423378857383
  C   8.56625228018090     -3.84111484507339      4.05444199345654
  C   7.30124134347386     -4.60744253804059      4.30790642528958
  C   8.25254013034260     -6.74829285968218      5.24312310639609
  C   7.21619563361474     -5.87130382123300      4.78813844531900
  C   9.36604330646727     -3.66207762396676      6.54308253233609
  H   10.52396371896041     -3.38956598720442      4.74393764434247
  O   8.38793435565124     -4.14933029836167      7.07726057248040
  C   10.27547287222942     -2.74638838213948      7.31256549741301
  H   12.36400425475370     -8.59821952624227      5.98636660148181
  H   9.89318584344714     -8.61247547931136      6.07250804699336
  H   12.18046396878520     -4.47694682028149      4.70387186400830
  H   13.55093459347735     -6.48819891946696      5.13750948816393
  H   6.37342055826657     -4.09782838276976      4.03455087557291
  H   6.20816387444489     -6.29558430498944      4.85475935908123
  H   7.91530983573230     -7.74248782256602      5.54672735758342
  C   11.29366792414794     -1.95843582761368      6.74658815589601
  C   12.07304324620567     -1.11637658925052      7.53970731058280
  C   11.87460290855085     -1.03082330321284      8.93076517554592
  C   10.85050690991732     -1.82183383849038      9.49340573822961
  C   10.06737482251940     -2.65433642266601      8.70267823084515
  H   10.68428784815310     -1.79919431633540     10.57304715170767
  H   9.27638919671443     -3.26424639819109      9.14354629721362
  H   12.83193532195381     -0.49095796293085      7.06393001890300
  H   11.47337166722225     -1.96330740681808      5.66998767470513
  C   12.70858606321352     -0.13685177681244      9.77395616325475
  C   12.16635109734551      0.53156169176248     10.88740590082529
  C   12.95142329832461      1.37168413940007     11.67827094875089
  C   14.31022062386183      1.58120367203098     11.39563111882106
  C   14.85385172756794      0.91021361866077     10.28761531579583
  C   14.07244362412620      0.07259391895214      9.49217159473180
  H   11.10708934847020      0.41120650757995     11.12744861895859
  H   12.49522420400989      1.88088254152561     12.53263849641062
  H   15.91395086404897      1.03847065064717     10.04799666015959
  H   14.53742019683632     -0.45244640747599      8.65400347416593
  C   15.15282437815985      2.51098198091760     12.23404450124485
  H   14.72711290618678      2.64810294997712     13.23983079534905
  H   15.22396237081791      3.51053582900682     11.76897109825513
  H   16.18182740817289      2.13403599741972     12.34617511936136
  C   8.32333950242961     -2.34320860432442      3.88741601229382
  H   9.01275672766531     -4.19872134791880      3.10774564647071
  C   8.94375554772547     -1.62629504506433      2.85453391196354
  C   7.50394619376701     -1.63069473732595      4.77953559430955
  C   7.31579436541873     -0.25489359287887      4.63748680097656
  C   7.93366390608199      0.46461550029660      3.60077310713191
  C   8.75243611166142     -0.24827105513614      2.71286248639774
  H   6.67387050425635      0.27301037305137      5.34977722551630
  H   9.24536637834986      0.28122053839241      1.89167522213313
  H   9.58189016004664     -2.15568651933161      2.13932268493671
  H   7.00722659579658     -2.16401179861241      5.59397153281408
  C   7.69997282697926      1.94771639190470      3.44060499784685
  H   7.75944748440999      2.47219607988795      4.40819980253756
  H   6.69651259167441      2.15090721566755      3.02650167714944
  H   8.43536639600757      2.40361530394365      2.76029691497114
