84
Coordinates from ORCA-job 4122_0.0
  C   1.85551434890722      0.70992951482675      0.02421757343581
  C   1.25954112764501     -0.04264632677402     -0.99170095914777
  H   0.34351984532514     -0.60040299175988     -0.81158228816536
  C   1.83722544278119     -0.07037069662750     -2.26683646880261
  C   3.00499525646149      0.64726118188547     -2.53738749948433
  H   3.44198774235185      0.63013280297272     -3.53927336486603
  C   3.62389850542813      1.37706432694879     -1.51736774311250
  H   4.54794832409776      1.92857511393014     -1.70970458709214
  C   3.06288015024404      1.38972456943765     -0.24002611134290
  H   3.74464167224007     -1.85854024003880      4.67864067997998
  C   3.76319925207301     -1.05419634575834      3.93839750180543
  C   2.58530745711589     -0.71080473703156      3.25827440726114
  H   1.64848286845783     -1.23140618704568      3.46162605926850
  C   2.62221804932912      0.30884455155454      2.31012001815057
  C   3.82235339277739      0.99320569472520      2.03940795744800
  C   4.98779056104494      0.65363390740890      2.72415547271791
  H   5.92116359147564      1.18424650108981      2.51551977510961
  C   4.95599597807124     -0.37614018170189      3.67564456489447
  C   3.67398897742856      2.06392017783649      0.97214457197459
  C   1.42846352068783      0.82470842856236      1.49517837513352
  C   1.33653142988371      2.34375799488422      1.95249266191167
  C   2.62175269606651      3.07515263886749      1.51110356145767
  H   1.36126372778957     -0.65798176843089     -3.05624865285228
  H   5.86960692110311     -0.64967608974177      4.21003944469301
  C   0.20667229960529      3.21057397470986      1.39766673618622
  H   1.20884378209184      2.31146407845627      3.04321968887937
  C   2.15764065037854      4.07971841345652      0.45578127062892
  H   3.05914901352246      3.64839760313537      2.34458157119981
  N   0.76140867086427      4.09770321150827      0.47144102576787
  O   -0.95134044752157      3.20941151429138      1.73676173939189
  O   2.85270391490395      4.76090863711243     -0.25772882347449
  O   0.27648192464208      0.09723372750473      1.91711192398861
  C   -0.03517249785219      4.98600029953358     -0.36070760268292
  H   4.61791178325974      2.57193274454620      0.73679470647443
  C   -0.96488612900137      0.22980790840359      1.36179172400934
  C   -1.99963692146897     -0.40169302179564      2.25681368434848
  H   -1.62876635108430     -1.33192317669103      2.70977576264313
  H   -2.91759021154398     -0.58235879848510      1.68401349471009
  H   -2.22209491753071      0.30994339011733      3.06895387877722
  O   -1.18734808642248      0.77970444735528      0.31856283799626
  H   -2.43940088478298     11.91464999768854      2.96061189973370
  C   -2.21772818445117     11.58868423400740      1.94099812024968
  H   -0.31555040741282     12.61785662862690      1.85925190257860
  C   -1.02940535399487     11.98682218643738      1.32333965802396
  H   -4.04458812940633     10.46226058760415      1.77771700818471
  C   -3.13256825691283     10.76786247180085      1.27048876595924
  O   -4.33254157923538      8.14589543740620      1.48936477432531
  H   -6.81274017174888      7.44415102665368      1.72862337073969
  H   -7.32061944100195      8.50295736589865      0.35223869010421
  C   -0.76205994305793     11.58907617413632      0.00940037827253
  C   -6.58189103224563      7.77041894781775      0.70705900158275
  C   -5.18347748337206      8.32955514922993      0.66322936411074
  C   -0.43438392063107      6.27852304136563      0.37341050714721
  C   -2.85709813368650     10.34107513305616     -0.03169676851165
  H   0.15419529704732     11.90915357571082     -0.49368094251695
  C   -1.68203909547307     10.78971512591056     -0.66981318855192
  N   -1.15997216281497      7.18937561349400     -0.49921937229305
  O   -5.01400168506304      9.07523508410735     -0.46895807157616
  O   -3.24992790730410      6.23364364012217     -0.29022360313492
  H   -6.61918303327190      6.89536745543770      0.03746940463931
  C   -2.54181920013546      7.12086147197717     -0.69885810757654
  C   -3.74763752192249      9.50623347654692     -0.96379469591282
  C   -0.53377411924445      8.15884260207585     -1.28473373716317
  O   0.64930974533428      8.39815918829177     -1.27953209694642
  C   -2.94490429796622      8.29076569067573     -1.59667685221083
  C   -1.56486551771954     10.36992909154005     -2.12140833856101
  C   -4.00889410674444     10.39700441101362     -2.18613279391322
  C   -1.60557193162348      8.81560699036255     -2.15529242833610
  H   -6.16453010479302     10.39096009035397     -2.19647470813183
  H   -0.64793879613177     10.74667696963907     -2.59247053168014
  C   -2.83112547607267     10.84273491998548     -2.81601665814657
  C   -5.25918409734672     10.74587160056267     -2.69092469995990
  H   -3.60567529096088      7.88094052598208     -2.37295953303841
  H   -1.44462812150330      8.46952634150696     -3.18935411363076
  C   -2.90977888576886     11.63949330881763     -3.95676001410744
  C   -5.33249384889829     11.55571907859349     -3.83405520539640
  C   -4.16701792515098     11.99884290389544     -4.46414519718175
  H   -1.99591835989898     11.98621339805665     -4.44768314242515
  H   -6.31000381760991     11.84055774802826     -4.23235082953369
  H   -4.23283782061598     12.62995061692920     -5.35439909754232
  H   -0.94022129587150      4.44272297196297     -0.66825708621202
  H   0.57666323687179      5.23022549693675     -1.24105879219241
  H   -1.08356906002847      6.03670519317539      1.22648439246694
  H   0.46495080699269      6.80842024339842      0.71871479904478
