40
Coordinates from ORCA-job 42_0.0
  C   -0.40159145226731      1.26010184486599     -2.01677428165474
  C   -1.04613517183292      0.54449004805032     -0.75465649079733
  C   -0.55800547281985     -0.90593197253336     -0.81831974585887
  C   1.08728252075095      1.29944282383979     -1.60190046402273
  C   1.02851740044060      0.59979388546120     -0.19459564831717
  C   0.73012976413603     -0.87051866352090     -0.46099708408813
  H   -1.15362527054229     -1.75230660718339     -1.16064580870257
  H   1.45851775610330     -1.68223423299739     -0.44357405684033
  C   -0.80815308763638      2.72468293316960     -2.15059835390727
  H   -0.62888085640193      0.73178387195081     -2.95287833111770
  N   0.29516290127429      3.51601296041057     -1.83137267822744
  C   1.43082000790494      2.77977579408810     -1.48776749391062
  H   1.79159521672763      0.81033690464351     -2.28922900324712
  O   -1.89025449980065      3.15457775704133     -2.47521322878826
  O   2.48789598469421      3.26115984214557     -1.15815595945655
  O   -0.22396461413055      1.08577000512878      0.28746844961213
  H   1.85082526751182      0.85688949750042      0.48395734394990
  C   -2.51853756312831      0.78941011536489     -0.51709426584682
  O   -2.95231915020025     -0.10378260900521      0.51054731490380
  H   -3.09432571777946      0.61775060933312     -1.44097895514010
  H   -2.69939037216379      1.83200625425576     -0.21835940045216
  C   -4.22792904077372      0.03905021861269      0.94040284075530
  C   -4.53320559407366     -0.93247324808576      2.05374180577555
  H   -4.26928135623654     -1.95732006317273      1.75168700334545
  H   -5.59701939214583     -0.87165121436248      2.31305930006091
  H   -3.92058456148741     -0.68537351119714      2.93543600983726
  O   -4.98981618425063      0.85030718012142      0.47982017359547
  O   -0.72296002190841      7.13133602667572      1.58784125865231
  H   -1.15226808446447      9.38602608155991     -0.51724709451569
  C   -0.41294672921320      9.13202822272557      0.25867968188883
  H   -0.63437729820617      9.68321692875818      1.18049291411936
  C   -0.45031301066178      7.64899259475655      0.53504638776111
  H   0.57673279770813      9.42001492941743     -0.12833832484103
  O   -0.13441181681724      6.94158175210833     -0.57467300762772
  C   0.25604448638499      4.96910741092760     -1.81930662660986
  C   -0.13945874756251      5.51720372272322     -0.45104634493412
  H   -0.47190018907578      5.29414130932782     -2.57621607418909
  H   1.25561122617983      5.33739671264837     -2.09137041341413
  H   0.57433987986944      5.20293572746179      0.32694213709201
  H   -1.14117995410504      5.16803815698371     -0.15301348484176
