53
Coordinates from ORCA-job 44_0.0
  C   -0.38903784293994      2.00228464504860      0.84997493925038
  C   -0.94796021493387      0.60057148123873      0.37756479254796
  C   -0.76887029610067      0.53219520808497     -1.13831978329289
  C   1.12406115847062      1.82909602055121      0.61987214851177
  C   1.17336693214073      0.34221916096847      0.05267471563535
  C   0.54467381312791      0.38110030142528     -1.33988353304138
  H   -1.56254907864415      0.67723592114883     -1.87137671276455
  H   1.10289182619013      0.37709700473554     -2.27581938394518
  C   -0.79974839892050      3.19864352627021      0.00993307045134
  H   -0.66271861997099      2.17060133913149      1.90228657181253
  N   0.34847026617291      3.69596813728572     -0.60539191772712
  C   1.51606490085223      2.97126751553321     -0.31035701963145
  H   1.71771602370240      1.89121035746567      1.54123857273164
  O   -1.91316056914685      3.65022579857730     -0.13289392896800
  O   2.60969065184939      3.25552469071473     -0.73018082498245
  O   0.12137474080368     -0.23784711946923      0.83367146716616
  C   -2.28423388582805      0.24058934649348      0.97479373219570
  O   -2.74313483358315     -0.97365381759485      0.38202143749418
  H   -3.00183880701578      1.05581401761648      0.78246093196432
  H   -2.19475504722512      0.12192031015061      2.06606429314891
  C   -3.84675786669416     -1.53427122835765      0.92945494502424
  C   -4.21590242627558     -2.80919158738686      0.21302491625617
  H   -4.39657585541215     -2.60268202444065     -0.85341016689619
  H   -5.11391893338932     -3.24122106949589      0.67066534509229
  H   -3.38064978541190     -3.52464147306578      0.26808340884075
  O   -4.43120449569205     -1.05166696037677      1.86605314990690
  O   0.84912724177838      8.71794237549749     -0.14879744060626
  H   -0.45299873718817      9.34783482479200     -2.92070774999075
  C   0.53261505863102      9.44114221156102     -2.43844513443669
  H   0.66746090366182     10.45850412203284     -2.05204555343278
  C   0.64632967941580      8.45088957033240     -1.30590877767123
  H   1.29170340303603      9.22415032891984     -3.20612209893456
  O   0.48712542288082      7.18325539260649     -1.75190972092991
  C   0.33061259636941      4.83317930567228     -1.51025801126695
  C   0.56671664616665      6.14645914258163     -0.77101968628844
  H   -0.65164997209110      4.85774459181413     -2.00364320807434
  H   1.11658498112007      4.68262307617049     -2.26414952978018
  H   1.55683273646789      6.16047676048808     -0.28767546810254
  H   -0.19502558864850      6.30826058128551      0.00873135870562
  C   2.44819302080387     -0.48164521915904      0.21969178001287
  C   3.02550644724816     -0.49455204978620      1.62782579103244
  H   3.42485023968217      0.49364056523109      1.90300602302403
  H   3.84042369876921     -1.22959547128795      1.68818308731288
  H   2.24280599394627     -0.78046100724593      2.34637413351505
  O   3.39147804214117      0.05310284271834     -0.72588899277497
  H   2.19899096002236     -1.51185218111776     -0.07940081928373
  C   4.32785365848311     -0.78670931790338     -1.18920757501929
  O   4.44634836369753     -1.94970486914312     -0.89078456771507
  O   5.10341053206812     -0.11674478215341     -2.04143841879159
  C   6.17108698974870     -0.86142766928345     -2.62710399336294
  H   6.69196856026351     -0.16565897057073     -3.29655940084889
  H   5.78555681179656     -1.72149727100171     -3.19574746265719
  H   6.86094895360335     -1.23240638530406     -1.85348373041589
