70
Coordinates from ORCA-job 48-_0.0
  C   -1.32614335003312      0.11530638706979     -1.72070817211412
  C   -1.51471938134650      0.64093585845807     -4.49708971656043
  H   1.36597064395703     -0.41919584739148     -0.98087341460087
  C   1.23695064333669     -0.20069464955896     -2.04088833776024
  C   -0.03231475597203      0.07794130001163     -2.56636739401970
  C   -0.13545656646750      0.36430072869888     -3.94283762638409
  C   1.00577309127796      0.38624874950423     -4.74988836645910
  H   0.90487056698649      0.61948014014937     -5.81413160834867
  C   2.26592485511145      0.11330188194763     -4.21112340880573
  H   3.15408231057794      0.13651763334711     -4.84821780977946
  C   2.37602347874619     -0.18687664162789     -2.85312873667130
  H   3.35344559368974     -0.40414367704299     -2.41383268537117
  C   -3.51724557610834      3.31598118652794     -1.78306856446256
  C   -2.81728479518694      2.20303464801706     -1.30306392883020
  C   -3.55420306437294      3.58755342498424     -3.15089607545707
  H   -4.03112916475926      3.97247340988381     -1.07582126316404
  C   -2.14196681305687      1.34315433404836     -2.18044578950705
  C   -2.89962328935115      2.72707052085499     -4.03665669723231
  H   -2.81137242465924      2.02818079058890     -0.22670973473765
  C   -2.20487141310461      1.61047108257602     -3.56312905600403
  H   -4.09291878627032      4.46057770153162     -3.52900435664094
  H   -2.93217431317179      2.92110478873115     -5.11301980380129
  H   -0.67036313841185     -3.63532665096299     -1.50168417655702
  H   -4.79390697585443     -1.08060984490819     -0.74281888131295
  C   -0.76901263659724     -3.37082660720565     -2.55450884956847
  H   0.40245403874075     -5.07717687300544     -3.16872312345797
  C   -2.22681477941967     -1.30083692529578     -1.95365223949745
  C   -0.16000612973686     -4.20080866833020     -3.50203491980159
  C   -4.79349758836456     -0.90493225024849     -1.81908838783786
  C   -1.50154042774987     -2.24100864893068     -2.94366537967394
  H   -6.92829046746562     -0.59247216554549     -1.83409972207833
  C   -3.60616548876803     -0.96243289695095     -2.56247100875509
  C   -6.01746078051339     -0.62577268426340     -2.43781080679294
  C   -0.27894216882525     -3.91734097507866     -4.86292345904498
  C   -1.60040310212583     -1.95246765876959     -4.31982833210792
  C   -3.66987829028182     -0.70551680771152     -3.94690272633709
  H   0.18558653366942     -4.56841068676103     -5.60826580285739
  C   -6.07535541058241     -0.39916039892519     -3.81313924591280
  C   -0.99957518939876     -2.78946733160226     -5.26466017276835
  C   -2.37058759168859     -0.71457367464959     -4.72039748430776
  C   -4.89575626287786     -0.43549612249143     -4.56166184809334
  H   -7.03077910423641     -0.19018014566059     -4.30183382108656
  H   -1.09663059284527     -2.55243514203425     -6.32841325459131
  H   -4.92472308897899     -0.24648183654080     -5.63903322336424
  H   -1.41580852571555      1.10688692718290     -5.48755994752441
  H   -2.59296328121357     -0.76298009403803     -5.79560787282413
  C   -0.96431978716455      0.25945673770994     -0.22683510766763
  O   -0.17272434738197      1.43017217852695     -0.02440274459102
  H   -0.37270607785753     -0.59928937366311      0.11738272651142
  H   -1.84942172191133      0.32174955443192      0.41437125908737
  C   -0.43299837412510      2.18734329135568      1.07696854398178
  O   -1.32531185392272      1.96316128511153      1.86955775569912
  N   0.45242952909196      3.21597307580400      1.14239985543989
  C   0.39089448927837      4.23604939137135      2.16533753501393
  H   1.11150161583584      3.29985804587906      0.37732958821850
  H   -0.32696717242412      3.90831153329647      2.92884772138296
  H   0.05242986115224      5.20804503870496      1.76361233665001
  H   1.37479614125187      4.37984412732025      2.64220348305843
  O   -3.15266048520156     -3.23423992158760     -0.80465571424257
  C   -2.42386385566871     -2.02340303702216     -0.60344804993728
  H   -6.68856805234085     -5.35737290117187     -0.03888739732528
  C   -5.74461118686695     -5.34953728394019      0.53475026431541
  N   -4.66001580490969     -4.75774314672702     -0.21603135835119
  H   -4.34025185528985     -5.18832964342173     -1.07569523912390
  C   -4.10243061178238     -3.56318433587276      0.11374938026781
  H   -5.89572461043052     -4.75036699073335      1.44242811593967
  O   -4.39471767686929     -2.87969483209277      1.07388940090114
  H   -5.50808546913797     -6.38571998722878      0.83028147360740
  H   -1.45798343267255     -2.29131719614386     -0.15501484369915
  H   -2.96079630123353     -1.40866119848903      0.12628824772941
