43
Coordinates from ORCA-job 4_0.0
  C   -5.82295874711819      2.06644618680603     -1.03910863699215
  O   -7.05988572091870      1.56071832542930     -0.91083841258456
  C   -4.77159010584140      1.15950653037297     -0.43423027999778
  C   -4.98094654836438     -0.35914375256795     -0.24511502142390
  C   -4.52171172815337      1.29407018526515      1.13176443976142
  H   -3.82199324345671      1.38312462669182     -0.93537367786316
  C   -4.27548349497815     -0.26314417401316      1.12609798376615
  H   -4.52400618229185     -1.01194670156244     -1.00248727490304
  H   -6.04604697178945     -0.60854375010361     -0.14731759292474
  H   -3.19877908165520     -0.47100536602057      1.06536508470442
  H   -4.71161394560387     -0.81067271005872      1.97248843791627
  C   -3.36381774946671      2.19732406867590      1.56215662565138
  O   -5.57554726377363      3.13739795467531     -1.53529307342342
  O   -3.42295854506005      3.03318515335659      2.42367516759605
  O   -2.25488888374408      1.92869234312251      0.85021175311861
  C   -8.16030325283761      2.39868000794475     -1.28854993621881
  C   -9.39097099184077      1.83970444148723     -0.59988877031146
  H   -8.27508668049652      2.38730740859123     -2.38496399445211
  H   -7.96219151619643      3.43579399102253     -0.98049892777132
  C   -1.09842616162295      2.72640588787427      1.14609811344055
  C   -0.00753895185586      2.28979680815385      0.18815505030552
  H   -0.79805957230996      2.57417034400397      2.19473886550048
  H   -1.34021786981210      3.79304554093566      1.01984642227290
  O   -10.48040686684750      2.67798142439648     -0.99273446197542
  H   -9.26529751787858      1.85653332780349      0.49503502338770
  H   -9.58401215745241      0.79711755066794     -0.89862816750789
  O   1.13044159771727      3.09838193429772      0.48689381380117
  H   -0.31586971297189      2.43504492007321     -0.86016963405130
  H   0.23652052379768      1.22245135161034      0.31478195892449
  C   -11.71709716095070      2.29108654443896     -0.60101284247604
  C   -12.76279198949631      3.27437992311279     -1.06620857873005
  H   -12.55992301180785      4.26748066285418     -0.63548977474531
  H   -13.75613783951313      2.92763860402309     -0.75699241979860
  H   -12.72170557031820      3.38058209384649     -2.16138899004322
  C   2.24720511270392      2.85968723126370     -0.24355606349113
  C   3.36787687884644      3.78282886939882      0.16330563635531
  H   3.06151048250681      4.83092660482309      0.02102539833922
  H   4.25858255717276      3.56635344713876     -0.43849306377571
  H   3.59337682070683      3.65311751724105      1.23327173203916
  O   -11.92087907764429      1.28883390839926      0.03456918201033
  O   2.29779367016962      2.01245178190021     -1.09766035510588
  C   -5.73158331306638      1.64588778822717      1.87898564665241
  N   -6.71601021648585      1.87634116440051      2.44434361502347
