27
Coordinates from ORCA-job 50_0.0
  C   1.28413493599971     -4.97611875033598     -4.31225753758931
  C   0.59847709694601     -3.99500420448985     -3.36044707539942
  H   0.95973047437228     -4.81631843890519     -5.35451367328816
  H   1.05011963535357     -6.02223159477054     -4.05053886973120
  H   2.37989039556879     -4.86378565777825     -4.28511057979252
  C   -0.93151068948730     -4.11629643530369     -3.36626643411754
  H   0.87566179736039     -2.96016537391953     -3.62690234941719
  H   0.97047025827672     -4.15384367854324     -2.33180476442230
  C   -1.59903435247267     -3.16152902551996     -2.39500940611237
  H   -1.22106388635447     -5.14739708413823     -3.09062001089295
  H   -1.30784472250016     -3.95362736639039     -4.38846694241601
  C   -3.07118240198025     -2.75841372579854     -2.46914658758424
  C   -1.98726936481669     -1.74665962388585     -2.73565777549120
  H   -1.20787468468249     -3.24796472112769     -1.37411028965544
  C   -4.03637350224201     -3.26699280281030     -3.52313427388247
  H   -3.54509857857264     -2.60920212848773     -1.49141321923465
  C   -5.30596232093624     -2.41133528908913     -3.63036363505799
  H   -4.31310596309995     -4.30648662157091     -3.26658053567793
  H   -3.54339214577152     -3.31295356992275     -4.50679307945167
  C   -6.29835870393183     -2.93551370295449     -4.66934754842926
  H   -5.01859892388648     -1.37437120849444     -3.87751740578295
  H   -5.79519096092820     -2.36331341655758     -2.64045502367439
  H   -5.84921429240662     -2.95887475508624     -5.67668078794675
  H   -7.19857227701918     -2.30240877264778     -4.72213948582815
  H   -6.62695768365160     -3.96163744603086     -4.43101791437092
  Br  -1.70827994232258     -1.05642292440855     -4.53573523644294
  Cl  -1.70227919681457     -0.48701168103230     -1.50987955831004
