41
Coordinates from ORCA-job 54_0.0
  C   1.45833379263018     -4.74200861286928     -4.30828911260487
  C   0.61265961722320     -3.55405274163285     -3.77432218273742
  C   -0.88610249284184     -3.98713161903469     -3.87074285442716
  H   0.78396843176672     -2.64789331276178     -4.37749331325692
  H   0.89367719194689     -3.29310028914955     -2.74123996363357
  C   -1.66849553928375     -3.72997165342318     -2.59615579499003
  C   -3.17875331825586     -3.48541879921317     -2.51499917672301
  C   -2.20507007854471     -2.38098913305213     -2.20054642186082
  H   -1.26381417897512     -4.28848557201549     -1.74274450573294
  C   -4.13184738816896     -3.45591894793181     -3.69475305165422
  H   -3.64735931046916     -3.90425265725015     -1.61558328857186
  C   -5.40152153105413     -2.61870509581378     -3.43463671646629
  C   -6.40737282406508     -3.13757253585009     -4.47279684483633
  H   -5.21495651695580     -1.53541142244056     -3.50318400392225
  H   -5.78515152323087     -2.82127484699980     -2.41649039689596
  Br  -2.01826835352628     -0.86495277223143     -3.40524032789563
  Br  -2.01713708439664     -1.83072846631397     -0.34078356344442
  C   -0.83614185057520     -5.48152562358206     -4.27352557892073
  H   -1.35146399540182     -3.42746194510215     -4.69627747857328
  C   0.44740905546949     -5.59155170623785     -5.10175496150176
  H   0.78394264388172     -6.63026809479245     -5.25388902275505
  H   0.29047275025981     -5.14955889142453     -6.10351720673175
  H   -1.74046098047231     -5.81047477329355     -4.80862130667230
  H   -0.74699250385350     -6.11138233793880     -3.36997932266964
  C   -4.67610724980394     -4.86184243972207     -4.09993523610889
  H   -3.61742488818341     -3.01626923419622     -4.56309234227779
  C   -6.17981216455595     -4.66411521527351     -4.42561123606074
  H   -6.48417130425795     -5.16274707469686     -5.35988827836053
  H   -6.80302741851559     -5.09415089480158     -3.62190530279451
  H   -4.54168589970435     -5.58638089683661     -3.28031020808634
  H   -4.11824369536152     -5.26230522452885     -4.96046355910914
  C   2.70824066666164     -4.33221305658618     -5.08528997333604
  H   1.77879592728567     -5.34882996932224     -3.44086761665217
  H   2.44461010300095     -3.72362165920888     -5.96802853089375
  H   3.26844282658346     -5.21280096588279     -5.44176948811640
  H   3.39290366202642     -3.73321996946325     -4.46206532055127
  C   -7.85341107888394     -2.69975601962582     -4.25202895259138
  H   -6.08034542001138     -2.77112316146215     -5.46510711387721
  H   -8.22126771571292     -3.03137259091416     -3.26522592466078
  H   -8.52447424515633     -3.12417650174421     -5.01728905470150
  H   -7.95353611851768     -1.60258327537928     -4.29385546434305
