21
Coordinates from ORCA-job 55_0.0
  C   -0.89895238246464     -4.10695960153237     -3.31168494483651
  C   -1.65044887964121     -3.25782948300991     -2.30204028700042
  C   -3.12017527970744     -2.86770558875035     -2.43992734371627
  C   -2.04062520824185     -1.82117028193221     -2.53729983424477
  H   -1.32937811612827     -3.44616180069130     -1.27031023357565
  C   -4.00314812701873     -3.28030353624325     -3.60397854466583
  H   -3.66584209881203     -2.82520819234215     -1.48951002896314
  Br  -1.85004750756629     -0.57125207747673     -1.05685548221262
  Br  -1.65565077575313     -0.96520821041908     -4.24011936514681
  C   -5.24787428050092     -2.39818532323409     -3.73887977930486
  H   -4.30513189935606     -4.33148702813545     -3.44573968409009
  H   -3.43218804522499     -3.26168048816728     -4.54455568932549
  H   -5.85551719572595     -2.41745601827490     -2.81873371820029
  H   -5.88706790644208     -2.73894456056420     -4.56906977146935
  H   -4.97045314538643     -1.35014219776433     -3.93471055638177
  C   0.62086738099419     -3.97342522475121     -3.17761096463998
  H   -1.20517990106798     -3.84646943583725     -4.33609330224632
  H   -1.19633288720024     -5.16010897869048     -3.15754143574242
  H   0.94561772195886     -2.93706832048753     -3.36281122958067
  H   1.14092548949854     -4.62431575059379     -3.89862845274352
  H   0.96085304378669     -4.25496790110213     -2.16692935191320
