23
Coordinates from ORCA-job 56-2_0.0
  C   0.22044597047115     -4.01239294967326     -3.15756716318399
  C   -1.30604466537725     -4.14123597375241     -3.26007064110208
  H   0.54623193017714     -2.99226063614791     -3.38806580667197
  H   0.57401249345688     -4.25986143500080     -2.14978490243952
  C   -2.00925598432020     -3.24004204130792     -2.25960150911146
  H   -1.60944124810952     -5.17642290487187     -3.05589701590336
  H   -1.62598682450480     -3.91313830684539     -4.28130830037319
  C   -3.48160409125069     -2.83196767484002     -2.35164975113440
  C   -2.35054211000162     -1.80435158756302     -2.50312127643427
  H   -1.71504616339667     -3.41145209647300     -1.22545679575824
  C   -4.39661681661194     -3.20910743893385     -3.50952652802347
  C   -5.41532671316631     -2.14443630306612     -3.94647255901950
  H   -4.92009054745373     -4.12863083748945     -3.22325724795915
  H   -3.75959991999046     -3.46852546557492     -4.35964722241596
  H   -4.92037135930314     -1.21740856058333     -4.24981284987540
  H   -6.12021945706299     -1.92004727395243     -3.14438714296297
  Cl  -2.08558910739285     -1.12518379128208     -4.13520692146596
  Cl  -2.03077134821152     -0.57641212294878     -1.26290153399065
  H   0.71120648873367     -4.69188867624237     -3.86280921549032
  H   -5.98157790076843     -2.51784011268531     -4.80712652836811
  N   -4.18887838439997     -2.85720184003529     -1.01265408798882
  O   -3.51098188472964     -2.87572906095761      0.00960546433448
  O   -5.41627235678710     -2.88039290977283     -1.03591046466166
