38
Coordinates from ORCA-job 57_0.0
  H   -0.80638212590058     -3.03452869505492      0.01431609477541
  C   -0.82043711281499     -1.97041485288879      0.26472971358694
  C   -1.98201776237536     -1.21958088784782      0.05877641069273
  H   -2.87390523680184     -1.69705894141729     -0.35591201389471
  C   -2.00797435242912      0.14379597977406      0.37757529458545
  H   -2.91431186115266      0.72559378559145      0.19600453979708
  C   -0.86992084376582      0.74804098100238      0.91846239675801
  C   0.31144212399653     -0.00156857543886      1.09001259204466
  C   0.33478617628866     -1.36214252956534      0.76961928783417
  H   1.24450048009388     -1.95135452285181      0.89514821967659
  C   -0.68638118394446      2.19444869817641      1.35808457675092
  C   1.43682358345245      0.85974982886815      1.60516870687563
  C   0.80594414476701      2.26456661490697      1.69624973669608
  C   1.83820081005491      1.98025260874348      0.65116107130832
  H   1.11860938287503      2.95434575631512      2.48560117535269
  C   2.42408729399835      0.31522309725876      2.63080784544145
  C   3.54927953370224     -0.57429038821408      2.07883291724170
  H   1.84621676612139     -0.24193455363505      3.39013154592808
  H   2.88333070638636      1.16655916636994      3.15838545377127
  C   4.53061854177497     -1.01764418505533      3.16569627065191
  H   4.08989721634131     -0.02015978478976      1.29397658066370
  H   3.12591229959823     -1.46512502541886      1.58636263676124
  H   5.01335282159370     -0.15011512860741      3.64697995167839
  H   5.32923569017033     -1.65410538113661      2.75197004466126
  H   4.02345647821826     -1.59406778345190      3.95837057793416
  Cl  1.42861223878174      1.94154837861879     -1.07960480370942
  Cl  3.42807363141602      2.76058205212914      0.90334025602389
  C   -1.52841304147591      2.63050359781956      2.57897266026276
  H   -0.91283136770136      2.87418179541225      0.51530571821853
  C   -3.03994352185464      2.73723362004368      2.35548347403684
  H   -1.15267006429351      3.61909017988512      2.90189595551115
  H   -1.32637453070728      1.93992031629082      3.41810444398520
  C   -3.77990742217939      3.31569085361521      3.56399267909491
  H   -3.45529681164465      1.74313420001428      2.12180641943016
  H   -3.23299606190589      3.36753487774768      1.46771163125323
  H   -3.63285711834616      2.69006665686547      4.46073947992760
  H   -4.86426417449256      3.38067391899920      3.37920763461785
  H   -3.42213532584518      4.33040427092592      3.80817282377409
