34
Coordinates from ORCA-job 602_0.0
  O   4.29068697483282      1.90363279092245     -0.82551962193349
  C   3.49301169414430      0.79088298604129     -0.48046493197658
  C   4.37131956542774     -0.45667145917619     -0.32838299233771
  C   2.77279307110362      1.13459878315539      0.83119087264369
  H   2.73953650789135      0.57587336033969     -1.26082421188008
  O   2.18181986281124     -0.02799797570731      1.40442472300670
  C   3.63735297225491     -1.59298684111361      0.38850525223251
  C   3.08899343545384     -1.06797532203757      1.72315377503576
  H   3.89275676913546     -0.63134074217996      2.35313740805433
  O   2.40827609178853     -2.07713713929944      2.37589882619820
  H   1.98243739788036     -1.69765848151937      3.15848791270916
  O   4.78829285272930     -0.82822445861248     -1.61882833673960
  H   5.19065283338220     -1.70817324777394     -1.56249331288250
  H   5.24415281486542     -0.16119781397757      0.29528463230487
  O   4.44624761860630     -2.77289724496872      0.34793156769901
  C   5.50537724675534     -3.16107237882387      1.12278118726677
  H   2.74685249147681     -1.87781405902872     -0.19235326977860
  C   1.60160802508448      2.13242652538262      0.66396549607473
  H   1.52742506096804      2.78838606766421      1.54551087675154
  H   0.68619656401731      1.52501334017925      0.62234688316463
  O   1.61212699350277      2.87095751867917     -0.54434109560470
  H   3.53820583057480      1.54054834588558      1.52408946563879
  C   2.30805397837561      4.03072480637099     -0.73194346527758
  O   2.30071344048389      4.52512396744263     -1.82454923275021
  O   6.25767768399495     -3.97601031830721      0.66473611728265
  C   5.64161431192563     -2.60044718297447      2.52094370168311
  H   4.70258432904317     -2.72283052789957      3.07869049137768
  H   5.89677734880054     -1.52944453991914      2.49401616242868
  H   6.45458659009901     -3.14087878468459      3.02074375501040
  C   3.01750355136675      4.63461233449534      0.46204397323203
  H   3.44435295814082      5.59503939049078      0.14940829251161
  H   3.83020837196698      3.97099348700620      0.79300231285187
  H   2.33324892241335      4.80167130946525      1.30859900131858
  H   4.63288583870230      1.76082350448290     -1.71918221531626
