34
	Energy:      55.9900382
C         -3.66107        1.37401        0.24680
C         -3.34134       -0.04805       -0.25868
C         -2.67153        2.39976       -0.32652
O         -1.30101        2.07486       -0.05427
C         -1.85066       -0.24493       -0.59681
C         -1.01810        0.71405        0.27061
O          0.38325        0.53681        0.12851
H         -1.23528        0.55518        1.33292
O         -5.02536        1.64789       -0.08783
H         -5.19109        2.59171        0.10183
H         -3.60111        1.38684        1.34273
O         -1.49811       -1.63443       -0.44392
H         -1.72044        0.04329       -1.65011
O         -3.78348       -0.97444        0.74922
H         -4.74622       -0.83889        0.83644
H         -3.93001       -0.28976       -1.15254
C         -2.88781        3.82396        0.21442
H         -2.18693        4.49724       -0.29602
H         -2.65049        3.84890        1.28554
O         -4.24059        4.27049        0.03703
H         -2.80635        2.43710       -1.41551
H          0.55392        0.25055       -0.79013
C         -0.40236       -2.05075       -1.12720
C         -0.21586       -3.52943       -0.98123
H         -0.57168       -3.86552       -0.00320
H          0.84852       -3.76966       -1.04991
H         -0.76627       -4.04325       -1.77286
C         -4.39829        5.61546        0.21958
C         -5.84523        5.99028        0.13224
H         -6.27670        5.61800       -0.79984
H         -5.93550        7.08085        0.13999
H         -6.38061        5.58640        0.99496
O          0.30419       -1.32619       -1.81684
O         -3.49885        6.40760        0.46396
