24
Coordinates from ORCA-job 607_0.0
  O   1.04978580595964      0.06283573359005     -0.08140986032447
  C   2.46097757363480      0.03899647168413     -0.06906481588007
  C   2.89022375396813     -1.39924390703620      0.16671729796412
  O   4.29491191040997     -1.44403980059588      0.18525312772079
  C   4.83317374128494     -2.72304663578752      0.40459580479593
  C   6.34842613945230     -2.60712234161039      0.38623346823791
  O   6.88668726390599     -3.88587345949488      0.60705322747825
  C   8.29137952375983     -3.93072931069723      0.62519260324692
  C   8.72060349910258     -5.36856246724340      0.86347728802783
  O   10.13179748243470     -5.39247313420631      0.87552679189091
  H   0.76013533051419      0.97069352942836     -0.23028068163532
  H   2.88873306487243      0.67131383752550      0.73517400235642
  H   2.89914112543840      0.38684811607363     -1.02648345783899
  H   2.47521763030757     -2.04351018983195     -0.63605270680152
  H   2.46070233572347     -1.75808169674670      1.12510001392403
  H   4.50805257079359     -3.43951305274487     -0.37797721545785
  H   4.50639017586685     -3.13827824144192      1.38041025316145
  H   6.67322054852571     -1.88977603721987      1.16813921977248
  H   6.67552950417642     -2.19293031349159     -0.58991443924020
  H   8.70671005726889     -3.28506302538650      1.42666691110126
  H   8.72058873916846     -3.57362678923845     -0.33397863466923
  H   8.29263555199615     -6.00234883133836      0.06050163111283
  H   8.28262491643944     -5.71461085654473      1.82162703087150
  H   10.42140175499540     -6.29985759764483      1.02734314018501
