25
Coordinates from ORCA-job 608_0.0
  C   -1.75208235847230     -0.54628047962675      0.34915979753341
  C   -1.27404665686392      0.66075369085156      0.88290310813549
  C   -0.09266086457518      1.22099851878566      0.40263254120040
  C   0.62271639744149      0.57774386370607     -0.62108688414236
  C   0.14196343556363     -0.62715605600017     -1.15757886253215
  C   -1.03869125193137     -1.18865124856221     -0.67627805375357
  C   -3.01994944240217     -1.10597026709357      0.90764927611044
  O   -3.38760888219818     -2.26516301914786      0.32341578181376
  O   -3.66446746762678     -0.59276456813012      1.79211250108002
  C   1.90155126486295      1.12599490014811     -1.17268193708469
  O   2.28515160870230      2.26213520570346     -0.55841828040298
  O   2.53353145695010      0.61106832592853     -2.06524525788391
  C   3.50725757392935      2.85840976397900     -1.00634066024966
  C   3.81532670799714      4.03603965752671     -0.08925564352608
  O   4.99310660539893      4.69850693394657     -0.48735555728078
  H   -1.84620038283056      1.14325760511873      1.67771834041971
  H   0.28387984581342      2.15737115892242      0.81572322660073
  H   0.71363308379974     -1.10926696658997     -1.95288514981797
  H   -1.41433732449679     -2.12580650171074     -1.08918268226253
  H   -4.21465440410086     -2.54158904415881      0.75339302972947
  H   3.40621065131736      3.19117262202071     -2.05213224554994
  H   4.31522504967559      2.10651542619785     -0.97969992561052
  H   3.85566794397427      3.68287071034091      0.96069539723942
  H   2.99590199233239      4.77013244198775     -0.14943347036671
  H   5.74707541773944      4.12171532585616     -0.30624738939899
