32
Coordinates from ORCA-job 610_0.0
  C   -2.87380542489892      1.61560645596300     -0.07689153717178
  C   -1.37856466844234      1.80206743289245     -0.09133382845730
  C   -0.69460500951995      2.62827876336409      0.81844478184051
  H   -1.24482243144679      3.14256422165334      1.60900908897677
  C   0.68516353815034      2.82389805617236      0.70628071891978
  H   1.20419962872565      3.47142855488942      1.41704802845711
  C   1.40389939186428      2.19395883825040     -0.31211036551792
  C   0.71455317006601      1.38314030094418     -1.22019649163996
  C   -0.66162408489628      1.18311374415211     -1.12849418501928
  H   -1.18906909890056      0.55191549679222     -1.84596579350200
  C   -3.64415925129836      1.71218989042257      1.21432310830080
  C   -3.11458145134092      1.32599251864844      2.45861507188761
  H   -2.08377924997334      0.97220632596546      2.52656838623842
  C   -3.90395526758948      1.36253816068946      3.61167065700512
  H   -3.48191838378677      1.05518009941978      4.57154881049856
  C   -5.23093185948013      1.79298079199763      3.54191353094398
  C   -5.75351844707414      2.16624511240428      2.29902900147244
  C   -4.98434448551281      2.12477272134718      1.13713414652946
  H   -5.40478611981546      2.41076818525903      0.17125853671249
  O   -3.46470224100640      1.38753527778990     -1.11516874015784
  H   2.48471702507099      2.31535574315290     -0.40711214106237
  H   -5.85977188062055      1.85068516360926      4.43239307421995
  S   1.62909332578624      0.57415746690727     -2.53464102245389
  S   -7.45655438120591      2.72532555454277      2.20338943019811
  O   -7.54726926888311      3.76106366856579      1.19136561128408
  O   -7.96487756662507      2.89380818398841      3.56347334245620
  O   1.00721411633343     -0.70790306952892     -2.80764008488951
  O   3.05812080307661      0.72555853138982     -2.26772696218476
  O   -8.21209184784828      1.41803200889929      1.56139208767896
  H   -8.59644500895872      0.90567555389954      2.29367758866772
  O   1.27631009990493      1.52111692347287     -3.82749987699370
  H   2.01674833014585      2.13920132208369     -3.95481497323777
