25
Coordinates from ORCA-job 611_0.0
  C   -5.06663480255694     -1.09720010087655      2.28188923474763
  C   -5.24095371560537      0.27941635124668      2.46612591744240
  H   -4.62088030386880      0.98974099993828      1.91319089799993
  C   -6.19923895441612      0.75025741825378      3.36718333718120
  H   -6.33120798645471      1.81943171179298      3.54445950745219
  C   -6.98213374375698     -0.17352878176717      4.06630235596240
  S   -8.20682370900945      0.42389425432476      5.25359459208116
  C   -6.80699421547698     -1.55084593768097      3.90644445963356
  H   -7.40778578547152     -2.24353461441530      4.49906225425048
  C   -5.84376147322159     -2.00983832219021      3.00355638342137
  H   -5.69371687768574     -3.08427111456005      2.87015505458700
  C   -9.69781204300588      0.72650634212222      4.27702006796594
  C   -10.59793048438663     -0.32196116887608      4.06330825427486
  H   -10.39668952694257     -1.30645993446727      4.49009722957790
  C   -11.75648170762214     -0.07803044666778      3.32157686647578
  H   -12.46971932148618     -0.88774542379032      3.14724180171819
  C   -12.00885317258238      1.20189760807818      2.81423826594668
  H   -12.91789396600478      1.38832486621254      2.23627656799812
  C   -11.10918120550722      2.24633763685551      3.05389164559854
  H   -11.31769378963003      3.24874950858448      2.67122038047402
  C   -9.94594255283611      2.01421371014139      3.79338579100775
  H   -9.24213420387068      2.81909743431692      4.01412515731297
  O   -7.73761614406245      1.72883134703224      5.74524397700061
  O   -8.50319005838772     -0.69148496989140      6.16608514107929
  H   -4.31326825615098     -1.46080737371686      1.57815485880999
