34
Coordinates from ORCA-job 612_0.0
  C   -8.38108872804214      1.79631798692863      0.89725215756123
  C   -6.86054033056761      1.75072731147279      0.66081207827499
  H   -8.88140128948011      2.45374356984800      0.16701090671061
  H   -8.61656471925858      2.17657097763048      1.90374724814712
  H   -8.82442355505337      0.79156413897061      0.79870613898146
  C   -6.53979029603595      1.16777487207467     -0.73281096229533
  H   -6.94149093974812      1.83478191630224     -1.51655741667278
  H   -7.08269518262527      0.21300603156856     -0.84782656498976
  C   -5.04229014713541      0.92416832931125     -0.99230251827808
  C   -6.21757816539809      3.11239581068290      0.89882150154746
  C   -6.52761508076049      4.21878162993561      0.08762253603411
  H   -7.23523036879919      4.10527088466325     -0.73884850309316
  C   -5.94684933726001      5.46853911460823      0.31847075395589
  H   -6.20432934234030      6.31360000126300     -0.32630404337422
  C   -5.04041983749073      5.64129365025513      1.37020226863245
  H   -4.58618092691403      6.61908246941842      1.55165248617118
  C   -4.72154492296766      4.55249053510835      2.18547220368771
  H   -4.01415286216570      4.67334889455706      3.01071298941100
  C   -5.30599676439806      3.30341373861387      1.94916720562699
  H   -5.04903076753485      2.45759320365511      2.59446041482981
  H   -6.43103446651595      1.05991133584823      1.40873207837714
  C   -4.76327433772313      0.33371261578225     -2.35773121447689
  C   -4.73804869208690     -1.05709592431563     -2.55362748335216
  H   -4.88795130159737     -1.72190080593048     -1.69691424542479
  C   -4.51783408201625     -1.60382751193306     -3.82139658297432
  H   -4.49834702560350     -2.68986797496581     -3.94907671758550
  C   -4.31772327635540     -0.76553599492273     -4.92253739164747
  H   -4.14208075986845     -1.19086295560548     -5.91433410615007
  C   -4.33810602409702      0.62133689589795     -4.74359295473254
  H   -4.17653956637193      1.28596515024377     -5.59701566656956
  C   -4.55865054669834      1.16257829728051     -3.47361003279256
  H   -4.56666557924490      2.24924403952844     -3.34221678446407
  H   -4.64997229544341      0.24809312686292     -0.21253184960736
  H   -4.49588848240152      1.87540463936088     -0.88343792946850
