53
Coordinates from ORCA-job 617_0.0
  C   -12.84107392982067      2.64789215828765     -0.64783965051304
  H   -13.27666152152308      1.96554112605436     -1.39163626046057
  H   -11.76548632260325      2.77284085124671     -0.86292491582775
  C   -13.04824976119393      2.11320199039806      0.73281382026153
  H   -13.30648116348128      3.64283485460722     -0.75825917303500
  N   -13.65872314128216      1.00834458565779      0.91330380658655
  C   -14.43277347699427     -0.55947429690927      2.40934313978649
  C   -14.47994364208025     -0.84800646936447      3.90071451081264
  C   -15.14749411560798     -2.16906126240272      4.20967814745752
  H   -15.01003094662700     -0.04628082313575      4.44142326769435
  H   -13.46012569944232     -0.86603771934334      4.32206381209645
  O   -15.22803481669073     -2.37887052842321      5.53950023307835
  O   -15.55745253896470     -2.95475933293384      3.39111654477507
  C   -15.83304891680489     -3.60671978093450      5.95935536392736
  O   -13.75185938091132      0.67706322213524      2.25539844460880
  H   -15.45045009827423     -0.49583866057683      1.98648238763194
  H   -21.12666609809725     -4.30550014793889      8.74126853778847
  H   -19.02830663242558     -4.95004884108207     10.62727612416437
  O   -18.40589122789731     -4.11202746349858      8.31116697600577
  O   -20.98525487802778     -5.63068188912202     10.36619350587689
  C   -19.60111353484849     -5.88652537591440     10.50709040260739
  C   -21.26397322479105     -5.36857040091997      8.99597653323354
  H   -23.85263341129839     -4.24486871290166      5.53807435403960
  O   -23.06983348505019     -5.25797218886498      7.46708038633266
  H   -19.46070282039854     -6.50626964844969     11.40576888722696
  C   -15.72948271159371     -3.66467187378241      7.48131687643600
  N   -24.63335053428339     -4.72248241779104      5.97212942487631
  H   -23.38512335534934     -5.68378163393204      9.48346832732751
  H   -26.32911560374973     -3.62453782388371      5.32841600737246
  C   -22.66089574324702     -5.89112776009940      8.68382078309187
  C   -24.38615797613340     -5.37973018178042      7.13678257355875
  C   -17.59015104787381     -5.01116447743396      8.35979343515498
  C   -25.94779423615713     -4.65977495519805      5.37334024086294
  H   -25.94844195090327     -5.07558221217744      4.35100042953497
  C   -20.32969169252577     -6.30927712712261      8.21110486452076
  H   -19.95865650233211     -5.88383580335327      7.26787421508747
  C   -19.17659053044387     -6.60710952480571      9.20459704501033
  N   -16.27500392160740     -4.89308835161637      8.02082597993042
  O   -25.19699277251841     -5.98977168569048      7.80128863882563
  O   -17.85432517422038     -6.27734845208699      8.76255175637262
  C   -22.39228790319247     -7.38525648276857      8.50214067351201
  H   -26.63038968663745     -5.25540434392427      5.99401215453021
  H   -15.70685584010777     -5.73135313161347      8.05572868413557
  O   -21.09082567849974     -7.48026103581823      7.92984225044411
  H   -19.13692173045880     -7.69517416197087      9.33997143244835
  H   -22.43161553376130     -7.88461266179068      9.48854071013836
  H   -23.11900928805183     -7.86942121470005      7.83475724280394
  H   -14.67471640522168     -3.56925349131263      7.78522168556673
  H   -16.28212756400186     -2.82019377383969      7.91791181414908
  H   -15.31740401017328     -4.45837388247594      5.48503762526567
  H   -16.88676313933577     -3.63487406832614      5.63819824622822
  H   -13.90320041370571     -1.36332798333504      1.87010669915124
  H   -12.66947426877565      2.67952526695891      1.60024099750668
