22
Coordinates from ORCA-job C:\Users\AIElement\Documents/61_0.000
  C   1.21595912549710     -4.05065980464537     -2.09257330593903
  C   0.48636371627873     -3.86506864085372     -3.39052256701091
  H   0.73897964327187     -3.53381010549161     -1.24738650592672
  H   2.25455902229221     -3.68320520890447     -2.17052894848156
  H   1.28706082549729     -5.12202853412061     -1.83313915290621
  C   -0.64297213734129     -3.17339672413497     -3.61835313977830
  C   -1.42460421666713     -2.42169225493599     -2.60710445636625
  C   -2.96055509014858     -2.49928290051450     -2.50701425040834
  C   -2.29559911271488     -1.23690608321198     -2.96808893551497
  H   -0.92711277667048     -2.29403908878774     -1.64222768713598
  C   -3.81836857655168     -3.36786306811653     -3.40707951246721
  H   -3.33717304694173     -2.42952362960755     -1.47962048523892
  C   -5.27671396942183     -2.90269836215209     -3.45024500225449
  H   -3.76124851601929     -4.40602874666189     -3.03445620583624
  H   -3.40489854904800     -3.38460808007516     -4.42645088472557
  Cl  -2.44583778040225     -0.73455602096310     -4.66959282989716
  Cl  -2.28572880497321      0.16431626183040     -1.86653372031565
  H   -5.88572263762775     -3.56438398371539     -4.08680024161272
  H   -5.35130421609894     -1.88124152602927     -3.85594285314500
  H   -5.72900060699181     -2.89780854421346     -2.44443045948306
  H   -1.02732758431299     -3.14637719383577     -4.64158846778655
  H   0.94169528909466     -4.36128776085916     -4.25663038776909
