52
Coordinates from ORCA-job 620_0.0
  C   -9.31362398991614      2.09942788116958      3.05308702942826
  H   -8.69196160947870      2.22549689328576      3.95698585381392
  H   -9.97291148499713      2.97168892905689      2.94151926341194
  C   -10.12359371733277      0.84136899679570      3.14501692426675
  H   -8.61818077746486      2.05281745077414      2.19674822211788
  N   -11.39113399090933      0.83771823015931      3.11164280361508
  C   -12.09516206267449     -0.42251806948787      3.22022278645939
  C   -13.07026550752708     -0.58566466990670      2.05334615138833
  C   -14.00143523919409     -1.76537696568591      2.22180134824334
  H   -12.54096032619784     -0.68419044675978      1.09140723263305
  H   -13.68854741641097      0.32422493315713      1.95805822524356
  O   -14.67867698658124     -2.01575003613685      1.07669040879804
  O   -14.15193230510173     -2.39960747130198      3.23639848834064
  C   -15.64274099482010     -3.07412195566469      1.09195840097216
  H   -11.41353128985238     -1.29759706451582      3.27419330994249
  H   -12.67923041792928     -0.41888536584485      4.15643546224693
  H   -19.81603111416422     -9.77744275885555      5.20647165858471
  H   -18.84310875212035     -9.33894832003962      9.83026061060108
  O   -19.10961641513637     -8.68443302512432      3.59976359963454
  C   -18.98532775469668     -9.79270739647514      4.48684550697127
  H   -19.01455256731798    -10.75091365683390      3.93478928969418
  C   -18.46917467973512     -8.31240462801074      9.71915050906036
  H   -16.59019722477710     -5.43387856524838     -0.29550189735347
  H   -18.39349430816509     -8.81172090513999      1.29149479323014
  H   -19.27697203620148     -7.61199927208042      9.99328263819630
  O   -18.49556922858609    -10.27057769328793      7.62283669758311
  O   -17.14997934930539     -7.27932996846036      0.98477716440084
  N   -15.97006346419661     -5.45420939118558      0.50607493006079
  C   -17.82723523634089     -8.16244051589500      3.26061652310733
  C   -18.10412929660303     -9.13910567015098      7.42763965779388
  C   -17.48478552034301     -8.42837573268950      1.77228093940591
  N   -18.05586988135023     -8.13609704801761      8.34516426364900
  H   -17.79743544744848     -7.09038255317940      3.50301963729156
  H   -17.62996248675265     -8.16767379990795     10.42203590317800
  C   -16.14076585766945     -6.47285464715859      1.39722728632781
  C   -17.62002250260704     -9.64052991526603      5.15758619382398
  C   -14.99248054687864     -4.40478243369517      0.69622148738187
  O   -17.64154960805384     -8.69022166821552      6.22765004338880
  H   -17.68555319843771     -7.24576934080355      8.03476003572892
  C   -16.80184946949209     -9.00858815060991      4.03805050867387
  H   -17.20739404094489    -10.59732631403342      5.50592592071758
  O   -15.48937339796429     -6.64079501433349      2.40736758094085
  C   -16.37046881880265     -9.50207294334714      1.82452051483244
  O   -16.41305126775999    -10.03603129516820      3.13393245262527
  H   -16.53854028456953    -10.32815376061295      1.11657864668791
  H   -15.93992731490558     -8.42572425145067      4.39911817908465
  H   -15.39001037349622     -9.04230910233094      1.60857006114694
  H   -14.40455110558121     -4.25839235570757     -0.22643220067925
  H   -14.30943690511536     -4.73161343274635      1.49259013169915
  H   -16.41088681342281     -2.78403054184650      0.35824681165664
  H   -16.09995049236508     -3.15567311328955      2.08899319231817
  H   -9.54731512230344     -0.10593208789582      3.25110881763286
