54
Coordinates from ORCA-job 623-_0.0
  C   1.49957513535968      6.59083121908832     15.34313974509895
  C   0.74958968697430      6.97233973954476     14.22741324489545
  C   1.38187170431951      7.51093899827514     13.10255004846432
  C   2.77190643426433      7.66002239343715     13.09792575287187
  C   3.52395238118084      7.27412390225206     14.21016984466961
  C   2.89994459933438      6.73465263255897     15.35076029341218
  H   1.00218033866919      6.16054302421203     16.21424897910425
  H   -0.33635898107325      6.84469653565866     14.23637173726175
  H   0.79328360032623      7.81185769382494     12.23180892066229
  H   3.27592027330201      8.07939674629785     12.22299508075188
  H   4.61055860938731      7.38795709282652     14.19889317108167
  C   5.09801998622991      4.43168233818343     15.55207359808521
  C   4.13669675645679      3.79062435252743     14.74467938558379
  C   5.87497427963788      2.59158727408888     13.55327595884463
  C   4.52162839738968      2.88254370111266     13.75786715044522
  C   6.83986096844182      3.21262822208430     14.35120555266013
  C   6.45701200494802      4.11977270352585     15.34279104983285
  H   7.22681524145459      4.59098225217919     15.95711315904194
  H   3.75775011078197      2.39322355149368     13.14743724731022
  H   7.90034032974462      2.99095554992143     14.20433300544799
  H   6.17454827467689      1.87932175559341     12.77986020698126
  H   3.07767277400084      3.99707259946699     14.90670924475224
  C   3.71839224854367      6.34495692952573     16.52811104221151
  C   4.69271563942855      5.39823336141945     16.59393510640308
  C   3.73488921600887      7.14443421494727     17.83906634275443
  C   5.06937763947911      7.99810469781560     17.83332858225909
  C   6.21310049640590      6.88924177699330     17.93933200866536
  C   5.39867417120164      5.53303367274342     17.94646849757569
  C   4.18907121708653      6.01407490354344     18.78948811613527
  O   3.81459455016120      5.68767255414165     19.87406130300103
  O   7.25267878592366      4.10742639164666     18.64222172409421
  H   6.13335839658345      2.11327043939900     20.00749212513166
  C   6.07254436248737      4.26478521698086     18.43422316804887
  C   5.64534523761714      2.02317357604190     19.02520186159696
  O   5.16252470802476      3.29274460338314     18.58421614245888
  H   6.37197328713541      1.61305500915669     18.30730835386900
  H   4.76619655434694      1.37080516318401     19.09455924065623
  O   2.24927756281197      9.05409727244517     18.05388543694892
  H   0.33891701127696      8.31053309508032     19.70700697526497
  C   2.44276603306559      7.86785043953893     18.16167512000791
  H   -0.23533955158024      8.04672006892804     18.03574468317006
  C   0.22768173617655      7.56134968074499     18.90884719715142
  O   1.49630989839224      7.00179132663823     18.56296662347079
  H   -0.38971688488619      6.72340999118068     19.25571430567143
  C   5.11966762036055      9.08509887756857     18.91216301688041
  H   5.13937592473792      8.49114490403568     16.85239876633019
  H   4.96197428763167      8.67941864076444     19.92402227310285
  H   4.34371957108250      9.83689695199070     18.72429596062025
  H   6.09584616654492      9.59216535558538     18.90472350049227
  C   7.15846310109852      7.04966185895904     19.13508413512971
  H   6.81597563181298      6.91769169041798     17.01938573677529
  H   6.63190753578006      6.95768882800029     20.09806291460943
  H   7.64804432830962      8.03426440631900     19.11332888389590
  H   7.93530061114239      6.27672982272642     19.10579847835610
