70
Coordinates from ORCA-job 625_0.0
  C   1.00302731570070      6.10163879077775     15.36787739993028
  C   0.51931480076875      6.78984326075829     14.25662203365582
  C   1.39484814738494      7.48493679811690     13.38605816292920
  C   2.77730747712910      7.43739349389355     13.69725854513552
  C   3.24438339917180      6.74009567694125     14.80819835022442
  C   2.37506371637660      6.05107047618192     15.67704134856452
  H   0.28698761332655      5.56349995885225     15.99228804501631
  H   -0.55335557838985      6.77470974495811     14.06499528469317
  H   3.50373886669596      7.94875873579874     13.06586755823404
  H   4.31515751990143      6.73570372955739     15.02087277609937
  C   4.47321424213143      3.68599381032778     15.65272277956374
  C   3.63371790461198      3.23648437037131     14.61351072419018
  C   5.51867504903486      2.33530262144232     13.34265744216805
  C   4.13007102532256      2.57977573707271     13.49222600952662
  C   6.36405137993558      2.78638751187154     14.38658097524742
  C   5.85166542995665      3.43597766976046     15.50696177781614
  H   6.53886680195226      3.78761315230733     16.27709575891680
  H   3.42417505777914      2.24920540020355     12.73054059399665
  H   7.44183522233652      2.63552098801438     14.32727710855281
  H   2.55603797564420      3.39431555569631     14.69224244391725
  C   2.91163815961237      5.30915000509323     16.84272960656898
  C   3.89884354721028      4.35920814744621     16.83689781716701
  C   2.50700706113579      5.58055722632271     18.30208382561116
  C   3.73549390996302      6.29273713353091     19.01315808204384
  C   4.79928363097572      5.14938259074066     19.11306464371800
  C   4.19399658103589      3.95563169710401     18.29490412014741
  C   4.80341642134128      2.59242645754187     18.56779127794800
  H   4.27732201756952      1.81225927107656     17.99805061061827
  H   4.70626528385742      2.34464273697376     19.63745149381202
  H   5.86711487785976      2.55926158090055     18.29692054332419
  C   1.14748946881556      6.17499505134974     18.61589838132029
  H   1.03132102731083      6.29445074645345     19.70468105386369
  H   0.34382808539518      5.50477726874557     18.27692959059589
  H   1.00872519221451      7.15924182862780     18.14721864333479
  C   4.17255622866770      7.52941955108520     18.25252470747610
  H   3.41563009901342      6.61930384262876     20.01375325722602
  O   3.35943798799280      8.56732237658157     18.51777183645421
  C   3.61086438580116      9.77320113404066     17.79166734702401
  H   4.63895559674811     10.12519923985630     17.96532383137064
  H   2.88657308379852     10.50892540131542     18.16318170553673
  H   3.47099831545829      9.61079464455216     16.71210097999969
  C   6.24309026877886      5.53250984991024     18.83525756456788
  H   4.81392589932162      4.83023181943306     20.17064624522470
  O   6.62932256564193      6.50391966766329     19.68491474261690
  C   7.94768555697047      7.01848225807741     19.49834705852498
  H   8.03242655544574      7.49612067537948     18.51010562043116
  H   8.69766093323329      6.21628992031807     19.56975534631640
  H   8.10383726849794      7.75903551924263     20.29328736116801
  O   5.09894958897930      7.59734136587390     17.47920387380529
  O   6.99431475837831      5.00522234912443     18.05266546352765
  C   2.74031797667835      4.13561979286495     18.78447694972749
  O   1.99976742205352      3.37182484887573     19.33864141146040
  N   6.02343010698493      1.68354538894695     12.23013804832914
  N   0.92265428644066      8.17650764035885     12.28268452079189
  C   -0.48892773169075      8.15318109062912     11.96360113317274
  H   -0.86053856659246      7.13239573355471     11.74620254723292
  H   -0.67326725426030      8.77291484752003     11.07602476908187
  H   -1.10594703626126      8.55908869252717     12.78644944375483
  C   7.44469406157936      1.43260105544525     12.11997259299493
  H   8.03754409076560      2.36716235517672     12.10426273085419
  H   7.64895372481835      0.89235952405866     11.18597756634912
  H   7.82678321787532      0.81514288545762     12.95493067007329
  C   5.13077239254878      1.24742262809077     11.17789184968697
  H   5.71279984255333      0.76530971990154     10.38117193694290
  H   4.57435215049003      2.08963910226063     10.72412596685464
  H   4.38241330449516      0.51464111116691     11.53618219745289
  C   1.85354142020061      8.81359488101262     11.37540704899333
  H   1.29616723145316      9.31381387122060     10.57232835434350
  H   2.55059928593950      8.09283346438309     10.90500861683372
  H   2.46726235013177      9.58103252665387     11.88257989534467
