72
Coordinates from ORCA-job 626_0.0
  C   4.04776900587991      6.37188703658189     16.74025657076361
  C   5.07095808649086      5.39400522867554     16.81535309407152
  C   3.01440278861497      6.07366498550369     17.83934384563677
  C   3.80835043892436      6.28444328250860     19.15365081380559
  C   4.80536757249940      5.32849311176825     19.22779995407204
  C   4.73096168842215      4.43058431493490     17.96571820563830
  C   5.20894314907946      2.99752836193971     17.98940795893212
  C   1.56572661851086      6.48304555545006     17.71323653796416
  C   3.17441487371951      4.51715506577523     17.82639525503206
  O   2.35537678716995      3.65775740737568     17.75728440345043
  C   4.16175689966280      7.44500374979915     15.85800862179606
  C   6.20223996847984      5.49807637302656     16.00696590508050
  C   6.30313378123254      6.57077375565102     15.10812753469998
  C   5.29397310289707      7.53380328717435     15.03421128028990
  H   5.39383166165723      8.37565273647183     14.34388833431143
  H   3.40080053154833      8.22651785389881     15.82275321671151
  H   7.01865486180956      4.77828305202334     16.08516441018957
  H   7.19014594389023      6.66206071448200     14.47560336483685
  C   0.69388701165124      6.28633859373559     18.80460452422876
  C   0.99394631735527      6.89911099016075     16.50540715089141
  C   -0.37807936802587      7.16097607733003     16.38627760575102
  C   -1.22131108457275      6.99005369653849     17.49220288448420
  C   -0.66723870996273      6.54006016665715     18.70503304822904
  H   1.09424334142717      5.92630236881031     19.75512354410911
  H   1.61327423084370      7.00726314288161     15.61486208579451
  H   -0.77078933397744      7.48613036970399     15.42259910547405
  H   -1.33443490967558      6.38903275606071     19.55639250800498
  C   4.92468619755513      2.19793114913949     19.11657803590774
  C   5.24521827667939      0.84804941343432     19.15259446761399
  C   5.85683408015237      0.23089323584893     18.04561294341818
  C   6.12057245145011      0.99979263142590     16.90440010823385
  C   5.78792281328041      2.36170904174905     16.88548520061651
  H   4.44097815714683      2.64676227318472     19.98732124026128
  H   5.02475283272810      0.23793077483276     20.03116850726298
  H   6.57357009941266      0.55603936099003     16.01755266104404
  H   5.97441008401476      2.91881057034013     15.96762578980406
  O   6.13890437940986     -1.08974774034930     18.17354049175388
  C   6.74551483305763     -1.78865731013083     17.09798325866695
  C   6.94097139518885     -3.23155353386050     17.52453232395723
  H   7.71554386098152     -1.32058439153030     16.84146136960496
  H   6.10385282944980     -1.72960230182922     16.19794077885878
  H   7.58571070891241     -3.28982910125223     18.41524123268085
  H   7.41236625896725     -3.80876293976601     16.71358590864265
  H   5.97442086544958     -3.69865852160499     17.76915283994068
  O   -2.55858120404722      7.21810559921293     17.48977969180257
  C   -3.19931665481693      7.64067030932126     16.29651189390379
  C   -4.67995920830830      7.79830886785280     16.58733840424994
  H   -3.03509134246735      6.89562022088275     15.49433240523332
  H   -2.76335878146275      8.59789180671143     15.95065520373469
  H   -5.11460568554707      6.84271521176441     16.91930162771268
  H   -5.21332319107977      8.12882856919333     15.68212403829161
  H   -4.84335989838084      8.54420338975399     17.38065421312318
  C   5.79549871639089      5.34761994737801     20.27296042542677
  C   5.65684604975686      6.32023548665725     21.31724893689619
  C   4.60534051387094      7.33163771084020     21.23803070398857
  C   3.71166983181475      7.35089086887398     20.11660066827215
  C   4.47393627518469      8.35445420200696     22.21095605212712
  C   2.79893600104503      8.43096774015485     19.98431459227645
  C   2.71679259631129      9.42545432505733     20.94259840557825
  C   3.54831965878511      9.37535601998061     22.07704805186588
  H   3.47803447673756     10.14964775096640     22.84554929611491
  H   5.12389197151057      8.35683312257555     23.08613784333216
  H   2.15355068042461      8.47785176007569     19.10929371788200
  H   2.00598595471234     10.24629899510471     20.81662249421211
  C   6.60535214029459      6.30394327578318     22.37110318932196
  C   7.66486373826819      5.41286646553198     22.38657120914684
  C   7.83206753061889      4.50149731689154     21.32708157543159
  C   6.91310952123799      4.47171611697369     20.29349093689117
  H   8.68435335020985      3.81713589237051     21.31848655127457
  H   7.04947761899213      3.76585068679250     19.47654685090545
  H   6.51717001818170      7.01777891700691     23.19016204289635
  H   8.37882394237343      5.43143277874378     23.21422005558870
