54
Coordinates from ORCA-job 629_0.0
  C   2.44422736541637      7.83098387773362     15.71183965514501
  C   2.12994200470526      8.61953498659813     14.60264168701043
  C   1.93167914942100      8.02947819115471     13.35058888607598
  C   2.05129719798348      6.64282500202063     13.21819786749642
  C   2.36841728848640      5.85376479270531     14.32581665502643
  C   2.57492284820641      6.43246748990151     15.59353890398283
  H   2.61285723183348      8.30797499573128     16.67961853517512
  H   2.04295199064081      9.70333939267304     14.71813192867523
  H   1.68311977582191      8.64712673618631     12.48355700748959
  H   1.89231055282734      6.16906129754064     12.24565077986171
  H   2.44925493620679      4.77086523309601     14.21377459686208
  C   4.83388733694600      4.27376887806744     15.77412062750718
  C   4.86742799757354      3.00420811861840     15.16630708201866
  C   6.75342288516508      3.66590956566770     13.79451960046611
  C   5.81552772059234      2.70493634440624     14.18398877447250
  C   6.73330036260211      4.93049061219299     14.39127921983592
  C   5.78315207294090      5.23165799633773     15.37013184177385
  H   5.77202106071533      6.21983896069360     15.83568050548629
  H   5.81834706494837      1.71568385816518     13.71803767370630
  H   7.46277536578003      5.68877873655258     14.09374176195903
  H   7.49605515806286      3.43062799663114     13.02735436799352
  H   4.13063703208498      2.25005354922592     15.45071311567513
  C   2.89220185642980      5.58202531836483     16.76655097857926
  C   3.83784670791143      4.60544417121572     16.82824615593604
  C   2.13695903319256      5.71447274557905     18.09877611538590
  C   3.88694551331882      3.96813578377823     18.23013600253452
  C   4.06557655135058      2.45046635465075     18.31113415325516
  H   3.28065300658998      1.92708671952359     17.74471236569987
  H   3.98775843930183      2.13132605569412     19.36120898565612
  H   5.04661958855235      2.14315247363605     17.91976640959891
  C   0.61755811989743      5.85809656634644     17.97764205001254
  H   0.15786941151287      5.78627696498754     18.97461862604570
  H   0.19813775611614      5.05683909852325     17.35073055045977
  H   0.34550743877869      6.82430414602455     17.52739203219551
  C   2.52409243272369      4.39633620534438     18.77836950416294
  O   1.85155924660288      3.78113739404747     19.56447453220111
  C   5.02890381306467      5.91478181226210     19.55229396489257
  C   3.92527898664765      6.93233597236259     19.56358147249819
  C   6.26178101390818      6.30609978067016     20.18228648914917
  C   4.17818262149728      8.14023789877478     20.30224763382689
  C   7.31891665674162      6.61038206585521     20.69955177369616
  C   4.35149310423850      9.16682969586892     20.92976830342931
  H   8.47097566934116      7.08322856599071     22.42093254509853
  C   8.58056834161941      6.98665827297825     21.32708234414922
  H   9.36462820822418      6.23484866204354     21.13605590116691
  H   3.93782258987603     10.43445754187769     22.58389867191865
  C   4.58075456983004     10.39094890011838     21.68794811623590
  H   4.36514136847780     11.28742171303463     21.08184562374089
  H   8.94595460290325      7.95459637183444     20.94352793044435
  H   5.62864777729217     10.45916671317072     22.02537986048655
  C   2.71816390583787      6.84692052024866     18.93468694334889
  C   5.00134352437377      4.67275689434068     18.99173728563347
  H   2.05823143190729      7.71119726929231     19.05650824582167
  H   5.93264231297891      4.10180473965963     19.05608735904222
