41
Coordinates from ORCA-job C:\Users\AIElement\Documents/62_0.000
  C   -0.88224504141989      0.25486542416961      1.08315580639676
  C   -0.21292733070210     -1.08338421617936      1.25282587297431
  H   2.69889091811127     -1.91082836215858      0.96330765292271
  H   4.27664890719932     -2.81920815568738      2.42928962557214
  C   0.59255197280383      0.08218212537674      0.74230939120751
  C   1.70397582794257      0.76061189660499      1.52128705601766
  C   -1.94470488079594      0.55175034838971      0.04124933078948
  Cl  -0.55296831334790     -2.41283847336260      0.11796529952254
  H   -1.05720343297450      0.75004575451972      2.04722595759730
  Cl  0.02012102248499     -1.68615433895468      2.91187075285363
  C   -3.38815419101769      0.44572697562917      0.57970995121933
  H   0.79124817033144      0.00167470719523     -0.33440848864306
  C   3.11774779476029      0.24815650693694      1.16876299736118
  H   -1.78351725035662      1.57980670518499     -0.32951237638693
  H   -1.81433927482124     -0.12125748460800     -0.82138657464260
  C   -3.77708679820788     -0.92549904639112      1.06695547881449
  H   1.65965838396376      1.84326509974778      1.30564069181107
  H   1.52181571317240      0.64488369733294      2.60192636440485
  C   3.35570797877193     -1.20504240932625      1.48680553686326
  H   -3.49037588691611      1.16070142718661      1.41955283337712
  H   -4.08096710964530      0.79516437731711     -0.20160050250716
  C   -4.78763410296365     -1.69685982667094      0.63691934049427
  H   3.27554960339996      0.40437293335820      0.08386521796339
  H   3.85712483055701      0.88581384932619      1.67781621413233
  C   4.25893400181025     -1.72498562866952      2.33261406247638
  H   -7.97548470225017     -1.25254353731033     -0.71268486405105
  H   -7.49010865435834     -2.39293914739094      0.56453632157928
  C   5.27781444607777     -1.00768340847467      3.17781698080406
  C   6.71717989178264     -1.46323496757176      2.89261871450783
  H   -3.14794244436103     -1.33102677411241      1.86885045306946
  H   -4.91039069790974     -2.67264277397259      1.12663390163001
  C   -5.80699621619899     -1.40140872642788     -0.43090006455466
  C   -7.24915674206655     -1.42231385899975      0.09893519661734
  H   -5.60459561117181     -0.43163563775138     -0.91335247276627
  H   -5.71346971230393     -2.16367840845986     -1.22788794936030
  H   -7.40396898147237     -0.64287037616548      0.86288703299618
  H   5.20138899787480      0.08389985766129      3.04769556311738
  H   5.05144735189238     -1.20341162856308      4.24356997565452
  H   7.00523567707541     -1.24535958479479      1.85107561130075
  H   7.43599381384418     -0.95697864924661      3.55746494391002
  H   6.82991207140560     -2.54987626468727      3.04556316295343
