72
Coordinates from ORCA-job 630_0.0
  C   1.51517146449291      6.75641957754272     15.13723934069636
  C   1.34158896069004      7.54089842709846     13.99356922299606
  C   2.43984029084910      8.14838584606476     13.37818320083596
  C   3.71752795808499      7.95840762396208     13.91412533650217
  C   3.89202218675002      7.17173493937089     15.05410273287457
  C   2.79533028038773      6.55556740504146     15.69146902610823
  H   0.64724337452408      6.27270556104503     15.58690079675910
  H   0.33876410177715      7.67210795894791     13.57786515015764
  H   2.30168882461514      8.76306465476356     12.48479528779803
  H   4.58611067906712      8.42480396917549     13.44123154413792
  H   4.89576340158246      7.02433790986481     15.45987465479944
  C   4.65022796103763      4.01870422178843     15.92958391081146
  C   4.02942018931836      3.73199032205141     14.69662575855639
  C   6.07368178477474      2.74980606506915     13.84126198899875
  C   4.73198823223831      3.10531660581585     13.66621179658988
  C   6.70181072761896      3.01853371303595     15.06036975048718
  C   5.99714060786437      3.64020026455486     16.09453378035782
  H   6.50923533351791      3.83087955824125     17.03925239319177
  H   4.22595037961271      2.88799298650772     12.72159647147127
  H   7.74786185607665      2.74160607384238     15.21556421545943
  H   6.62373376802101      2.25926970999437     13.03370661229046
  H   2.97948491014640      3.99379532600469     14.55380640829318
  C   3.01580309460112      5.72598593852677     16.90331443354541
  C   3.88959809669043      4.67362618025872     17.02251736715993
  C   2.31695841065931      5.94443492807826     18.22797267027842
  C   3.35315409161784      6.42361775952690     19.29386614774030
  C   4.35929764612927      5.21152879106644     19.44528155162501
  C   3.84412137070450      4.14385521110328     18.43172966781847
  C   4.16241086573534      2.69475951975933     18.70672223552790
  H   3.65831709516919      2.04558648307722     17.97506334108429
  H   3.78873385277263      2.42178438489129     19.70620869445117
  H   5.24039672023274      2.49228020552420     18.66770149708386
  C   0.94554388309037      6.57250313148403     18.28901789136411
  H   0.62803652548794      6.70083149520409     19.33338171677023
  H   0.20643648672865      5.92095464705630     17.79815704612760
  H   0.93255459351524      7.56059505531513     17.81069084396038
  C   3.98754301063494      7.78304503540230     18.98968522519703
  H   2.81662357460551      6.53436395328639     20.25007673571900
  C   5.83092799910460      5.58755754491590     19.31990410524789
  H   4.23024383702634      4.78876428204275     20.45543138048920
  N   2.26603765245805      4.41998178515580     18.70280179108023
  N   1.40614223558846      3.74594055431559     19.12806692647096
  O   3.01164677421659      8.83514318837591     19.11786284397795
  H   4.35730615147727      7.84167836863122     17.95699773318319
  H   4.80599908505839      7.99916632453649     19.68646976735284
  O   6.62778872860362      4.44472447522399     19.68386442319670
  H   6.09736200086694      6.41208007559946     19.99558568531587
  H   6.09992579902683      5.89783777434968     18.29691696806642
  C   3.05413969146928      9.59670127367319     20.22622189121197
  C   1.94525212008337     10.65932424728801     20.24592430452217
  C   2.26904750874390     11.74582531736506     21.26209744734606
  H   1.42651114748115     12.44555872209915     21.35508095318639
  H   3.15628268274469     12.30701152921176     20.92229235555443
  H   2.49838793046917     11.31575288102796     22.24494954312214
  C   1.60964079160481     11.21336303294898     18.86599888638623
  H   0.78376551725348     11.93602654503684     18.93769923352582
  H   1.33127336175423     10.41916278663607     18.16279155552401
  H   2.49322241247369     11.73755697847646     18.46173792916631
  Br  0.32600615324422      9.65376360844229     20.92768420930142
  O   3.87680444272805      9.47750561299307     21.09964441274488
  C   7.91857867389357      4.67506633019835     19.97976816073120
  C   8.66165294512979      3.39738024529759     20.39725425521494
  C   10.01813597378974      3.74315320468480     20.99531315564779
  H   10.59966320974441      4.38644387828026     20.32304304908025
  H   10.58686043593628      2.82712150284128     21.20891139866083
  H   9.86599196448118      4.29239867979935     21.93966193332999
  C   7.82680973948002      2.49225251255359     21.29787595547335
  H   7.60731251366229      3.02318040245716     22.24082176261556
  H   8.38675665761696      1.57760997267088     21.54157723444875
  H   6.87499678853878      2.21458672707397     20.82873746580760
  Br  8.98933798855543      2.41276128466673     18.66063071456857
  O   8.42740249427084      5.76710691178541     19.94565412281858
