73
Coordinates from ORCA-job 631-_0.0
  C   2.04041539780046      6.88650902307428     16.27382095668837
  C   1.26926481598285      7.52773270332842     15.30076151072706
  C   1.84010643475194      8.50793846451754     14.48169203207036
  C   3.19004217410315      8.83694453786903     14.63825023305286
  C   3.96222876775801      8.19513041400501     15.61047717344528
  C   3.39836453199082      7.21469722184875     16.44486959266689
  H   1.59546968863013      6.09638470756502     16.88342412852673
  H   0.21927839368625      7.24996052774690     15.17464258653005
  H   1.23680989411554      9.00664295472754     13.71843772719540
  H   3.64786247490359      9.59558733004955     13.99777946421580
  H   5.01812058489481      8.45210356076208     15.72335939273932
  C   5.64241366776085      5.19091170243798     15.81942820186716
  C   4.69446731791222      4.60912603350061     14.95649873518898
  C   6.39027735524510      4.28437412927467     13.25480078450825
  C   5.06609444911484      4.16090669956736     13.68680534686082
  C   7.34364947133727      4.85312056305143     14.10478878830282
  C   6.97464940096169      5.29728879084036     15.37725570725813
  H   7.72896649979162      5.74204796040393     16.03018726464647
  H   4.31573490263689      3.70829581942481     13.03316815843082
  H   8.38187954565373      4.95262318913323     13.77715483096046
  H   6.67985143255911      3.93336630349262     12.26081283255938
  H   3.66322721741914      4.49708049370432     15.29608016633411
  C   4.22838441555783      6.51362520477996     17.46313229019938
  C   5.23784039618764      5.64162675989406     17.17973819781920
  C   3.99343893167181      6.61888469777486     18.95592627957179
  C   5.28803012613531      7.13957531092512     19.66956573554795
  C   6.43982675500925      6.09285178135671     19.36235009929770
  C   5.81070906249784      5.00909204352625     18.43338603962583
  C   2.66843948902125      7.12399736717589     19.49840631404767
  C   6.54040871817202      3.68513317807206     18.22898821715980
  S   4.16412192792181      4.76874561997656     19.37854495833005
  O   3.20360910105167      3.91819731613471     18.65957707791738
  O   2.50096142308156      8.51609047965896     19.19693262353989
  O   6.50235490326718      2.86704590118600     19.40387731291232
  C   1.33141702671119      9.06410617850426     19.57452980106176
  C   1.24836823206924     10.56161598035051     19.24974167591952
  C   1.79182713634384     10.90156691695688     17.86646532468691
  H   1.74229090007870     11.98714098988291     17.69669677133599
  H   1.17414933262015     10.40081375740120     17.10122137529874
  H   2.82752238101953     10.56434509908060     17.73812608993419
  C   -0.16698212351971     11.07480339204346     19.47521136169797
  H   -0.20565915469283     12.16413902629061     19.33342435081273
  H   -0.52895961268921     10.82346383228549     20.48010575395594
  H   -0.84296319755387     10.59986921473656     18.74440133618399
  Br  2.44540378804769     11.43712893515032     20.62732478188668
  O   0.44428412675401      8.43776974386351     20.09633497434319
  C   7.54513035591801      2.88534420154911     20.25173543092557
  C   7.36028147363733      1.88823280045459     21.40301744422862
  C   8.21180416276034      2.29419876164206     22.59798271510826
  H   9.25147012908059      2.48266879839903     22.30194165159200
  H   8.18579785196682      1.51091882249361     23.36854066004693
  H   7.80296008223398      3.22340050333835     23.03118428096728
  C   5.90226061884427      1.62887246352773     21.76124719956885
  H   5.42357074275083      2.57696653545179     22.05757824248792
  H   5.84215635156850      0.91603595034272     22.59662710001844
  H   5.34028274261896      1.23001142653488     20.90802019685365
  Br  8.13673882481671      0.17677996531476     20.64536450542039
  O   8.50440080153366      3.60555917554860     20.12157625783808
  H   2.64278123383637      6.98513117418278     20.59148747248261
  H   6.02419969088025      3.09930319600667     17.45759785326050
  C   5.61424824178582      8.59823020410369     19.32925857314017
  H   5.08133613857170      7.08496448252360     20.74972227911174
  H   5.79336223962866      8.74557603319379     18.25377012613285
  H   6.51645929832421      8.92458352344568     19.86760550905899
  H   4.79182148860398      9.26077281677980     19.62939292925252
  C   7.73909330992158      6.67185808493275     18.79690388976171
  H   6.68991733087214      5.59718677958559     20.31049959459677
  H   7.58780379280119      7.19901959954754     17.84329988003990
  H   8.47885832583580      5.87074607601692     18.65399575654028
  H   8.18241627596198      7.38686963326317     19.50551975731230
  H   1.82273726119697      6.55757855530385     19.08261148316689
  H   7.58278045765909      3.84670242438503     17.92011050216972
  O   4.34505227261584      4.58366615479839     20.83012435105314
