54
Coordinates from ORCA-job 632-_0.0
  C   1.29722693978776      6.76443242213122     15.14503769638746
  C   1.08386260420190      7.66585553357320     14.09855693384954
  C   2.16005945204104      8.34726872670145     13.52253824923900
  C   3.45398995477839      8.11496916222785     13.99932612764473
  C   3.66813860859508      7.21095524560311     15.04187239011267
  C   2.59459362413455      6.51800182710511     15.63668258328864
  H   0.44744523594873      6.22638674695668     15.56821198524857
  H   0.06841117981435      7.83234029225835     13.72858377401348
  H   1.99173869468127      9.05423776439640     12.70577697987940
  H   4.30438982097199      8.64096491302293     13.55677577315236
  H   4.68308369934931      7.03388059237078     15.40458312796206
  C   4.54399232025252      4.02932306878455     15.60180913578493
  C   3.96855484466031      3.78654405767332     14.33911445858903
  C   6.11516986385267      3.10645092878487     13.44069814842666
  C   4.74492949778698      3.33017144533052     13.27191274598412
  C   6.70185260443593      3.33946340562252     14.68841419510885
  C   5.92424705389779      3.79079056653523     15.75781112598137
  H   6.39923552276058      3.97692483526371     16.72417322807468
  H   4.27496531463476      3.14411444484286     12.30230623439692
  H   7.77255157248252      3.16961383160545     14.83147143547610
  H   6.72224744339191      2.74911333039465     12.60465610686671
  H   2.89783190311893      3.95106957878222     14.20184446895592
  C   2.84110984468415      5.55538612262024     16.73969763580127
  C   3.71597347383400      4.50762045251696     16.73284267956083
  C   2.20846987857622      5.64070257895741     18.13938922495171
  C   3.33771184213033      6.05632970678068     19.16122053652039
  C   4.36914850428353      4.86815597475160     19.12048765798141
  C   3.70590156712398      3.83874396522432     18.11688540954815
  C   4.08849089601253      2.36928867172081     18.18001013524004
  H   3.50052949899899      1.79707669500695     17.44573122354437
  H   3.86138797778189      1.95108275001116     19.17155640014226
  H   5.15169630240954      2.19689496022558     17.96205908992312
  C   0.85001052093686      6.29992975725821     18.31660717328386
  H   0.59404044829967      6.35780194967156     19.38614852496590
  H   0.06281179384672      5.70184852894537     17.83148464296501
  H   0.81418861575702      7.31664073916735     17.90263904730377
  C   4.01549701508547      7.42027627104878     18.97174165018680
  H   2.85491614046665      6.05130569675176     20.15636881065772
  C   3.15482965361512      8.65343238588701     19.25713185582480
  C   4.68288898223495      4.34130295045641     20.53466930488743
  H   5.31122581268865      5.22799050854683     18.67232336781026
  C   5.99136870849499      3.55952274321245     20.68295489119285
  C   2.22743649213556      4.12827463494633     18.43107209752399
  O   1.35061443791802      3.39512269676920     18.79577064000899
  H   3.76570100584285      9.57022203322089     19.22453656349838
  H   2.69308937210066      8.59909863834970     20.25773466315670
  H   2.34442747343551      8.77785788601170     18.52356064740495
  H   4.89171695438844      7.44198440282738     19.64639634231073
  H   4.42938471596607      7.47948703065512     17.95040867839385
  H   3.83098295282511      3.73948629302751     20.90079688579063
  H   4.73325011408724      5.21451713817393     21.20951144924371
  H   6.00044126514771      2.62911200528822     20.09694435817944
  H   6.16609101257411      3.28580029558441     21.73621862585912
  H   6.85202897073810      4.16671081641705     20.35380288191391
