54
Coordinates from ORCA-job 632_0.0
  C   1.25041431958055      6.63693431666636     15.37261671016975
  C   0.86598727161075      7.47671107631448     14.32370975308565
  C   1.82547740969416      8.20148132924674     13.61094299601655
  C   3.17561981385230      8.07262584133483     13.95208622035131
  C   3.56058174391720      7.23063187255192     14.99715243236944
  C   2.60629719443058      6.49755015005855     15.73149488667362
  H   0.48899151926595      6.06300654532082     15.90262819048577
  H   -0.19191712604496      7.56098577082996     14.06012913455325
  H   1.52343275702918      8.86092124573803     12.79296434406794
  H   3.93647704393710      8.63213313372883     13.40096495823138
  H   4.61823408511514      7.13651298269996     15.25271463885972
  C   4.72126191214935      4.15647156006609     15.59164624901247
  C   4.01164367144559      3.81605789388825     14.42227732069068
  C   6.06795659229827      3.20761420094557     13.29247740299246
  C   4.67626043133602      3.34755078835980     13.28752445609986
  C   6.78713090215185      3.53645941045049     14.44520018910233
  C   6.12145307338485      4.00027257327918     15.58302181494471
  H   6.69953105509864      4.26190879918077     16.47082118288778
  H   4.10208397677602      3.08578196163102     12.39452543402112
  H   7.87554001170893      3.43231139832145     14.46091357783441
  H   6.58843188794623      2.84032556300844     12.40396201461164
  H   2.92414284824437      3.91324483564871     14.41271239172633
  C   3.03229347778158      5.60789473212364     16.84039706032001
  C   3.99620980048165      4.63838895783769     16.79177264373883
  C   2.50595018506670      5.68652611223937     18.28406862744669
  C   3.68871582730376      6.24376161777267     19.18607233450548
  C   4.72202879818362      5.04252489259991     19.21631065819367
  C   4.12900063127424      4.00602465621751     18.18499199022315
  C   4.65136573913164      2.58383963011644     18.28342584547269
  H   4.10235642002124      1.91884349990262     17.59938320571575
  H   4.50567628295227      2.19974324151051     19.30549091434685
  H   5.72025289191282      2.50542620020895     18.03596220647773
  C   1.11653513034373      6.23713535176674     18.56635898887839
  H   0.95458647329347      6.30016894037466     19.65389143164946
  H   0.34504851595672      5.55934089358443     18.16907245408862
  H   0.95230411154570      7.23601637001948     18.14213646228392
  C   4.26033447525421      7.60695728770444     18.76261503202769
  H   3.27506153797935      6.36423867905135     20.20288332246107
  C   3.28212250011752      8.78471692283998     18.82101662129962
  C   6.21767029861837      5.35560387375599     19.04930428814994
  H   4.61634866638639      4.54895751161568     20.19993693913106
  C   6.89818115661991      5.87537534617556     20.32140629795338
  C   2.65399202413121      4.18367757640162     18.58294110664956
  O   1.85532547553013      3.38868096103783     18.99376535671331
  H   3.81805636603555      9.73702494156686     18.67756972278995
  H   2.76730203695846      8.83841249007876     19.79536167863376
  H   2.51338174333305      8.72659039208784     18.03639630788423
  H   5.11017908342396      7.83699214862850     19.42511825024101
  H   4.68573201143480      7.54157619713886     17.74812532349857
  H   6.37730792886341      6.06016352276522     18.21726474084922
  H   6.73129878671438      4.42428264339282     18.75621992730018
  H   6.45032386262241      6.81309415361159     20.68658524631257
  H   7.96973173766055      6.06724235168224     20.14846333868440
  H   6.82098362813903      5.13748465491981     21.13777537729058
