41
Coordinates from ORCA-job 63_0.0
  C   -1.98907827551371     -4.10828064249187     -0.20735518291703
  C   -1.36008787607200     -3.24462108528668     -1.28914712874879
  C   -2.16870815979656     -2.26031786638920     -2.14424507368973
  C   -1.13703179099394     -1.76129871403409     -1.16594524453093
  H   -0.55959304245024     -3.74902811405567     -1.82906486995834
  C   -3.66750262435612     -2.05929930208034     -1.98281451352567
  H   -1.83787954862876     -2.19622631959926     -3.18076216300244
  Cl  -1.63655198261369     -0.88958181064504      0.30542044649373
  Cl  0.38118770113934     -1.08644820142790     -1.83699674285032
  C   -4.22970465789137     -0.90995907962799     -2.85329183788838
  H   -3.92261088720374     -1.88006536328673     -0.93345120547187
  H   -4.16863717299103     -2.99242111200873     -2.27729624425112
  C   -0.95377103951635     -4.93694636494174      0.58700427765342
  H   -2.69725509880407     -4.79952042604599     -0.68564923146075
  H   -2.57448402419865     -3.49200105351152      0.48371603561248
  C   -3.68901784934306      0.45156053329700     -2.49971239680313
  H   -5.32242241010303     -0.92759281615724     -2.78041922447963
  H   -3.98827368775748     -1.12983371360305     -3.90561370786537
  C   -4.37389194265244      1.52011338675127     -2.07128444889047
  C   -5.85708731316983      1.65700914333946     -1.84332755051215
  C   -6.48401345152003      2.76356067288284     -2.71116683659404
  H   -6.37706875006805      2.53371953633814     -3.77749636802598
  H   -5.99789396279925      3.73012181427987     -2.52999625306137
  H   -7.55204073540832      2.87947209809625     -2.49197961307372
  H   -6.03183792274160      1.90107159456577     -0.78419172702320
  H   -6.37555203062325      0.70943087989121     -2.02788960664263
  H   -2.60919237107126      0.56012555422389     -2.60579122832378
  H   -3.80269974388677      2.42762594202707     -1.86509796922733
  C   0.00528118353959     -4.09523941497146      1.38842794873394
  H   -0.41656991563353     -5.59916710621871     -0.10257582334644
  H   -1.51231613772556     -5.59523479902320      1.27020711401771
  C   1.34420937408987     -4.11723223243581      1.36390904097476
  C   2.25563339037232     -4.97292511805691      0.52306720765104
  C   3.21650949517716     -4.13221939828704     -0.33746031374421
  H   1.68099590936389     -5.64824366706032     -0.12136803430088
  H   2.85095985980975     -5.61850721456137      1.18728995353880
  H   2.66208887301267     -3.49545698306167     -1.03597559817106
  H   3.89097148300994     -4.77464081339234     -0.91601827297012
  H   3.83372075273663     -3.47581853450088      0.28819673941540
  H   -0.47298184716051     -3.38752930977703      2.06686445819402
  H   1.86514823044317     -3.42354457915290      2.02702118906567
