34
Coordinates from ORCA-job 65_0.0
  C   2.70673252769565     -0.02345129137267     -0.00432739638323
  C   2.08115075100286     -1.18040881641252      0.48134263509966
  C   0.69296036750076     -1.32863232354487      0.36749842280731
  C   -0.08986072440619     -0.33305227165495     -0.22739648846542
  C   1.92000788810457      0.97836621881801     -0.60154968491388
  C   0.54242014827844      0.82837450839882     -0.70913997598269
  H   2.65881818029836     -1.97751292185783      0.95051658579720
  H   0.21519749928442     -2.23104334164270      0.75738197216038
  H   2.41886508393400      1.87579163816062     -0.97410793709151
  H   -0.06279281118700      1.61945693937843     -1.15874764951810
  O   4.04425666895115      0.21836658391447      0.05574057487416
  C   4.88934051302941     -0.74394829697397      0.64091570872748
  H   5.91075315068885     -0.34297339590976      0.58314028057497
  H   4.85434667007686     -1.70858386135201      0.10074011418404
  H   4.63732734182054     -0.92530582382477      1.70243804705509
  N   -1.49808761943062     -0.44111361370727     -0.28459911424513
  C   -2.23557652899536     -0.37179794516464     -1.50914620750432
  C   -2.15871927343161     -1.65376416647669     -0.71657809980215
  C   -3.50158615782043      0.44869004424134     -1.60800327316768
  H   -1.68291936683235     -0.40394318308714     -2.46024825415534
  C   -3.32713140657970     -2.12769492222656      0.10602523290196
  H   -1.54014426225198     -2.45423697044424     -1.14086341489107
  O   -4.31553816573355      0.26468769374423     -2.47975785081744
  O   -3.57747068890198      1.40456119156535     -0.68069990223887
  O   -4.21810448134302     -1.42943002383286      0.51957620163434
  O   -3.24955489229269     -3.45360784764545      0.31129507008265
  C   -4.78875004304956      2.16022714045033     -0.65786049575569
  H   -4.66389748742401      2.91360035197526      0.12989467554593
  H   -5.64074706054023      1.50354656942060     -0.42457975992153
  H   -4.97023143994690      2.64431102461199     -1.62979091431719
  C   -4.31462652206775     -4.04016742284558      1.06359362043740
  H   -4.10227839359511     -5.11556512037961      1.10744529675873
  H   -5.28275355495078     -3.85921472177035      0.57225008346232
  H   -4.35387590988499     -3.61540162255298      2.07839189706766
