39
Coordinates from ORCA-job C:\Users\AIElement\Documents/66_0.000
  C   1.31958914509777     -4.57687576435575     -3.95118810605351
  C   0.31059379762097     -3.95145154556662     -2.97548675552241
  C   -1.06038744807040     -4.33544627316487     -3.56590309493593
  H   0.42836718110535     -2.86318977885803     -2.85174825826978
  H   0.43397799146306     -4.40895176542722     -1.97468680548934
  C   -2.19266530098351     -4.24480344304377     -2.57033176121788
  C   -3.57201042948722     -3.80393124237869     -2.86290523354949
  O   -2.64924271002856     -2.94386318557387     -2.19759873190311
  H   -2.07090246776289     -4.92926755961839     -1.71292089802351
  C   -4.09907475911351     -3.36993019515207     -4.21361191790873
  H   -4.35866327130531     -4.19904329426431     -2.19688667804822
  C   -5.17859883358714     -2.25039009579192     -4.09146181029108
  C   -6.52173089998586     -2.90411705589405     -4.47516324280049
  H   -4.95594541332537     -1.43743730816116     -4.80399455438437
  H   -5.19430763837873     -1.79264847384861     -3.08922885298144
  C   -0.84274379917818     -5.76957224727004     -4.13149301449453
  H   -1.26823576471718     -3.64538091195239     -4.39913335769425
  C   0.69383928915087     -5.95931814542664     -4.24567567128610
  H   1.00319871891433     -6.35688880295234     -5.22565174709123
  H   1.04520019535691     -6.68212093933885     -3.48861326082605
  H   -1.35260409937439     -5.89283981539381     -5.09984140139589
  H   -1.28004115580335     -6.52358285773093     -3.45538549736341
  C   -4.80858535194938     -4.53749878043556     -4.96407610571340
  H   -3.25362243302455     -2.99130698988582     -4.80618280567178
  C   -6.09860223383629     -3.93241189378255     -5.53800093396247
  H   -5.88891862148289     -3.40870911403582     -6.48939418947437
  H   -6.87512793856322     -4.68655062571559     -5.74782566098437
  H   -5.06711116674917     -5.33770013106205     -4.24796244559015
  H   -4.16500880116605     -4.99748618281701     -5.73011430346099
  C   2.76239343414450     -4.62396190214158     -3.45320195931616
  H   1.29210151054460     -3.98159842414509     -4.88413157934942
  H   2.83695791372223     -5.19847719870811     -2.51333251604657
  H   3.15575448493409     -3.61260029791261     -3.25825846357195
  H   3.42850221364569     -5.10337285783331     -4.18986588432703
  C   -7.60885708177612     -1.92413675133659     -4.90934084134214
  H   -6.89309938643069     -3.46869693622824     -3.59780925641925
  H   -7.28867332123035     -1.34328900664296     -5.79208270762055
  H   -7.84742916571448     -1.20537970901958     -4.10790672661803
  H   -8.54236638267538     -2.44773249713292     -5.17457296900035
