23
Coordinates from ORCA-job 67-2_0.0
  C   -2.56418105443561      2.56270468512756     -0.21090972319512
  C   -1.12159977733986      2.43273147862328      0.09206923553114
  O   -1.85165009965471      1.33485307749186     -0.43428266560240
  C   -3.60708631396009      2.54599925752898      0.83821433108646
  H   -2.83302083415115      3.10032224009532     -1.13284893840341
  C   -0.04926521115427      3.03351939726465     -0.78746270089747
  H   -0.84338505890100      2.31905820338258      1.15300043367328
  C   0.42910318501376      4.40934123297598     -0.30923731262728
  H   -0.43343529262686      3.09650727091536     -1.82051689537417
  H   0.80636903416629      2.33328028363496     -0.82013501308571
  C   1.53582815612271      5.00150126858594     -1.18330401187755
  H   0.78709492112662      4.32900307304559      0.73363651070565
  H   -0.43112533469572      5.10235401465334     -0.27872188200259
  H   2.42328999059154      4.34645500113067     -1.20433292131184
  H   1.85832799578146      5.98805452431920     -0.81340322873787
  H   1.19754554648374      5.13032596734121     -2.22544011801298
  C   -4.77971232438541      3.18754690367184      0.74253075379692
  C   -5.85172572029223      3.20552590927232      1.79011349665310
  H   -6.80314091552436      2.80908927899064      1.39254452016439
  H   -6.06305181734764      4.23581412244126      2.12865865423993
  H   -5.57312988558959      2.60688581474983      2.67137918672809
  H   -3.37034879272306      1.95860380948859      1.73450116028438
  H   -4.98908039650457      3.75374318526895     -0.17579287173493
