32
Coordinates from ORCA-job 68_0.0
  H   2.33462648847303     -2.81375039308431      2.88173235623943
  C   1.65804162147964     -1.99384021331636      2.62357913735168
  C   0.30201864431690     -2.09564034846386      2.97583484780184
  H   -0.04274901142060     -2.99128405421248      3.50079366137381
  C   -0.61746974376140     -1.07661663570195      2.66815326108424
  H   -1.67156214035178     -1.16781652227498      2.94509445280209
  C   -0.10160067775317      0.03056464875130      2.00341536768254
  C   1.24691926938437      0.13891723020541      1.65976125453903
  C   2.16426472415275     -0.86725601814609      1.94978104027122
  H   3.22235676553547     -0.80961574593424      1.67946904589458
  C   -0.48239023898557      1.37922619177786      1.39343530183231
  C   1.07647782709653      1.51285228428717      1.01797292713877
  C   1.85828067190638      2.69405520223448      1.59375294386253
  H   1.21382521860423      1.49215836029800     -0.07903588965519
  C   3.34163605689636      2.69571591710621      1.20530756361811
  H   1.77109290732125      2.69862950073055      2.69445738615288
  H   1.38754314040383      3.63192133158914      1.24591761252019
  C   4.11294694148701      3.89291653540586      1.76454603223942
  H   3.42827213839718      2.68186277024795      0.10309018189343
  H   3.81326947922788      1.76013170697714      1.55613183291153
  H   3.68912778069537      4.84633953274873      1.40563970780700
  H   5.17362281917784      3.86711306424763      1.46625631755094
  H   4.07788840946902      3.91258079750610      2.86709790514446
  C   -1.08712909211364      2.40605226723041      2.30358954182618
  H   -1.09014755908593      1.26554305774652      0.48151789113049
  C   -2.13331211628446      3.20976655284222      2.04860789973855
  C   -2.95761146431547      3.29441353473354      0.79626570410308
  H   -2.63995989287128      2.58443859724800      0.01904056367963
  H   -2.90925130386587      4.30981829082906      0.36375415804347
  H   -4.02357023622549      3.10356561343895      1.01450554779115
  H   -0.61642819103838      2.49078757064320      3.29008564367592
  H   -2.43723923595198      3.89746937230879      2.84867880195462
