28
Coordinates from ORCA-job 69_0.0
  H   1.44626542603112     -2.69412547362895      2.56217499611063
  C   1.01058467135035     -1.72109233108675      2.31721262160674
  C   -0.29767340347587     -1.67022527517622      1.81036302048872
  H   -0.84828147537464     -2.60506742036839      1.67077925028009
  C   -0.91309991325651     -0.44926133608816      1.47784817395935
  H   -1.93103985313996     -0.43010185197521      1.07869102629744
  C   -0.15200621510272      0.69787957556564      1.68012394664779
  C   1.15056929123692      0.64716070445156      2.18435989708198
  C   1.76996617147309     -0.55356725607170      2.51734831600717
  H   2.78551384144308     -0.61245426110004      2.91870966800482
  C   -0.14749089714881      2.22100963091383      1.55986218062710
  C   1.33121240157993      2.16340401342938      2.13254918557976
  C   2.43622236222857      2.73868580137234      1.24370347117350
  H   1.39200380779515      2.61938392361535      3.13847126963449
  C   3.84744141028622      2.53107346246506      1.79733050399688
  C   -1.16951617533162      3.02198201521609      2.36973102154447
  H   -0.15874937213057      2.56417040526139      0.50847647204586
  C   -2.59755357284393      2.93096530687176      1.82781840210503
  H   -0.84890979043627      4.07990470864046      2.38796246797240
  H   -1.14636221506223      2.67527450983174      3.41861639334010
  H   -2.65741323065403      3.29677637557974      0.78867374242723
  H   -3.29532554158343      3.53284886152569      2.43243758417409
  H   -2.96610596364188      1.89197209895434      1.83557994195747
  H   2.24794476563073      3.81972597792639      1.10871023488188
  H   2.36043668055156      2.28524894570801      0.23892236375047
  H   3.96141194995052      2.99308657437541      2.79271675907368
  H   4.60768940664692      2.97645724451648      1.13526655743296
  H   4.08659543297830      1.45969506927471      1.89930053179785
