44
Coordinates from ORCA-job 6_0.0
  C   -6.07671107329665      2.39370897540042     -1.18218264736604
  O   -7.23448354364326      1.76998845287253     -0.95545056252260
  C   -4.88517861316184      1.53356682062315     -0.72639580875246
  C   -5.05127653919301     -0.00940090717765     -0.53251274076890
  C   -4.56179854040187      1.62324994351376      0.86855812105832
  C   -4.34699925141901      0.07365351553335      0.83652350246961
  H   -4.57903107622776     -0.63053033078961     -1.30494857993712
  H   -6.11453270964135     -0.26508627846420     -0.45275618924025
  H   -3.27613661605768     -0.15557159354491      0.78173779016965
  H   -4.80105868588286     -0.47733692665406      1.67063167803993
  C   -3.39778709582608      2.55974741534582      1.23596026042649
  O   -5.96274601823474      3.49753780522139     -1.64207692893540
  O   -3.54519886110416      3.68274512301369      1.63600579981481
  O   -2.22244212141712      1.97241422893299      1.00045483070671
  C   -8.43787278224932      2.52716336254013     -1.17369922752310
  C   -9.57870129766045      1.67512891568114     -0.65337883034409
  H   -8.54863160874478      2.74268824264677     -2.24802488587969
  H   -8.37066093936087      3.48539781013338     -0.63720765739916
  C   -1.04222494082961      2.79049386399999      1.09172733169864
  C   0.06452554604372      2.02330079627196      0.39394110192095
  H   -0.80473742440832      2.97533790096084      2.15140367174701
  H   -1.22979932221605      3.76035754028538      0.60814303683381
  O   -10.77252241102443      2.41970311719782     -0.89252178803139
  H   -9.45781253059443      1.47541987620795      0.42369431948578
  H   -9.62254772812072      0.70380781065357     -1.17202698473725
  O   1.23398443262866      2.83714750580220      0.48792330294564
  H   -0.19571439786322      1.84192638874387     -0.66143240112438
  H   0.23978948501779      1.04566293405654      0.87103038711052
  C   -11.93816432758131      1.80584940019482     -0.57389168394726
  C   -13.11685897384951      2.70392935993474     -0.85273813330930
  H   -13.03313669498469      3.62721827435520     -0.25833941422746
  H   -14.04595783940094      2.17842426455778     -0.60166695948181
  H   -13.12343639353761      2.99996856490659     -1.91325676805824
  C   2.38300146568355      2.29716449562137      0.01418200915276
  C   3.53004702356686      3.26768027107611      0.14376365169529
  H   3.31131593137321      4.18376691818893     -0.42696908104679
  H   4.44905283397674      2.80182206864919     -0.23151257581431
  H   3.65746807578992      3.56349336775787      1.19670680870996
  O   -11.98596621046885      0.68798492936274     -0.12913136352299
  O   2.44166727041813      1.18522126513974     -0.44391962212786
  C   -5.74725003895081      1.99836810389273      1.64080633999327
  C   -3.71696952792747      1.86392146602369     -1.54367365114947
  N   -6.70568308387956      2.24015495041903      2.24484258437147
  N   -2.77690284533790      2.07304999091117     -2.18741204310328
