54
Coordinates from ORCA-job 701-_0.0
  C   -0.46251576379523      0.12838114183502      3.69402399153156
  C   -1.51717453308126     -0.40576287153010      2.92237823183408
  C   -1.22936660398322     -1.10039871327247      1.72584250739021
  C   0.10037477864440     -1.23851617924482      1.31069087023612
  H   0.35235072334158     -1.76551087861746      0.39011341593966
  C   1.11969187196638     -0.69174984917960      2.08697526223877
  C   0.85405708281055     -0.00855353262885      3.27963931723665
  H   1.66944196870215      0.40786415981060      3.86946246602451
  H   -5.18298336263052     -2.59580867118178      6.43337000042469
  C   -5.54396987861387     -1.65361186547077      6.01779960758900
  C   -6.38364513504414     -0.83359178469570      6.78888787657393
  H   -6.68345420753003     -1.15126888384297      7.78535355704783
  C   -6.83500442206697      0.38494425738763      6.27496887540774
  C   -6.46041811644672      0.80770769344303      4.98689338114882
  H   -6.82683267156691      1.76941918808820      4.62010962250231
  C   -5.63418835611079     -0.00566693004455      4.22767443226306
  C   -5.17982261741234     -1.23407754219315      4.73803095605268
  C   -2.36871243279186     -1.63608397506147      0.99467201867619
  C   -3.61876524382067     -1.54769942506478      1.48274665449578
  C   -3.94589909302836     -0.91719270994016      2.80850318597669
  O   -2.76646043807392     -0.19454189283582      3.34249338620810
  C   -5.12355187850640      0.14765973953955      2.80140767639033
  N   -4.36858168703886     -1.87914603642719      3.79667150637710
  C   -6.24807489621985     -0.28063534133588      1.83026115653106
  H   -6.57071772262937     -1.31663652584832      2.01428335326840
  H   -5.93378918752550     -0.18733680580303      0.77842283759193
  H   -7.12142880296659      0.37199280320913      1.97892092268077
  C   -4.64343642809843      1.55843427518504      2.44113180700903
  H   -3.90656777234539      1.93677774778662      3.16120412974409
  H   -5.49977836674912      2.25117472792865      2.42216072754676
  H   -4.18627493788953      1.57176551900207      1.43826590829572
  N   2.51483358450272     -0.83440392081277      1.64536938167690
  O   2.72171277879055     -1.46123731216736      0.61662484094098
  O   3.38291639002852     -0.31795991935958      2.33328713621790
  O   -7.61040461918113      1.29686132374408      6.98777418883799
  C   -8.56587486710327      0.93923418103646      7.88983995097715
  C   -9.22964847040179      2.17653949609547      8.44379469535350
  H   -8.47963631654202      2.81475650124659      8.93709624304394
  H   -10.00531783695475      1.88488418005554      9.16207203265661
  H   -9.67155433256648      2.76746635320801      7.62651528126963
  O   -8.82894769170829     -0.19320239790631      8.19511528136566
  O   -0.75183900978460      0.85157275932448      4.83460142657125
  C   -1.26786274177654      0.18659022691775      5.92146433126858
  C   -1.68889114217032      1.16553675570600      6.98180254461332
  H   -0.95096788445674      1.97363069937725      7.08679975944737
  H   -1.83192651601552      0.63790721026637      7.93258957571023
  H   -2.64484624652914      1.62134214047595      6.67575614336319
  O   -1.36091473735580     -1.00836230551396      5.97228749415829
  C   -3.52677154106441     -3.00069699516839      4.17329302841215
  H   -3.02975746725505     -3.40069100924721      3.27845967269698
  H   -4.14895756562130     -3.80619789221815      4.59411425289393
  H   -2.75855262135996     -2.71472526345413      4.91364907562478
  H   -2.18317445611321     -2.13199948515157      0.03772558556235
  H   -4.45646855886054     -1.98940616545121      0.94262843510349
