54
Coordinates from ORCA-job 701_0.0
  C   -2.72756974550985     -2.35715235847261     -0.30590795529985
  C   -2.67904624080372     -1.59967560614192      0.88295203641756
  C   -1.45075878981305     -1.05072612239406      1.31399338192860
  C   -0.29447216516603     -1.26374516240392      0.55506454280016
  H   0.66641775939951     -0.85390717903498      0.86691154884791
  C   -0.37217877901004     -2.01411339406445     -0.61576256528241
  C   -1.57902273646468     -2.56346131520928     -1.05838457629261
  H   -1.61516412025441     -3.14829853686121     -1.97636297484635
  H   -5.20384610036024     -2.53416507809128      6.44365272938696
  C   -5.57689660797097     -1.59726589913881      6.02568976420982
  C   -6.46649835052508     -0.81148133343933      6.77702809218881
  H   -6.78540682891966     -1.14680893014465      7.76150237182142
  C   -6.94539556473736      0.39317995167976      6.25658508586142
  C   -6.54576505844643      0.83725588458684      4.98271038949298
  H   -6.93621670707275      1.78706293874938      4.60967021114657
  C   -5.66667799136742      0.06268247045006      4.24373356298068
  C   -5.19096428898212     -1.15974310745604      4.75695093254316
  C   -1.47075461680951     -0.29724478616579      2.56013331227276
  C   -2.61249006566868     -0.15177093446183      3.25057043529042
  C   -3.92284596534500     -0.78243654572728      2.84393791723274
  O   -3.82679098015857     -1.43617104929240      1.56275320662374
  C   -5.13998253859687      0.24127859520276      2.82634412661493
  N   -4.33950865761263     -1.77367247655108      3.84028553141254
  C   -6.22724179927713     -0.23019279689163      1.83367417015886
  H   -6.50923229827561     -1.27730316077677      2.01819605650255
  H   -5.88703184980886     -0.13518683935335      0.79299044377228
  H   -7.12508979272749      0.39242540606617      1.96875954697916
  C   -4.71570288414465      1.67146213018370      2.46945973453768
  H   -4.02819161814776      2.10845301767770      3.20788372819472
  H   -5.60187619530058      2.32329804770683      2.41254588878463
  H   -4.22627802134854      1.69609089977269      1.48279004055972
  N   0.84610284664055     -2.23918560069992     -1.40917992471484
  O   1.88690135016237     -1.74729356564498     -0.99918706351780
  O   0.74266575636144     -2.90463646312122     -2.42858785046696
  O   -7.77845444105721      1.27219044171152      6.94481093201323
  C   -8.73506909178669      0.87904531378448      7.83008192227147
  C   -9.48242983200841      2.08732013653426      8.33986521996095
  H   -8.78147739193879      2.78825148404537      8.81965702596484
  H   -10.24706410073343      1.76818598900464      9.05829799906605
  H   -9.95215626315025      2.62229831597714      7.49969088625786
  O   -8.94298200581378     -0.26049006390528      8.15243604146826
  O   -3.90901750552045     -2.95657909439200     -0.69662445703885
  C   -4.92087808785350     -2.16463228084286     -1.18316718990372
  C   -6.14906659446446     -2.99290542120444     -1.44221395259877
  H   -5.89229716262561     -3.89734626068801     -2.01331341237801
  H   -6.89100412831157     -2.39168215285641     -1.98116823931174
  H   -6.56841128487822     -3.32175055194961     -0.47760959985463
  O   -4.80030774438405     -0.98341744106244     -1.35207445448684
  C   -3.48463718382566     -2.88062727269462      4.20419533914042
  H   -2.96415710568508     -3.25334021472849      3.31073743963284
  H   -4.09740613537309     -3.70909199433969      4.59370341740946
  H   -2.72738151204842     -2.62172895683571      4.97063486025181
  H   -0.53494448108547      0.13913944228901      2.92047602682994
  H   -2.63518830139385      0.39661948161603      4.19537831716333
