57
Coordinates from ORCA-job 702-_0.0
  C   -0.75567787129607      1.31439302341765      1.75271558916265
  C   -1.77479409418385      0.34552707217579      1.91756100419785
  C   -1.84145468364407     -0.80459676866498      1.09644301009636
  C   -0.88532079237823     -0.98855150426320      0.09200108752730
  H   -0.90803650836790     -1.86392409594524     -0.55776873870170
  C   0.11251895313855     -0.03224965444942     -0.07448885195759
  C   0.18205183239439      1.10382482737792      0.74054330981131
  H   0.98216584840943      1.82399068173135      0.56542350907871
  H   -3.12536774676524     -0.11219659055473      7.42081272596686
  C   -3.83107185223713      0.49513292188283      6.84944094896326
  C   -4.51932594159343      1.55590174889368      7.46088226515508
  H   -4.33660341547235      1.76484827908298      8.51853699811292
  C   -5.42104198380213      2.34727757500267      6.74468579679721
  C   -5.66244129190409      2.08507268554723      5.38422173792205
  H   -6.36923125402117      2.70440695208285      4.82432396876780
  C   -4.99204145171819      1.03740611843524      4.76645506532412
  C   -4.08096513772012      0.25429704099375      5.49568589762932
  C   -2.91000467843478     -1.75482965326224      1.36715601684262
  C   -3.78575707376884     -1.56151682060262      2.36851683759590
  C   -3.75067630742800     -0.36548869107785      3.27749305988196
  O   -2.68863711807321      0.57265744983067      2.87808845421823
  C   -5.09401231761589      0.48111260267948      3.35231302790565
  N   -3.51529233025171     -0.72504715800958      4.66170262266603
  C   -6.33059650323293     -0.44449792834381      3.27584549247646
  H   -6.27419844412694     -1.25889112203436      4.01407596706083
  H   -6.45043040200016     -0.88274097258321      2.27197397156150
  H   -7.23464716967929      0.14245997310534      3.49729467271526
  C   -5.18242796453500      1.54215286379930      2.25010775248265
  H   -4.38038562325530      2.28700799863623      2.33187667815689
  H   -6.14792457585032      2.06832357546888      2.31581672618214
  H   -5.12785915085559      1.07745167735190      1.25188337695692
  C   -2.35214190684651     -1.49099864839854      5.06687725558352
  N   1.11578492473353     -0.22037001908347     -1.13189038364078
  O   1.03007932501937     -1.22557902009520     -1.82342100077718
  O   1.97792796313161      0.63741662317302     -1.25760537382434
  C   -0.68007517389949      2.52099404053734      2.66145753282547
  C   -2.75355307000083     -2.72701092532749      5.88003912431661
  H   -1.66813425650996     -0.86463588727666      5.66631920580790
  H   -1.80026572929039     -1.81338762911867      4.17167272846923
  O   -1.60015534758004     -3.41678805993135      6.37861491199112
  H   -3.28211468486776     -3.45039759371345      5.24313900170065
  H   -3.40565752852543     -2.44161847707526      6.71789042377867
  C   -1.06178393887744     -2.96501243925861      7.53346744093138
  C   0.12824536961876     -3.79794453097363      7.93863098769145
  H   -0.16501056263836     -4.85507570997231      8.03056211651913
  H   0.52838245290670     -3.43026161891432      8.89112288299474
  H   0.90374244519715     -3.74332844764549      7.15844930737890
  O   -1.49359374063506     -2.01638112976318      8.14311015001251
  H   -5.93955988600611      3.17135696868550      7.24086818619368
  H   -2.97630062780741     -2.64992521990115      0.74193840700115
  H   -4.56088492470494     -2.29848019156885      2.58032714970323
  C   -0.06134647793202      2.21861893729235      4.03579983927246
  H   -1.69304120659091      2.92973993024798      2.80695188677055
  H   -0.08914665211283      3.30272077386385      2.15719348003084
  H   -0.65453536327761      1.46998000426043      4.58277652995251
  H   -0.02299035590633      3.13008550449866      4.65368574321663
  H   0.96639600367193      1.83368865775402      3.93434248554326
