57
Coordinates from ORCA-job 702_0.0
  C   -3.45456514032075     -2.80723243533248     -0.07706664228036
  C   -2.93116662057247     -1.87011251122029      0.84700076606686
  C   -1.69618133721345     -1.22003771499673      0.62890816555489
  C   -0.98195300092979     -1.48223008114279     -0.54486494717142
  H   -0.02563332809536     -0.99911893524281     -0.74675538009649
  C   -1.50654025622978     -2.38534691239844     -1.46449025524916
  C   -2.72014377695395     -3.04645196982237     -1.23864537585152
  H   -3.06945596645424     -3.74696119754294     -1.99518485977780
  H   -4.91303568798200     -2.83313974831132      6.22023346033375
  C   -5.43782385228226     -2.05967995086922      5.65587071679252
  C   -6.80233605911357     -1.81945767778646      5.88710576772252
  H   -7.32606913278114     -2.41593616964346      6.63922915581358
  C   -7.49759830310303     -0.84206368896230      5.17190093995758
  C   -6.82899132222500     -0.07266360430497      4.20229700088490
  H   -7.37163859542978      0.69431061155328      3.64208970377122
  C   -5.48027999546018     -0.29957633899916      3.96553347493733
  C   -4.78931265982872     -1.29073668875396      4.68625975485755
  C   -1.21545996541313     -0.33432585883356      1.67960331238638
  C   -1.94602637214727     -0.09080012793666      2.78032858240065
  C   -3.31997994806439     -0.65965775132123      2.99857459086412
  O   -3.65633688604906     -1.64391951807512      1.95846937632587
  C   -4.49755526385644      0.40763930723315      3.04295662206179
  N   -3.45305209597264     -1.34463896408663      4.26909055703722
  C   -5.04706713019482      0.72970531663040      1.64886586002797
  H   -5.49420577815962     -0.15190473237608      1.17141375041795
  H   -4.25111189854154      1.11795357728042      0.99258276127407
  H   -5.82170165816633      1.50946899075802      1.72112794861843
  C   -4.02451923121390      1.71197333535149      3.72549065658203
  H   -3.57057315103340      1.51406194751352      4.70840923049438
  H   -4.88999711758721      2.37278928746392      3.88468238793826
  H   -3.29456421184749      2.25251450329455      3.10204611996797
  N   -0.76466314314428     -2.65770289078194     -2.70346157489067
  O   0.27676994921795     -2.04393157902664     -2.88837954627751
  O   -1.23164255659798     -3.48031007064778     -3.47884341447440
  C   -2.55773522293594     -2.42054518880891      4.64695897058504
  H   -0.22400328623929      0.11279240797252      1.56634157231434
  H   -1.55974502747270      0.54500902625254      3.57755031714035
  C   -1.86633192170081     -2.13887565751499      5.98610796322312
  H   -1.78635418982840     -2.52946076216402      3.87118475750615
  H   -3.10093414242599     -3.38143287690638      4.70969406517013
  O   -1.08062650665457     -3.26054733518402      6.40770700973922
  H   -2.60545240360078     -1.98012344221364      6.78392173815917
  H   -1.22881978689230     -1.24677935358759      5.89966832977311
  C   0.17656201430057     -3.35809848814534      5.91431271874211
  C   0.88229741649625     -4.56773590179415      6.47456170845812
  H   0.93129559251145     -4.49706175386111      7.57240435934523
  H   1.89344541930373     -4.63207608708305      6.05514697853363
  H   0.31369790436793     -5.47942919124412      6.23395294692542
  O   0.64602823151734     -2.56634017394953      5.13513582503854
  C   -4.76806858505382     -3.49338571348453      0.23396559182460
  C   -5.25508392913452     -4.50734699947356     -0.79893063909158
  H   -5.53762705229016     -2.71559863819517      0.38648847698456
  H   -4.67502715769823     -3.97813803928009      1.22213827885742
  H   -5.42545064178917     -4.04313766964798     -1.78392688502452
  H   -6.20874393456357     -4.95214689651363     -0.47505929869631
  H   -4.53603296516085     -5.33111281241937     -0.93769680263816
  H   -8.56018833130889     -0.67491821141713      5.36385335010962
