90
	Energy:     112.7266154
C         -2.24262       -2.29047       -0.46288
C         -2.45225       -1.55565        0.71339
C         -1.41982       -0.74010        1.19636
C         -0.18728       -0.68370        0.52917
H          0.63400       -0.10618        0.94930
C         -0.01295       -1.39499       -0.66031
C         -1.05512       -2.15251       -1.19115
H         -0.90737       -2.67617       -2.12999
H         -5.48711       -2.14639        6.18204
C         -5.85488       -1.30997        5.59715
C         -6.78762       -0.42637        6.16321
H         -7.11174       -0.57823        7.18867
C         -7.24373        0.66744        5.41958
C         -6.81823        0.88702        4.11133
H         -7.17139        1.74824        3.55597
C         -5.89283        0.00503        3.57285
C         -5.38250       -1.07299        4.31289
C         -1.59702        0.00388        2.42917
C         -2.78658       -0.06950        3.02945
C         -3.96178       -0.88477        2.49858
O         -3.65242       -1.70449        1.35256
C         -5.24426        0.02083        2.20181
N         -4.40670       -1.77586        3.60207
C         -6.21409       -0.64260        1.20373
H         -6.45625       -1.67260        1.49065
H         -5.78947       -0.66463        0.19445
H         -7.16270       -0.09392        1.15109
C         -4.92251        1.43916        1.70799
H         -4.36868        2.02449        2.45045
H         -5.83998        2.00173        1.49538
H         -4.33536        1.40971        0.78421
N          1.30652       -1.44584       -1.30052
O          2.17690       -0.66925       -0.88558
O          1.48061       -2.29066       -2.18959
O         -7.94977        1.74061        6.00848
C         -8.92681        1.62565        7.00185
C        -10.28448        3.07222        8.60464
O         -9.58170        0.61902        7.23136
O         -3.14452       -3.33954       -0.76080
C         -3.25261       -3.66799       -2.09998
C         -2.70324       -5.08400       -2.41512
O         -3.75455       -2.91237       -2.92470
C         -3.48162       -2.67927        4.24910
H         -2.81993       -3.14794        3.51237
H         -4.01771       -3.48936        4.75381
H         -2.85766       -2.16136        4.98560
H         -0.78601        0.59884        2.83366
H         -2.94705        0.48719        3.94881
C        -10.38835        4.23455        9.62380
C        -11.57512        4.05066       10.57105
H        -11.63781        4.88673       11.27802
H        -11.47128        3.12939       11.15282
H        -12.52372        4.01000       10.02553
C         -8.92196        2.91504        7.85897
H        -11.08897        3.15443        7.86122
H        -10.48539        2.13632        9.14470
C         -8.63316        4.14975        6.98549
H         -9.47415        4.35989        6.31519
H         -7.74412        4.02642        6.35812
H         -8.43777        5.03738        7.59208
C         -7.76979        2.70393        8.85914
H         -7.98665        1.86460        9.53096
H         -7.58093        3.59147        9.46873
H         -6.83306        2.46456        8.34197
C         -3.73760       -6.11368       -1.93986
H         -3.89970       -6.03567       -0.85814
H         -3.40746       -7.13738       -2.14791
H         -4.70687       -5.96437       -2.42603
C         -1.37886       -5.37329       -1.68354
H         -1.44499       -5.16320       -0.61066
H         -0.55397       -4.77735       -2.08290
H         -1.08885       -6.42525       -1.77513
C         -2.52602       -5.14999       -3.96635
C         -1.72840       -6.33081       -4.55275
H         -2.05968       -4.21433       -4.30721
H         -3.53079       -5.14862       -4.41259
C         -2.09603       -6.54201       -6.02236
H         -1.50984       -7.35719       -6.46026
H         -1.89852       -5.64062       -6.61467
C        -10.51781        5.60301        8.99308
O        -11.48053        5.68828        8.05888
O         -9.85586        6.58518        9.28828
H         -9.48714        4.25550       10.24527
C         -0.23823       -6.06243       -4.50978
O          0.47240       -7.13642       -4.11651
O          0.32269       -5.02205       -4.79829
H         -1.95130       -7.24765       -3.99736
H         -3.15654       -6.79206       -6.12770
H        -11.45999        6.62860        7.78073
H          1.40247       -6.82525       -4.15339
