81
Coordinates from ORCA-job spiro2-PMMA_0.0
  C   -4.19195863944296     -2.59815864091273     -0.75826440653781
  C   -3.70657120293703     -2.00724148753269      0.43134773525678
  C   -2.34167101421693     -1.65400208671250      0.57556077441088
  C   -1.44523443235082     -1.92890309763678     -0.45942543414235
  H   -0.38702381782122     -1.68166383356570     -0.37103307459538
  C   -1.92167598996410     -2.52514787196955     -1.62509684467278
  C   -3.27244487440188     -2.83383246872024     -1.78786204804716
  H   -3.60337546672791     -3.24938296880728     -2.73953044675883
  H   -5.37869936366754     -1.80532299869520      6.56828942549959
  C   -5.57628964448185     -0.86968768291470      6.04294219058614
  C   -6.08723109512210      0.23621116546847      6.74121904157800
  H   -6.28267096269866      0.14108242089235      7.81295086054700
  C   -6.34118074262198      1.44867269454089      6.09647722966387
  C   -6.08415757658153      1.57577074912385      4.71943086275279
  H   -6.27632827015823      2.52526714407676      4.21138631685780
  C   -5.57599791190126      0.49109037023922      4.01787586797225
  C   -5.33111085015686     -0.73261449279060      4.67150011634074
  C   -1.94472593537159     -0.99951847069703      1.81523886072306
  C   -2.86420528975789     -0.65347208932907      2.72820162304208
  C   -4.33481535614838     -0.96658149472257      2.58481696860784
  O   -4.58943522938932     -1.80122131068291      1.43749026945401
  C   -5.25891425534321      0.33007611011405      2.53914150077420
  N   -4.81435093992040     -1.67469787917605      3.77873314395686
  C   -6.57029679054321      0.02549832770709      1.78026295889674
  H   -7.04954543144028     -0.88799890575808      2.16048574142422
  H   -6.39384388047991     -0.09734570312567      0.70112085308124
  H   -7.26989074317621      0.86383457410581      1.92086942236739
  C   -4.56531262624276      1.54106913871382      1.90265203905046
  N   -0.98090372312944     -2.83271849100850     -2.71124650153586
  O   0.17380794915152     -2.45212846445964     -2.58758461205914
  O   -1.40523082554862     -3.45962353162047     -3.67339719068174
  C   -4.58436907885622     -5.18416778549689      5.39629121448187
  C   -4.16451435442132     -2.89102231102197      4.24866343146836
  H   -0.88502989560706     -0.77722722931877      1.97022783701033
  H   -2.58501812363854     -0.13870235486369      3.65100368817613
  C   -3.93138211716653     -6.37345893984991      4.64666845126292
  C   -4.98934925877102     -7.16887288434973      3.84852538196254
  H   -4.53350006004333     -8.02900082135606      3.33749653540213
  H   -5.45752079573778     -6.52846325598763      3.08609146004643
  H   -5.78672432241173     -7.54508981892924      4.51014890255378
  C   -2.79360961153707     -5.93083663769175      3.70052117480630
  H   -2.03670839916418     -5.33126969845860      4.23197570339363
  H   -3.19391777418118     -5.32565316703921      2.87304300488889
  H   -2.29072558380357     -6.80450821511500      3.26208870300105
  C   -3.33717618852578     -7.31379850352600      5.71069576870573
  O   -2.75515415191408     -8.39542770246450      5.15314842044364
  C   -2.18291596271769     -9.34450246387673      6.05334761542598
  H   -1.39199864602721     -8.88037010345116      6.66237975170333
  H   -1.76326894958816    -10.14421622226399      5.42994213109120
  H   -2.94804341763454     -9.75146733039882      6.73236051176573
  O   -3.37287852619141     -7.14105880441147      6.90517036901012
  C   -5.65521513090926     -2.94120936536955     -0.94913984117782
  C   -6.02664912685834     -4.45970301154308     -0.87957955781676
  C   -7.54204481207066     -4.59279910848363     -1.13596835361298
  H   -8.10762292984041     -4.04053587198744     -0.36859469699146
  H   -7.85656666520511     -5.64810289986766     -1.09584344768342
  H   -7.80808898170357     -4.19636616463564     -2.12626264230126
  C   -5.66678026831092     -5.05565398023955      0.48678620107794
  H   -6.21892152304802     -4.52681092121180      1.27911019445727
  H   -4.59160738826152     -4.97232435927736      0.69951125081019
  H   -5.93096327998417     -6.12290345180555      0.53322567798650
  C   -5.30314409473588     -5.15891658149357     -2.04270429864841
  O   -4.35388950938296     -6.01870805250981     -1.64233068072206
  C   -3.57541301291055     -6.64120603430634     -2.67249921742485
  H   -2.95679636255742     -7.39560542586299     -2.17042101338297
  H   -2.93515376747480     -5.89655810554075     -3.17054183478205
  H   -4.22680619409774     -7.11083959196909     -3.42365436708030
  O   -5.54015624524558     -4.93434000665764     -3.20727762733032
  H   -6.25590654490115     -2.42088334499435     -0.19089785960532
  H   -5.97440035776979     -2.57194852293158     -1.93661214040986
  H   -6.73267169156097      2.29873128356161      6.66028604654816
  C   -5.15974556701829     -4.02435229101803      4.55939848131810
  H   -3.85270291773272     -4.78466792681019      6.11851308911277
  H   -5.38948718932129     -5.60301228115553      6.02056829015763
  H   -3.56805777260264     -2.67263231810933      5.15713238836849
  H   -3.44702940450141     -3.20622588709498      3.47913377578032
  H   -5.99724101172674     -3.58454315318320      5.12361556280513
  H   -5.60361066399881     -4.38197006221897      3.61619042853788
  H   -4.23988197767054      1.31481167046104      0.87425240724592
  H   -3.68688684902160      1.87021299305987      2.47598268264725
  H   -5.26482860904508      2.39034829892282      1.84569780170277
