65
Coordinates from ORCA-job 709_0.0
  C   1.29158384989373      1.14780217932503      0.39853807185338
  C   0.08550185802281      0.78941772591079     -0.20804625709579
  H   -0.79894004544711      0.61085522650430      0.40472117577787
  C   0.00828671864171      0.68986896637130     -1.60345099386738
  C   1.12450831297556      0.96943986304054     -2.39599047846165
  H   1.05780321155686      0.89257979808320     -3.48439371244204
  C   2.32540656149577      1.36795539213473     -1.79669275013352
  H   3.19368250975727      1.62180686704532     -2.41086689913615
  C   2.40739234047189      1.45520157593400     -0.40633871502133
  H   4.45402935621686     -1.46763700615305      4.45458006954876
  C   4.30810729876641     -0.80487132124263      3.59751667408166
  C   3.04812877974195     -0.23163252291098      3.37571921573385
  H   2.23167225468321     -0.42479948336999      4.07186232602409
  C   2.84801226489287      0.60764526680444      2.27790600418339
  C   3.93619258777930      0.91291002729758      1.43557429905911
  C   5.19068069362511      0.34581243410658      1.65892178909264
  H   6.02692033297777      0.59310838006936      0.99850193578154
  C   5.37371816130141     -0.52799056786155      2.73827536067577
  C   3.60706653952309      1.94223988350192      0.37675797252922
  C   1.55028264758360      1.34690756118690      1.89972920422030
  C   1.92475274204848      2.87624630482779      2.06730967489273
  C   3.14409215876392      3.21005796621697      1.17141704734573
  H   -0.93613412967363      0.39998488594390     -2.07143551928583
  H   6.35339914609586     -0.97976699052279      2.91494964321953
  C   0.83781371410157      3.85984689618907      1.61808245879182
  H   2.12570104380461      3.05852801397841      3.13389724132542
  C   2.67284484160231      4.33385369815363      0.25319715138913
  H   3.99607584532900      3.58521841141141      1.75886306123065
  N   1.35719170708529      4.64118535402815      0.58482117054494
  O   -0.27564072222193      3.98033869017516      2.06847950782397
  O   3.31174397275029      4.87170066401138     -0.62110058166683
  S   0.11529507002599      0.97716269834140      2.99942232280002
  C   0.58821655316310      5.68543080514242     -0.08234821615405
  C   0.68600073818777      7.04443300008554      0.61872799953568
  H   -0.45832981312381      5.34646704444768     -0.11380356988857
  H   0.97190787018442      5.75465749077028     -1.11131862697856
  C   -0.13135497280370      8.12999567766346     -0.08833233130043
  H   1.74677844860574      7.34838560275226      0.66537274321711
  H   0.33611534824351      6.93535351994761      1.66020263948324
  C   -0.04844343606565      9.49279261118733      0.60147721783819
  H   4.46144875145231      2.18695783160225     -0.26790805255431
  H   0.21384062782658      8.22318208161191     -1.13446618575296
  H   -1.18781340126986      7.80962794311931     -0.14651679430763
  H   0.99155786828347      9.85817158544516      0.64398967890428
  H   -0.42258869722293      9.44021748037137      1.63784765197353
  H   -0.64609661417716     10.25066549359445      0.07002567849178
  O   -1.53233902511065     -3.01004724618530      4.71810766554731
  C   -1.83736574832373     -3.35789377305099      3.60413735488815
  C   -2.22063238225882     -4.79712991708127      3.23241742407851
  O   -1.86960097086873     -2.53583626654448      2.54344580416977
  C   -0.12654513275520     -0.83546691688363      2.75225769308582
  C   -1.62236310509824     -1.13758159338475      2.77271735582856
  H   0.37117869522167     -1.40008024513253      3.55288726323629
  H   0.31006538724777     -1.13506376310314      1.78900248863282
  H   -2.14687187817742     -0.61533651724465      1.96111982035450
  H   -2.06596984718445     -0.84542614582871      3.73635142787108
  C   -1.89885135433064     -5.74917118114490      4.37556598037928
  H   -0.80510301037491     -5.79441881345853      4.51292885362426
  H   -2.26630138112901     -6.75962711600233      4.14691911258370
  H   -2.34172253062198     -5.40405177406615      5.31829538046919
  C   -1.63015812809183     -5.24183898865396      1.89770448798299
  H   -1.91543178876313     -4.56333406617576      1.08438050020197
  H   -1.96757416876948     -6.25959723223032      1.65321981741556
  H   -0.52852935676578     -5.25191143350729      1.97293811764935
  Br  -4.23058516930114     -4.73076201659475      3.02956614867847
