28
Coordinates from ORCA-job 70_0.0
  H   1.97319114402104     -2.85140987276968      2.52461886494688
  C   1.40047014970470     -1.92555088540393      2.41927796655852
  C   -0.00603383949769     -1.99746107949428      2.41011345862077
  H   -0.48298739993605     -2.97621555041547      2.51443061618224
  C   -0.80829256225760     -0.85191656834185      2.27977135673052
  H   -1.89877270076840     -0.90646647792467      2.28336310452933
  C   -0.11698502690474      0.34922117396613      2.15889196434612
  C   1.27530289111452      0.41888367590432      2.15327701255287
  C   2.08364938785062     -0.70519837279866      2.28900444390050
  H   3.17403318986496     -0.64974143380976      2.28554767453065
  C   -0.27378405823653      1.85814033515189      2.05877828412377
  C   1.27961000237929      1.92106626592471      1.91683026366731
  O   1.87768846918180      2.77016725994718      2.89839527964679
  H   1.61106576130486      2.22115085588017      0.91040289972615
  C   3.22915175867205      2.79383991248958      2.93444415470838
  O   -0.94547018178711      2.40258927253450      0.92102356897381
  H   -0.64426371952964      2.33878160515899      2.97759027688593
  C   -2.29301368004459      2.29091126825084      0.90758472917074
  O   3.91907165911002      2.11846023908032      2.21151887478077
  O   -2.91661739802490      1.74773568879252      1.78563656118185
  C   -2.87848396306099      2.92473143080456     -0.32975875249834
  H   -2.47241647815326      2.43416933817359     -1.22825070613806
  H   -2.59026553928029      3.98620690344162     -0.38159623418183
  H   -3.97083293601137      2.82994843404353     -0.31051294884914
  C   3.72744717415550      3.76036203763298      3.98007634579809
  H   3.37501677432943      4.77744435418546      3.74694712136208
  H   4.82353843473355      3.73974582271024      4.00789315824148
  H   3.31676268707082      3.49275436688509      4.96598066050170
