54
Coordinates from ORCA-job 712_0.0
  C   1.35725132428121      1.16639677655625      0.46883346813519
  C   0.16827986600793      0.78228029213583     -0.15570421492313
  H   -0.72857640222378      0.61587257764345      0.44267275969247
  C   0.12576900055713      0.64200950864401     -1.54918076195002
  C   1.25934501079624      0.90569840314565     -2.32254498244667
  H   1.21950674049589      0.79712557583994     -3.40960189520814
  C   2.44294643550028      1.32945599395713     -1.70627336115394
  H   3.32451019759446      1.57080679925822     -2.30643280416076
  C   2.49019466867775      1.45798853122410     -0.31743636899009
  H   4.43325348524410     -1.31578854251852      4.67044514269857
  C   4.30461367935021     -0.67690555316368      3.79268359635081
  C   3.04723987675184     -0.11810365529322      3.52437108280717
  H   2.21369512099451     -0.29776518604353      4.20351197844559
  C   2.86942509432732      0.68989972389984      2.39955411245685
  C   3.97626184771382      0.97812726328886      1.57583471904698
  C   5.22826493364163      0.42572548506335      1.84537020444195
  H   6.07907916802192      0.65990084985686      1.19890657128016
  C   5.38968544058523     -0.41672394917622      2.95271754592907
  C   3.66746151873015      1.97482566565948      0.48038841880973
  C   1.57622592756521      1.40926494781472      1.97009123755196
  C   1.93881463189307      2.94497544860144      2.10313161100529
  C   3.17775189220326      3.26145708590579      1.22753331031002
  H   -0.80552577647007      0.33385552269072     -2.03188266926025
  H   6.36724165252353     -0.85735792370999      3.16574841813260
  C   0.85887727274538      3.91142302957625      1.60257590217981
  H   2.11337382805984      3.15763277101417      3.16874436670207
  C   2.72276535667249      4.35569150708060      0.26659377264982
  H   4.01322793989443      3.65829862382141      1.82436711352847
  N   1.39853676993471      4.66507101129304      0.55838761603424
  O   -0.26376307416832      4.04324438763088      2.02593853675900
  O   3.37984432150041      4.87260005668593     -0.60711560622311
  S   0.11441389138997      1.05692512593541      3.03890950322207
  C   0.64218056001485      5.68856019465822     -0.15349607772163
  C   0.73289365571797      7.06891248786070      0.50596604446833
  H   -0.40447820182533      5.35052072481557     -0.18957972096714
  H   1.04117518398331      5.72497072368403     -1.17834271666652
  C   -0.06707417036924      8.13502337692752     -0.24899737235169
  H   1.79393284852753      7.37030890670766      0.56179943595709
  H   0.36439336046521      6.99359869311383      1.54399970858792
  C   0.00960499331403      9.51838775742141      0.39963607244371
  H   4.53620647991438      2.20626758007203     -0.14983625882975
  H   0.29734853427455      8.19435321320733     -1.29106086386465
  H   -1.12375684786299      7.81714105744457     -0.31626798685495
  H   1.05037443206922      9.88063247173591      0.44957834400004
  H   -0.38335883151994      9.49942045840383      1.43017357146686
  H   -0.57496005632162     10.26175609217873     -0.16582925851330
  O   -1.80031089176459     -2.51567856960067      2.82215045360647
  C   -0.10582774275363     -0.76429887472834      2.84760284822048
  C   -1.59430894567646     -1.12006241266712      2.79075471872332
  H   0.35165881387384     -1.30226159829680      3.69155056022734
  H   0.40532770767421     -1.09053369307020      1.92832459082322
  H   -1.44210979873303     -2.89406057819328      2.00801227380143
  H   -2.10823114689091     -0.71158548352125      3.67653686103615
  H   -2.06546157690315     -0.64715068247193      1.90604644855352
