54
Coordinates from ORCA-job 713_0.0
  C   1.46098063846763      1.05593006059229      0.39366959898067
  C   0.29080367677207      0.69774492385705     -0.27998022893367
  H   -0.62465623598016      0.48621536797791      0.27185837138234
  C   0.28470754812360      0.63761638462564     -1.68015416561513
  C   1.43253313081280      0.96062082572709     -2.40858279902845
  H   1.42033753072477      0.91354730261056     -3.50063677042966
  C   2.59253949703646      1.37021062920491     -1.73991839108514
  H   3.48139826524191      1.66681265665665     -2.30336045065793
  C   2.60462962474125      1.41829061361713     -0.34522671650783
  H   4.48753024165950     -1.50774067050503      4.57986812737511
  C   4.36534513318362     -0.83709757956308      3.72518879378228
  C   3.09954323735611     -0.30566373825141      3.43943866979906
  H   2.25574030914111     -0.54616487443365      4.08530299277006
  C   2.93631090894122      0.53949826349341      2.34025474075377
  C   4.05672113395136      0.89882905023791      1.56704699650931
  C   5.31645194939234      0.37472120287589      1.85537444210268
  H   6.18078614995968      0.66172121688707      1.24951091509096
  C   5.46733340395817     -0.50939472224575      2.93181290696699
  C   3.74240683938903      1.93503812081314      0.51009738546313
  C   1.63255186193160      1.23370442081846      1.91116924794730
  C   1.92896369796681      2.77086157598364      2.11009606730799
  C   3.18492846306314      3.17162621530710      1.30193398937748
  H   -0.62993983680070      0.34590025774078     -2.20312608351223
  H   6.45074217951846     -0.92942578974944      3.15896875226407
  C   0.81874736093539      3.69128996737284      1.59083275577655
  H   2.03536440964817      2.93679562725204      3.19214622461587
  C   2.72407713583540      4.29138603199394      0.37315914047828
  H   3.98789753122649      3.56541649158494      1.94318435994349
  N   1.37242580238926      4.51738487496799      0.60528093516679
  O   -0.33351407099762      3.74250566677029      1.94400507233517
  O   3.39802296987514      4.88286375246958     -0.43897563611970
  O   0.51219861626220      0.92585210888098      2.69443126929820
  C   0.59533968412646      5.51821412817965     -0.11512711263998
  C   0.60770200100007      6.89339719927311      0.56075253738838
  H   -0.43424956732195      5.13575776611091     -0.18284228342619
  H   1.01837714833651      5.58595768055648     -1.12894300340707
  C   -0.23085174125323      7.92714285957587     -0.19729261970356
  H   1.65150149696285      7.24526521805638      0.63881658267844
  H   0.22543965086930      6.78864769133934      1.59138842697301
  C   -0.23124731919974      9.30676757549680      0.46371302535000
  H   4.61840616425629      2.22678535849048     -0.08390443431291
  H   0.14623121204391      8.01392883187828     -1.23295742749983
  H   -1.26973707407278      7.55919027147520     -0.28408080381672
  H   0.78987918424392      9.71824187413911      0.53318003759663
  H   -0.63871938113999      9.25987102699802      1.48773907966056
  H   -0.84221068837542     10.02613014597254     -0.10495451843157
  O   -2.13361526939996     -1.53759796121290      3.11862857725302
  C   -0.02797974983861     -0.38789843902332      2.72378318986092
  C   -1.54572706654821     -0.28041904083158      2.86405337594236
  H   0.34665106920872     -0.95298894596249      3.59474967636879
  H   0.24710184493128     -0.96424621337968      1.82232505951244
  H   -2.06105392937859     -2.07716196660682      2.32042586628137
  H   -1.76741895863704      0.36521186329965      3.72808322820127
  H   -1.98250781454000      0.22104684060404      1.97767302657281
