56
Coordinates from ORCA-job 717_0.0
  C   13.06415975167628    -11.76228511044891     -1.22374533952475
  C   12.68155110040508    -11.77980616054109      0.10586500844245
  N   11.33779471146497    -10.44621792567664     -1.05893836335723
  N   12.20907150726706    -10.92930985167428     -1.88826174026471
  N   11.60665304732522    -10.94592470894004      0.15892606102838
  H   13.07391438626843    -12.29351811504831      0.97991128401431
  C   14.18787583283850    -12.46487784194607     -1.92394729959084
  C   15.16384831733134    -11.48539694086088     -2.56829134263790
  H   13.77873417425319    -13.11788434668144     -2.71348177179200
  H   14.72579215911312    -13.11445343293586     -1.21559567421757
  O   16.14434148060976    -12.25636935960126     -3.27665719987153
  H   15.66362497312204    -10.85222490574488     -1.81743353910423
  H   14.64072021444056    -10.81384306116646     -3.26663864051504
  C   17.14197329333468    -11.57449823433416     -3.87992946789410
  O   17.23049605784132    -10.37216346037773     -3.82345303564800
  C   18.11372840279958    -12.51264233709596     -4.61795507842281
  C   19.20071181923219    -11.62966752397872     -5.28078769377266
  C   20.28926324435703    -12.36709463815211     -6.06463145530870
  H   19.66820406059057    -11.01525192130629     -4.49386416852770
  H   18.69545414442391    -10.90878872284979     -5.94445728767395
  H   20.87404615310021    -13.05307592042099     -5.43063340866117
  H   20.99902035816576    -11.64261089795244     -6.49539091703866
  H   19.88025635967784    -12.95433147502102     -6.90261526085065
  C   18.72658868920585    -13.48376517382950     -3.58379946594173
  H   19.31326659890023    -12.94006082784874     -2.82477011640171
  H   19.39794293003509    -14.20211881245117     -4.07893550416833
  H   17.94158097791179    -14.05475076296839     -3.06721517332488
  C   17.31317566391987    -13.31034030321923     -5.67174784538757
  H   16.86773669822916    -12.63984326685217     -6.42509241831949
  H   16.50121094013031    -13.88183504092274     -5.19967836832827
  H   17.96802377743842    -14.02219083033055     -6.19759605240758
  H   4.94294078796501    -11.98419177582734      3.10523775056379
  H   8.90581799740310    -11.32020562366787      0.35212633430470
  H   7.25811780867687    -10.95891744605914      6.00249421068122
  H   5.96621922995889     -9.30214344239150      4.51668093387391
  H   4.25414312261896    -10.67974338783815      5.18439703212067
  C   6.48066496163569     -9.72540129108840      3.64051564821720
  C   6.81131357521215    -11.21671011174536      3.87519600958022
  C   9.47803619760308    -11.47497863933092      1.28036064074275
  C   7.74352824687906    -11.35929852735494      5.09944651306215
  C   7.55492666940465    -11.74249296867847      2.63720047619617
  C   4.62898719520912    -11.71501306572705      5.22884353021971
  C   5.52463366217423    -12.06494471885800      4.03811458474256
  C   10.74322762166899    -10.62111651992400      1.28101286050648
  O   8.71070567500258    -11.06786767988987      2.41365297371418
  O   7.19397068163501    -12.64197796612455      1.92059277110599
  H   3.74771445680629    -12.37599902990234      5.24316311567881
  H   7.99371277069635    -12.41596104543932      5.29052146704553
  H   5.82238620806959     -9.59595612736333      2.76590719870710
  H   7.39586548091500     -9.14009844212969      3.47037339632620
  H   5.82027100883559    -13.12515632410173      4.10167153422687
  H   8.68143674161363    -10.80608196878115      4.94712936249894
  H   9.71569291386787    -12.54917334515903      1.34922684546487
  H   5.14336211695329    -11.84335967982343      6.19492278181901
  H   11.30740226815612    -10.77093155624250      2.21313084246719
  H   10.47924077562853     -9.55646740537323      1.20660246160240
