20
Coordinates from ORCA-job 719-2_0.0
  C   -27.60379369567806      2.08139644796023     19.48613754447776
  C   -27.32814971582386      3.57671427791409     19.44393758693829
  C   -26.31361164490664      1.74079546362294     19.65907751905477
  C   -25.81221910239234      3.16918620175733     19.63185799131218
  C   -26.98720007370894      4.08152902138436     17.97884139911027
  C   -25.49059932739855      3.72163217927563     18.20934535803862
  H   -25.20446672923788      3.53981995927920     20.47240575671521
  C   -28.07804261322989      4.48174368267584     20.40129245374550
  H   -28.52315850078222      1.50313611864155     19.33908994870485
  H   -25.79010854104445      0.77980758092778     19.70360772541079
  H   -24.85010955476632      4.61737618129937     18.24258920784368
  H   -25.04148023787602      3.00081458920316     17.50868649204307
  H   -27.47234197103104      3.44900138587297     17.21737178808959
  C   -27.26701095445614      5.54517953558786     17.65534784774976
  H   -29.13654369532874      4.58494183786101     20.10392497884506
  H   -27.64495930143613      5.49361296372154     20.44395777773441
  H   -28.05997161679349      4.06389551340067     21.42147165941019
  H   -26.78216084937616      6.22701744672716     18.37369459727465
  H   -28.34752646054341      5.76570478903091     17.66109488055882
  H   -26.88221541418953      5.79945482385635     16.65317748694240
