20
Coordinates from ORCA-job 719-3_0.0
  C   -27.68596924795093      2.06010343425008     19.41740225078181
  C   -27.41509586619310      3.55371382516301     19.37773191034769
  C   -26.39785926823075      1.71927069289173     19.60109877220535
  C   -25.88823465818598      3.14965667948470     19.59534439080198
  C   -27.05264637126280      4.06265430828057     17.93984646659962
  C   -25.56755890718737      3.66977949922354     18.15162514147758
  C   -25.04102104383331      3.65126478558165     20.74654423242334
  C   -28.17931196913918      4.48218009581136     20.29887712470144
  H   -28.60078034859327      1.47929767091508     19.25347071177519
  H   -25.87392587193051      0.75754818725908     19.64212405758551
  H   -24.88915735007635      4.53737270225909     18.15837431084822
  H   -25.15667546755464      2.91613263979556     17.46226929226835
  H   -29.22652507251380      4.59215726867210     19.96521978373692
  H   -27.73169592260768      5.49034971972242     20.31715241882606
  H   -28.19915716975335      4.09780425261920     21.33201724897847
  H   -27.58087187899575      3.55648664845475     17.11715110025417
  H   -27.19974942565573      5.14843905765599     17.82821539828059
  H   -24.92769893004194      4.74821861752809     20.71608593447411
  H   -24.02749110682740      3.21378105181776     20.70863296843644
  H   -25.48282412346605      3.37981886261420     21.71947648519700
