20
Coordinates from ORCA-job 719_0.0
  C   -27.73078056850369      2.23367849361923     19.51729013993169
  C   -27.40616268150118      3.71211875275081     19.45191836952813
  C   -26.44928599551215      1.85751212104564     19.69432492366016
  C   -25.91034208486171      3.27276781066207     19.65872187780058
  C   -27.04328979706745      4.27899099299020     18.03354692079745
  C   -25.54829739151142      3.83907409678249     18.23986352012995
  C   -24.88433428442196      2.90667684058792     17.23459466270855
  H   -24.91867682326007      4.73597173131441     18.35952188274275
  C   -27.82514611981631      3.77364903426863     16.82775318118683
  H   -27.10472349326841      5.37928833000975     18.05927332856167
  H   -24.78468772220124      3.38798257337839     16.24720906770288
  H   -25.45409764661356      1.97496913161660     17.09352624540792
  H   -23.87007804271032      2.62930585106403     17.56955518927139
  H   -27.40368194440865      4.16261995656099     15.88560794026560
  H   -28.87742783655205      4.10227547422133     16.87781686143739
  H   -27.82289156026694      2.67433973078467     16.76333692176890
  H   -25.30388020736862      3.62842838631907     20.50608689107786
  H   -27.92033071362328      4.39589310963313     20.14510562192639
  H   -28.66407795102055      1.67549438569226     19.38908511015240
  H   -25.95832713551026      0.88113319669836     19.76301134394140
