50
Coordinates from ORCA-job 720_0.0
  C   -27.66816119474234      2.16854298055823     19.56731678532396
  C   -27.43335114027513      3.67477572904030     19.47767357204583
  C   -26.35980774267435      1.87094055569558     19.74441141235344
  C   -25.90095894915527      3.32118494470252     19.68529169159824
  C   -27.07615620185890      4.23791086107149     18.05453266556458
  C   -25.57741606040868      3.85166933231678     18.22055352747392
  C   -28.89661331027222      1.31227044250209     19.46424412720240
  C   -25.61565090110532      0.57315530644240     19.86639640500525
  C   -25.05785558967355      3.93019705352089     20.79774813739836
  C   -28.17507022993872      4.62671808971658     20.41001607847176
  C   -24.99086138053468      2.85205813696147     17.25475348111982
  H   -24.92463994066197      4.73320508849246     18.24907080708131
  C   -27.76743580781468      3.85845304951179     16.76295223131806
  H   -27.14414053269977      5.33922848711378     18.08149974730155
  O   -23.72241025982975      3.17417466670647     16.92303518255092
  O   -25.54610610113842      1.86051206345759     16.84483845951761
  C   -23.06373058873058      2.28646847822771     16.01966982489275
  H   -22.97933915389528      1.27652402009790     16.45067036515777
  H   -22.06622094091755      2.70984581937026     15.84598324648097
  H   -23.61945663745331      2.21364712615707     15.07240534338855
  O   -29.00797874937249      3.36622608483470     16.94609684478850
  C   -29.73129024128915      3.03815764884437     15.75745238413523
  H   -29.86433992931613      3.92793681436020     15.12328684797392
  H   -30.70540192462222      2.65486698479516     16.08682160207620
  H   -29.19427153419125      2.27339883104193     15.17639567862593
  O   -27.28674740926733      4.04684216630117     15.67226614246917
  C   -23.58142720550361      3.51613704153289     20.75961600589387
  H   -25.49936136352628      3.65635224255172     21.77202594881761
  H   -25.12275981150603      5.03177260763988     20.72981927537024
  H   -23.45621819654711      2.43552747448238     20.93275358788274
  H   -23.00167398692038      4.04375090126167     21.53418742690463
  H   -23.12454560837437      3.74738809551925     19.78343889310661
  C   -29.62009313122086      4.92703800022795     19.99447222649843
  H   -27.61476756491908      5.57890026879526     20.46301086207546
  H   -28.16052953597566      4.20820075370061     21.43163282171005
  H   -29.66919318601758      5.34271379497475     18.97528437339488
  H   -30.08269085023105      5.65734718133803     20.67818436833291
  H   -30.24440915887817      4.02015499311746     20.00224894223432
  C   -29.61268507686237      1.07978898751734     20.80701870568164
  H   -28.61192972777516      0.33340331020676     19.03864258294876
  H   -29.59475586227069      1.77174272547119     18.74809927890720
  H   -28.94977393601285      0.58226855855962     21.53320708582270
  H   -30.50329959299728      0.44388210143094     20.67208957274455
  H   -29.94551353419445      2.02711983656127     21.26103805420804
  C   -25.41524966235748      0.09350057130548     21.31485143796451
  H   -24.63298087461894      0.66654218789620     19.37360897933129
  H   -26.16210794218573     -0.20149659762535     19.30109524330993
  H   -24.84790089743020      0.82451037148963     21.91351361559320
  H   -24.86308141510764     -0.86039794751645     21.34109982963695
  H   -26.38238942672642     -0.06339822227955     21.81893829031259
