38
Coordinates from ORCA-job 722_0.0
  C   -27.14815058413466      4.46161688534432     18.82397482133646
  C   -25.82942921194200      4.18661566699200     18.93302467999343
  C   -27.15535029313375      4.40784220131961     17.30498846474645
  C   -25.60838361858885      4.06278791959442     17.42396415180707
  C   -24.84600923349612      4.13362903461748     20.05952945623508
  C   -28.23855070326740      4.78800334983005     19.79508458636480
  C   -25.07757589639423      2.75558465590582     16.89563507656807
  C   -28.07406999993118      3.48169912262714     16.54884049709667
  O   -23.77922351001675      2.85287739399083     16.54054549131699
  O   -25.71097246078086      1.73074610701318     16.80623549145568
  C   -23.17256236945287      1.66116273885653     16.03621486313028
  H   -23.70585190097758      1.30063441891693     15.14356076141232
  H   -23.18774684586270      0.86344766909320     16.79492996785127
  H   -22.13846225148172      1.92698709339608     15.78306261443168
  O   -28.73326744132878      2.64269082377024     17.36708447122543
  C   -29.49646189375492      1.61640829537964     16.73413248273517
  H   -30.24941968951058      2.04457891000002     16.05482250953899
  H   -29.98412657178130      1.05463626628513     17.54112296293188
  H   -28.83402255048584      0.95393417522035     16.15622048189008
  O   -28.20389310248281      3.48008363695597     15.34702491586054
  C   -26.75156240938197      5.73274438085239     16.57166253639165
  C   -25.24426057299918      5.39785461001687     16.70521904425971
  H   -27.09651931900591      6.65203584651971     17.06551549716232
  H   -27.10025963320611      5.72213728617204     15.53037591796599
  H   -24.74217886378855      5.24167431985810     15.74037983583403
  H   -24.63556870667729      6.08763054590401     17.30838237969019
  C   -28.95420095703797      6.11851713222707     19.51611686144324
  H   -27.82537553545297      4.78963186871779     20.81821366218454
  H   -28.98023625192409      3.96997259894754     19.75916988360676
  H   -28.26326693293480      6.97418867001632     19.58973611831957
  H   -29.77029838381172      6.28211710012624     20.23800649701379
  H   -29.39867715905464      6.13263540450955     18.50744481740620
  C   -24.09966532594223      2.79614718988114     20.18629254999600
  H   -25.37532533253536      4.35961153278303     21.00093951035307
  H   -24.10371887538365      4.94407207222987     19.92454455871591
  H   -24.80167113170395      1.95631346350551     20.31012336259966
  H   -23.42069790375914      2.80679189827311     21.05397631002661
  H   -23.48999657659401      2.59788771435059     19.29066190910173
