39
Coordinates from ORCA-job 724_0.0
  C   2.86322314787551     -2.57486800973531     35.32634695948160
  C   3.85700493128826     -3.24118079586573     34.60951333510370
  C   4.65428004044943     -2.53273663474504     33.70773569773262
  C   4.40833549484284     -1.17568469293314     33.49030769758239
  C   2.63990083141224     -1.19269954837326     35.15786831716406
  C   3.40089171186877     -0.49844699034358     34.18889634810677
  H   2.23737675780024     -3.14087111990839     36.01802958168894
  H   4.00459090177240     -4.31447342552699     34.75540409239110
  H   5.44313015556163     -3.04166720179844     33.14800894657542
  H   4.97901551903297     -0.63049657057309     32.73682767599914
  C   1.68243169148897     -0.49748384263289     36.04377834875343
  C   0.66873368925178      0.47557665732449     35.91809791757883
  C   3.02350898748261      0.91386615796207     33.80897064658823
  N   1.76322208284267      0.89051682278972     33.04031605083460
  H   3.80956877575470      1.36864734973032     33.18903735424881
  H   2.86486020846342      1.54852322843291     34.69086086675058
  C   0.60329020370545      1.54066624188568     33.53924129173354
  C   0.07437844906350      1.30437696134848     34.83526006103584
  C   -1.11656507287516      1.98967176602569     35.17708683691752
  C   -0.01938298098819      2.48043583746762     32.69462299449749
  C   -1.75368286943118      2.86920923603654     34.30888504732900
  C   -1.19475307885908      3.13036350290059     33.05540464527757
  H   -2.67670081969778      3.36425952633587     34.62113777005806
  H   -1.52790808190499      1.81280925845470     36.16980959458237
  H   -1.65803160506458      3.84472868025244     32.37005969429655
  H   0.44998473353138      2.70239646030387     31.73475822518747
  C   1.84392496205824      0.34839653059746     31.76115740093343
  C   0.55902163912001     -0.01247561341315     31.03200502022229
  H   -0.31746413524101     -0.10223161163908     31.68595021540269
  H   0.74971635650137     -0.96798288637249     30.52256357588505
  H   0.33953004908711      0.73162460938044     30.25078043367177
  O   2.93008218108915      0.10406318620504     31.26130055581745
  H   2.23823741088485     -2.64646644054601     38.23525861318684
  H   2.55253630151537     -1.18534489307606     39.21582846801971
  C   2.57254325789405     -1.59890548814232     38.19980354922654
  N   1.68365374754734     -0.77530158072146     37.39494143332701
  N   0.14826249722103      0.67327447281813     37.17368901338682
  N   0.75310073085587     -0.05897846968402     38.03808819060884
  H   3.59328119679877     -1.56184067022161     37.79859753281451
