68
Coordinates from ORCA-job 725_0.0
  C   -6.05210726345167     -2.41709329906575     36.50517149462242
  C   -5.38558568982620     -1.21173141303758     35.75823405299357
  C   -7.36623204177934     -2.29770442226697     37.27030371459313
  C   -5.71448000932797      0.22651328884875     36.19981057086405
  C   -8.64283488388119     -2.27103921371749     36.45229075936852
  C   -9.80530959188587     -1.71162196664393     36.99750004840471
  F   -9.73857972985152     -1.16625729715571     38.23051879765733
  C   -11.02645513877744     -1.68831260195029     36.33069278513673
  H   -11.88614912012285     -1.23120143963152     36.82599497318509
  C   -11.14451442830616     -2.23542991497718     35.04564913283043
  C   -9.98251680637670     -2.78898374856604     34.49622378229381
  F   -10.05167225042873     -3.31977929468365     33.25954925332313
  C   -8.76222670064966     -2.81438088001926     35.16440483371937
  H   -7.90967345575357     -3.26628034229926     34.65509113648636
  H   -7.34702774059429     -1.41251032854606     37.92522953448894
  H   -7.42927814893240     -3.15707865866644     37.96652628715228
  C   -7.00396836993758      0.83046527896855     35.68524545072369
  C   -8.00351495687480      1.30370888275980     36.54902804454083
  H   -7.89954003488271      1.20749007069697     37.63189911023512
  C   -9.15543958603218      1.89829214260087     36.04562334226851
  F   -10.08720935465277      2.33932016758078     36.91242399831292
  C   -9.39149193931650      2.06185313817526     34.67543032785135
  C   -8.39229586066420      1.59628603458904     33.81017066419288
  H   -8.50021417133542      1.69386449759082     32.72747559701997
  C   -7.23731968806839      1.00686034473274     34.31557029963942
  F   -6.29628461591560      0.59723015974082     33.43422949637160
  H   -4.87919716016616      0.85898130659729     35.84677958824845
  H   -5.70247832778649      0.30223736447475     37.29959364011239
  H   -0.66659825213899     -2.56923792158180     40.32288103595626
  C   -1.18035885748381     -3.38880154037724     39.80462877024139
  H   -2.76147928271244     -2.11341857717983     39.08346798455585
  N   -0.61491538610632     -4.59366821744452     39.89001198976496
  C   -2.36477082030876     -3.13035858748936     39.10383707233326
  C   -1.23224981797766     -5.59903615763768     39.26098554348446
  C   -3.01873865821844     -4.18017201794292     38.44348576455716
  H   -5.12342515121005     -4.46671241904318     38.30256190289047
  C   -2.41493232120991     -5.44607819819174     38.53497730578233
  H   -0.76007474105549     -6.58655838037782     39.33554611194419
  C   -4.32204033534084     -4.01531934453637     37.68609510313086
  H   -4.28191588261373     -4.63550942916438     36.77681709667331
  C   -3.99863815046813     -1.69078079251349     36.29935649670617
  C   -4.75471024247653     -2.59607072572586     37.33224893878666
  H   -2.86905797172982     -6.31309951745197     38.04560898128100
  H   -2.15583372637635     -2.73024606479810     35.86247191681225
  C   -2.98910283685424     -2.29092875166812     35.28991671663334
  H   -2.56362095869676     -5.03667161849722     35.21410292407376
  C   -3.15225870809991     -4.66601940246617     34.37052794281701
  C   -3.45932703264043     -3.30035142094534     34.26066370872189
  H   -3.33668090520432     -6.62320980369226     33.46390128617121
  C   -3.57964690104788     -5.55640717510026     33.38029582462757
  H   -2.56051123064081     -1.43479573791317     34.73987517121281
  N   -4.27810183198415     -5.18661070432708     32.30424536310012
  C   -4.16810434044244     -2.91583873789850     33.10948985998952
  C   -4.55562542591391     -3.88585873123681     32.17949930625397
  H   -4.40394980757154     -1.86590260264906     32.91884377076574
  H   -5.11367638737590     -3.58793619922459     31.28313411633233
  H   -5.49482109876483     -1.27140105912764     34.66938989790813
  H   -6.11749567099160     -3.25614338255285     35.79284572507088
  C   -10.66236469472454      2.70410255565820     34.18642003992965
  H   -10.78562951840715      3.71636955431939     34.60524176372515
  H   -11.54636577120915      2.12354260221561     34.49878712077262
  H   -10.67148168716322      2.78023322418656     33.08969339872283
  C   -12.43665625209403     -2.24104036972160     34.27237055826493
  H   -13.24191523086252     -1.75533928529528     34.84199145146037
  H   -12.75490020490407     -3.26966977471802     34.03428949294815
  H   -12.32764176547857     -1.71516429292101     33.30937348130643
  H   -3.44802284433120     -0.87902733502669     36.80404893080554
  H   -4.85604223159039     -2.01836151607086     38.26789941684423
