34
Coordinates from ORCA-job 726_0.0
  C   1.27825201416363     -8.79812536606563     37.29549307921052
  C   -0.00303766430091     -8.53287576784799     36.52417836838865
  C   1.74412100771798     -7.89013076405179     38.40105351923167
  C   0.80425407858355     -7.84834700967159     39.61717682224938
  H   1.85085004503586     -6.86351377702253     38.00067880479585
  H   2.75136748239806     -8.20131787944918     38.72570859225594
  H   -0.20109787059169     -7.48760894531282     39.34504670142589
  H   1.19678748609694     -7.17447739177629     40.39601581517713
  H   0.68954560516292     -8.85024952630648     40.06231471058178
  C   1.89269962065277     -9.91078935059098     36.86071546795414
  C   1.16540517137888    -10.58844293311535     35.73413703661610
  C   -0.07759633271146     -9.66283640845667     35.46787440158720
  H   0.00915846737809     -7.52579375085982     36.07636879352624
  H   -0.88114329911302     -8.55050320136449     37.19468919384536
  H   2.83029177428463    -10.29342264160527     37.27716387638691
  C   0.07542633773381     -9.31316795365560     33.94016489484140
  H   -1.01458035837893    -10.22878998287224     35.58396974909093
  C   1.33095019090627     -8.46054887963640     33.71552275343490
  C   1.85513742981361    -10.64715835020873     34.32067276283667
  H   0.86710663159568    -11.61647812511152     36.01035987077344
  C   2.38109966406572     -9.26466690715733     33.96984318632049
  C   1.35706674255517     -7.04748972002507     33.19871296498410
  C   0.66713238628031     -5.96684590900754     34.04307805248625
  H   0.88233488241368     -7.05164334083086     32.19768807726114
  H   2.40923850272884     -6.76053580671628     33.03001161706406
  H   -0.39692053285064     -6.19734921753563     34.21508827004509
  H   0.71319871392001     -4.99208486367687     33.53053994765354
  H   1.15125049832066     -5.85056202989411     35.02572253273009
  C   0.59260527489040    -10.68019314214307     33.42174204122908
  H   2.57217972199844    -11.47336657459870     34.20757846406354
  H   0.83038387228967    -10.66980305721975     32.34685987159754
  H   -0.08596897377352    -11.52303696044775     33.63968327163990
  H   -0.84602305159077     -8.92469526443567     33.47972462377827
  H   3.43547448094532     -8.97759920132975     33.95736186493562
