41
Coordinates from ORCA-job 731_0.0
  C   1.30066700548509      5.93262463762130     35.16786476395805
  C   1.86805667733375      4.84939500360000     34.26224663401820
  C   2.24945162633888      5.43166911570007     33.10868510858993
  C   1.93499754721341      6.92113822887713     33.24878853888588
  C   -0.06998159590137      6.37526846081237     34.53658899362028
  C   0.36846788160551      7.05168341117196     33.20413109081255
  C   2.18912004335888      7.12837432141053     34.75741390212598
  H   2.43184696367765      7.59585303912370     32.54081867495386
  H   1.21264709305919      5.69721454134591     36.23538922623479
  H   1.83530814047347      8.10147113034157     35.14041927250837
  H   3.24427049656108      6.99116046008628     35.03655830445071
  H   1.86332340367478      3.78264953670776     34.49479658593735
  C   2.77750209301394      4.82529082852751     31.84325239968267
  C   2.96046199880598      3.30825727084203     31.87298584284592
  H   3.73831299578339      5.31632587667922     31.59531470537552
  H   2.10323700906184      5.10658243893307     31.01047339907516
  H   3.65595592845602      3.00536954049496     32.67258469450277
  H   3.36676462404409      2.93994529402881     30.91779555311145
  H   2.00340790713541      2.79144447615539     32.05179799442121
  C   -0.90749076174219      7.22528657660942     35.47661943223295
  H   -0.69683160471070      5.48759841365920     34.34395424097249
  C   -0.08708573178610      8.48952091256118     32.96108485000672
  H   -0.02978934567609      6.49984053103274     32.33451683462118
  C   -1.66421507314420      8.38812701020553     34.90477658599545
  C   -1.30437324909156      8.99342093772633     33.67551154540493
  C   -2.73602485116820      8.88365005270070     35.66042415005985
  C   -3.48224532949249      9.94929263711905     35.17359240648334
  C   -3.14687172301111     10.53758497339970     33.94908283102402
  C   -2.05500933762461     10.10218883327735     33.18348793758504
  H   -2.95907392737496      8.40862860915033     36.61740383443669
  H   -4.33243088641079     10.33323475115403     35.74397960640877
  O   -1.01755990779099      6.92874242481440     36.65150899192208
  O   0.52365179899650      9.17922728995802     32.16351774703052
  H   -3.75268378438214     11.36992459251128     33.58932370897752
  C   -1.71151004179849     10.80193060446329     31.87850862117313
  C   -2.72363788532345     11.82570908365591     31.36377772733584
  H   -1.53433710589302     10.03782166953081     31.10416923214901
  H   -0.72489809207117     11.27837108458326     31.99468780048743
  H   -3.72209977791171     11.38486228504505     31.20665528489281
  H   -2.38450972770056     12.22687712093625     30.39590932878698
  H   -2.83804149407298     12.68405199344640     32.04582161690145
