31
Coordinates from ORCA-job 732_0.0
  C   0.94843925084810      6.02579752892022     34.80567680914077
  C   1.88828120622755      4.92242974001977     34.34076262498906
  C   2.39333067455413      5.28432890172424     33.14549540827614
  C   1.78649823357683      6.64843189841736     32.81835635947850
  C   -0.31227003526769      5.97483622541545     33.87811495396203
  C   0.25632249155066      6.36619251730430     32.48258996807882
  C   1.66382693286971      7.26611062183024     34.22672062363641
  H   2.31505897540594      7.23128646232704     32.04890828151368
  H   0.71090895656017      6.03852952589338     35.87892589181655
  H   1.05303293862210      8.18110998991137     34.25392888302871
  H   2.64528890844192      7.45104618466930     34.68939865297650
  H   2.02682511688043      3.96716223461386     34.85150977897910
  C   3.26974023565799      4.52770397677066     32.19227623841297
  C   3.70768727137788      3.14338423002742     32.67002330426189
  H   4.16097159433651      5.14522194779797     31.96658002732982
  H   2.74198018624623      4.43827382290998     31.22200401019110
  H   4.26756359462521      3.20765296448029     33.61722178499441
  H   4.35907001744772      2.65593780092327     31.92752254872077
  H   2.84042036904736      2.48486598419866     32.84034961512008
  H   -0.78493718064885      4.98166938755828     33.87243404411992
  H   -1.05793293520880      6.71561654110807     34.20272274053891
  C   -0.38652760448915      7.60529002361376     31.86524385403869
  H   0.19374427330469      5.54164503340007     31.75574131925162
  C   -0.41181459122673      7.66521678605374     30.34301105895491
  C   -0.89307373005582      8.99825998194120     29.78172655987826
  H   0.59700131132102      7.40512106747266     29.97185865525637
  H   -1.05617181614096      6.83143073270670     30.00301415551540
  H   -1.90124700497104      9.23793221663397     30.15144328022396
  H   -0.92023818621386      8.97685346490409     28.68113232128249
  H   -0.23196282707097      9.82091075638254     30.09545326437954
  O   -0.82984662760830      8.51131145006995     32.54137298165178
