31
Coordinates from ORCA-job 733_0.0
  C   1.01024373861705      6.06884271515839     34.78902396780924
  C   1.91731375895045      4.92856494464612     34.34945117808165
  C   2.39301628353651      5.22530683231015     33.12454147801773
  C   1.79876188563744      6.58308940807603     32.75106279879245
  C   -0.27817876651033      5.99739574577035     33.90185377762129
  C   0.25533693068425      6.31257076529817     32.47310975882723
  C   1.72874192108597      7.26778938118683     34.13184534353464
  H   2.31391763401372      7.12020606725207     31.94029498356277
  H   0.80518208484812      6.13534002497299     35.86695407116786
  H   1.13452728495699      8.19396751482252     34.13371270936776
  H   2.72674756015522      7.45580361920077     34.55624717814567
  H   2.05554439998523      3.99572340206087     34.90016485175266
  C   3.22935144368328      4.41044483379786     32.18345205221684
  C   3.66749769058727      3.04652529014250     32.71628757259403
  H   4.11921012124423      5.00480021003854     31.89828984428522
  H   2.66919662746283      4.27891211423459     31.23638436011608
  H   4.25619821660722      3.15123614148514     33.64214706441283
  H   4.29116524466102      2.51541854606187     31.97998353835044
  H   2.79921593013504      2.40727253446675     32.94476553940990
  H   -0.76722296713594      5.01368804975066     33.95635536880013
  H   -1.00162589999715      6.76573881970458     34.21228143926526
  C   -0.38655632022169      7.53178918862452     31.81655597917760
  H   0.15764976308375      5.45535415138292     31.78922448261967
  C   -0.46959546239320      7.51347947164823     30.29531158149139
  C   -0.95336564306173      8.82308910703894     29.68342785705992
  H   -1.13789794205931      6.67352479323859     30.02365407906080
  H   0.52076369746250      7.21878448480085     29.90090690418593
  H   -1.94549251125016      9.09497543922314     30.07384372666493
  H   -1.01847005269828      8.74672363280771     28.58687361135072
  H   -0.27229659064766      9.65150337314950     29.93259638921358
  O   -0.78489006142265      8.48095939764773     32.46079651304315
