77
Coordinates from ORCA-job 734_0.0
  C   1.11263113570034     -0.25880292691480      1.22999031280482
  C   -0.04205279400768     -0.88511967293636      0.75891252668665
  H   -0.84183761945149     -1.17869888421718      1.43926906411272
  C   -0.17961114419302     -1.13407256833655     -0.61249690819579
  C   0.81759810294011     -0.74062786352365     -1.50905117672616
  H   0.70256945715517     -0.94041595845573     -2.57757798172455
  C   1.95879214950969     -0.07725489817529     -1.04254883889225
  H   2.72858252276343      0.25990476212035     -1.74183441008078
  C   2.10503059921107      0.16347542551426      0.32425598468543
  H   4.88056262825365     -1.94624170208323      5.22192799664257
  C   4.57824134764553     -1.37205276884227      4.34229562060959
  C   3.22662196964336     -1.05226644216025      4.15862403689927
  H   2.48783449791946     -1.37749726498007      4.89071098218949
  C   2.84116673520595     -0.33475097610860      3.02677407060617
  C   3.80857926030914      0.09051177239893      2.09715717615765
  C   5.15375629117440     -0.22796078075318      2.28412178442409
  H   5.90121424518413      0.10263086766051      1.55730839704792
  C   5.53710889072070     -0.96912263455456      3.40885692796184
  C   3.23802975396792      0.93315004776498      0.97411359818119
  C   1.42766624446753      0.13902055268323      2.67387182882780
  C   1.51388469681149      1.71108319131015      2.68315748717343
  C   2.59144053451812      2.17537685642946      1.67960848278117
  H   -1.07706294408947     -1.63805050838788     -0.98026309175550
  H   6.58860225726818     -1.22863662346094      3.55738795761297
  C   0.22309876484446      2.40205402821189      2.22897473279936
  H   1.72451655910712      2.01834105983422      3.71806893685315
  C   1.85770104539415      3.09167043550390      0.70545202966539
  H   3.38892902425356      2.75902498301942      2.16380801796420
  N   0.52266478318896      3.16664941216035      1.10009122049124
  O   -0.87193347567685      2.33344894087494      2.73482277072093
  O   2.32710535082758      3.65812255638892     -0.25330017590877
  O   0.42450461822704     -0.18795486206438      3.62288871591670
  C   -0.47123197093881      3.95743261720770      0.38855408894931
  C   -0.62089772637925      5.37260982844416      0.95734087184381
  H   -1.43538120058368      3.43388814197076      0.44767188657606
  H   -0.14914988241531      4.00332331756446     -0.66320514340315
  N   -1.59445930459506      6.11844233605817      0.18477887237668
  H   0.38231274172578      5.85583061949131      1.00231928072789
  H   -0.98315682911362      5.29936301883989      1.99755347265574
  C   -1.94069472213085      7.41354757087965      0.74098648213366
  H   3.99729952428451      1.25559039689921      0.24995199353856
  H   -1.07328414508805      8.09108764363389      0.91095127656980
  H   -2.44531659053602      7.28176257424256      1.71351534133616
  H   -2.64732821286018      7.93121255309143      0.07308062968563
  C   -1.98650738372163     -2.45892226279645      4.97812878014875
  C   -0.00708835669458     -1.46719173460709      3.81860493489218
  N   -1.19483822212792     -1.39926750409644      4.50029495034769
  H   -1.26392307392380      6.22956238055084     -0.77368812388303
  O   0.57467012867054     -2.46180475955513      3.45662004642651
  H   -1.54456065046343     -0.45763904710933      4.64688563270017
  C   -3.19569803701439     -2.13585159149506      5.62090380869138
  C   -4.00529588693323     -3.15927395051973      6.10724877756702
  C   -3.64898999912562     -4.50412709634686      5.97646216209154
  C   -1.61808313453550     -3.80223751648596      4.83340154686363
  C   -2.44374519299590     -4.82736012201686      5.33094988590785
  H   -3.49279488419732     -1.09004949455981      5.73656481845959
  H   -4.94173444248442     -2.90479400487749      6.61095572346046
  H   -4.28953273551685     -5.28680665900684      6.37251602086117
  H   -0.68716864535142     -4.04477908921959      4.32286736079172
  N   -1.95852866249095     -6.13839163322570      5.15829578912888
  C   -2.52335071056109     -7.38806359567135      5.25596854260590
  O   -3.83125488296915     -7.36558188722445      5.59925150508841
  H   -0.99914274288454     -6.20509094351859      4.83457339615150
  C   -4.46301080531701     -8.64491797354674      5.69219682875718
  C   -5.94640089468949     -8.38539808858141      5.88871709736442
  H   -4.04854030487912     -9.21819970891396      6.53662351779724
  H   -4.28709764652640     -9.22857219312097      4.77632006995371
  O   -6.56423147308354     -9.66218227112997      5.96562726625119
  H   -6.33489294170576     -7.79564918021495      5.04041836781871
  H   -6.11192535799230     -7.80475935363668      6.81352899182782
  O   -1.90204033843291     -8.40435739927735      5.04438271451164
  C   -7.91100345811000     -9.82472262267320      6.08869745697223
  O   -8.35388323251459    -10.93735171932270      6.15435326728997
  C   -8.76236756264841     -8.57120983598087      6.13180119164815
  H   -9.81054562642075     -8.87278843541694      6.24264897955281
  H   -8.64896055294632     -7.98083756925288      5.20869028503582
  H   -8.47802945957531     -7.92121131139324      6.97447127739553
