28
Coordinates from ORCA-job 736_0.0
  C   -29.66134775645397     -1.24003145924840     16.58320774838342
  C   -27.75089288930378     -0.75413378255245     15.92462683259170
  C   -28.27438167467426     -1.90938080812974     16.80016704175759
  O   -29.09503131397098     -0.33339404532215     15.63168632267725
  C   -30.19241055862402     -0.50787605310757     17.81372642551887
  O   -31.35112904124269     -1.02561002965430     18.23389414755994
  C   -31.88731516541616     -0.49749582858815     19.46220535883226
  C   -33.16935293843544     -1.24108849032120     19.77259830127772
  H   -32.05354160293982      0.58530092640952     19.34007794820103
  H   -31.13083652069792     -0.62514024572621     20.25342040849634
  H   -33.90994777280757     -1.10516371108156     18.96879080489254
  H   -33.60498350473203     -0.86202924846621     20.71064210185133
  H   -32.98002926808729     -2.31942110420169     19.89012540961599
  O   -29.61691360247579      0.41207659438246     18.34067955903275
  C   -27.77215037214197     -2.10643277636689     18.21236324446799
  O   -26.46271713667901     -1.83821762207408     18.31032628016971
  C   -25.85651308203541     -2.00543715279101     19.60779285196834
  C   -24.39564843733964     -1.62324404842009     19.49464082645848
  H   -25.98892524390206     -3.05204128562434     19.92782977458513
  H   -26.39695090784591     -1.37442312087528     20.33152581726319
  H   -23.87464958690979     -2.26176296855686     18.76409191647134
  H   -23.90056716899518     -1.74174643860993     20.47137232451333
  H   -24.28537436865169     -0.57443705881348     19.17777202569836
  O   -28.45795357938901     -2.49218532455346     19.12829776007946
  H   -30.44926982920348     -1.87643407861028     16.15048114740916
  H   -28.21876505795756     -2.88572468720131     16.29256477171960
  H   -27.18397727221066      0.01145549694299     16.47932599759309
  H   -27.19472434687629     -1.03962164883832     15.01584685091358
