22
Coordinates from ORCA-job 738_0.0
  C   -29.65039354866099     -1.72152877101368     17.17734450887124
  C   -28.22646201684214     -0.43930119520431     16.37238563226538
  C   -28.09516489138677     -1.78069174936773     17.12772565984854
  O   -29.65678617209195     -0.45325009404390     16.48358766835578
  C   -30.37889508076278     -1.66176395379278     18.51117240154472
  C   -31.86662242520261     -1.34472831986489     18.33890630818857
  C   -27.29107773263614     -1.79057914640942     18.42524767803317
  C   -25.77964962900600     -1.72214080323961     18.18834147111142
  H   -30.12340779758530     -2.50199600974488     16.54739227800760
  H   -27.74045735769531     -2.59838075511990     16.47854266592288
  H   -27.77651646652663      0.43512623951859     16.88133812855329
  H   -27.88855455946632     -0.44179801760960     15.31954858938982
  H   -27.53098198469560     -2.70578673397549     18.99553076765245
  H   -27.60015715318340     -0.94422153529766     19.06286207373472
  H   -25.42649258604850     -2.58502040662977     17.59863534857995
  H   -25.22360868981280     -1.71775247685957     19.13953643946108
  H   -25.49795838275382     -0.80874359105617     17.63741513564510
  H   -32.37915112766137     -2.12934764481222     17.75676910228863
  H   -31.99428054198697     -0.39200597385092     17.80171816069338
  H   -32.37599641469460     -1.26134300648937     19.31212127339304
  H   -29.90842811964986     -0.89597773401518     19.14999832174401
  H   -30.25024732164974     -2.63117832112152     19.02665038671511
