22
Coordinates from ORCA-job 739_0.0
  C   -29.48386116468221     -1.00987759805072     17.93680712963327
  C   -28.21470216569605     -0.81336971452268     16.31069929378154
  C   -28.10028993672928     -1.62729615728210     17.61869233829113
  O   -29.55452641190524     -0.40617487766034     16.62459755479876
  C   -30.65854404014090     -1.92841495618603     18.22556945057505
  C   -31.99802127713678     -1.18908082905417     18.23899758306810
  C   -26.93719980698838     -1.34454552001065     18.56220200610318
  C   -25.59255381925527     -1.86219874186355     18.04498041862764
  H   -29.42456089713639     -0.22382031062137     18.71938378059990
  H   -28.17961029021578     -2.71293267886068     17.43504734559122
  H   -27.52091608804236      0.04882758813769     16.24978153709343
  H   -28.15910896095505     -1.37535682537439     15.36131715312391
  H   -27.15587479373946     -1.80096468220259     19.54505409286892
  H   -26.87372227214546     -0.25535937293533     18.74044240438825
  H   -25.61388442626935     -2.95517655255613     17.89692758361343
  H   -24.77555155763672     -1.63643808979874     18.74887493878003
  H   -25.33066194102447     -1.40315715365991     17.07663506965498
  H   -32.16186685788288     -0.67841719010619     17.27719402644981
  H   -32.02718470872156     -0.42488303192356     19.03410420094632
  H   -32.83873890420640     -1.88085781241722     18.40744408835036
  H   -30.47966948663362     -2.42343277718581     19.19840877620531
  H   -30.67582019285607     -2.72474271586553     17.46029922745531
