28
Coordinates from ORCA-job 73_0.0
  H   1.58343352604034     -2.84458828259611      2.99905824336621
  C   1.15097005608301     -1.93440854160815      2.57366797917193
  C   -0.19773041491004     -1.95226950100966      2.16686808477156
  H   -0.77098141016064     -2.87580332793833      2.28892924182920
  C   -0.82021838733338     -0.82510466155558      1.60718421890232
  H   -1.86266076072143     -0.84057625251925      1.28289190716655
  C   -0.02053425698067      0.30967407517893      1.50498625459917
  C   1.31423789876041      0.32745510386831      1.90780215073319
  C   1.95137243445811     -0.78820329241590      2.44331088345066
  H   2.99946835458535     -0.77611085410923      2.74900853171310
  C   0.02076404915881      1.73844407415839      0.99020042114143
  C   1.52973047468731      1.75813294326493      1.44397069112447
  O   1.78755033268335      2.74583574699167      2.43948081750764
  H   2.25358260542897      1.87614284936862      0.62128996287392
  C   3.03299103787317      2.75309027918423      2.96231476151586
  O   -0.76666113253215      2.70968982789694      1.67563820072563
  H   -0.13337963902979      1.84810823097442     -0.09553934521273
  C   -2.09359310742314      2.68653593193917      1.42397862348933
  O   3.88849825349524      1.96509130073239      2.64078007497123
  O   -2.61119207381644      1.88868115986856      0.68113824025490
  C   -2.80812476791708      3.77456992994479      2.18685783246957
  H   -2.41271157204709      4.75960704209838      1.89332749570933
  H   -2.62154097193947      3.65890469478559      3.26583230167026
  H   -3.88406461300483      3.72370033985976      1.98085011366325
  C   3.19054803065836      3.86243276955320      3.97266573782435
  H   2.40878986353032      3.78385151396565      4.74357119338506
  H   3.06107034769632      4.83776334323066      3.47725013938300
  H   4.18547584267709      3.80525355688756      4.43035524179951
