54
Coordinates from ORCA-job 74-_0.0
  C   -2.24391487117898     -1.43979484447710     -0.42803274856841
  C   -2.34396883571549     -0.68679430059129      0.76026674502971
  C   -1.25817202932525      0.11802689887676      1.17204963603244
  C   -0.09811406748358      0.16631427610853      0.39093304744356
  H   0.75390452270579      0.77841366131388      0.68729614262059
  C   -0.02968292513139     -0.58290036493665     -0.78128636827316
  C   -1.09186867037032     -1.38785736814593     -1.20188017196814
  H   -1.01420526354774     -1.96821986853370     -2.12011037254005
  H   -4.54874526865049     -2.11005691521130      6.36482403799451
  C   -5.10219325314140     -1.26364494781715      5.95454205231462
  C   -6.10124218713828     -0.63845019617894      6.71718940551432
  H   -6.33618802942515     -0.99461990521499      7.72254791205622
  C   -6.80508994372602      0.45273427855820      6.21167073054209
  C   -6.54317806620247      0.94944865816158      4.92271343182183
  H   -7.09799885552089      1.80706678369580      4.54069078394406
  C   -5.55503858780570      0.33625304270780      4.16881488373514
  C   -4.83920284404460     -0.76700212263317      4.67531170293154
  C   -1.41740875426215      0.84446873063407      2.42413234883843
  C   -2.55028364130320      0.73661001956624      3.13532171324601
  C   -3.70472503915110     -0.15290375780002      2.74072559325430
  O   -3.48646286527877     -0.78042828557476      1.46220376092144
  C   -5.10440935054398      0.59973118721570      2.73803642374955
  N   -3.90235857765949     -1.20657101283303      3.74292840285684
  C   -6.08736394803983     -0.09882360822545      1.77119659299318
  H   -6.14028673328143     -1.17979932130226      1.96798838460976
  H   -5.79177168664382      0.05405394397567      0.72366568646400
  H   -7.09283711535421      0.32489328423202      1.91793985412568
  C   -4.99337695681306      2.08297415708884      2.36437715776492
  H   -4.39543540810301      2.65966589036594      3.08442774948003
  H   -5.99664276268853      2.53639623112237      2.33058913279298
  H   -4.54608579382400      2.20078558186624      1.36449006463586
  C   -2.84563088977513     -2.12963190355633      4.08696073999505
  H   -2.26885156794875     -2.38049472364114      3.18576566079323
  H   -3.28162589158523     -3.06767729123973      4.46659219272144
  H   -2.14764763895981     -1.73966427191682      4.85442354427117
  N   1.19185476390744     -0.53081474503324     -1.59958743389260
  O   2.10019415142978      0.18976334920578     -1.21370794476447
  O   1.22331233626412     -1.21086856480611     -2.61425984618407
  O   -3.26734880188978     -2.28976615680472     -0.80043615470515
  C   -4.43557845277859     -1.74688193862195     -1.27821709851801
  C   -5.44331886267458     -2.83268079329751     -1.53882544014165
  H   -4.99431388012530     -3.63808908769951     -2.13897785631051
  H   -6.31527743565057     -2.40921414863192     -2.05142097602350
  H   -5.75426512747267     -3.27373979155768     -0.57816476900807
  O   -4.58804530601698     -0.56893342186733     -1.44356071480368
  O   -7.81228287508235      0.98803907104653      7.01321702345612
  C   -7.84312159360050      2.32253851749827      7.29889430614290
  C   -9.00708513067335      2.62745458626064      8.20841629534260
  H   -9.94601469208671      2.28402696183718      7.74731900009124
  H   -9.05004178631641      3.70616275694056      8.40106702283547
  H   -8.89274485886235      2.07972223652647      9.15711804659004
  O   -7.04865097177562      3.11931572129464      6.87795659600138
  H   -0.59171438665173      1.47174259937385      2.77144273430230
  H   -2.67594329302616      1.26590123267617      4.08293135544478
