32
Coordinates from ORCA-job 740_0.0
  C   0.92560135517707      5.99554828960055     34.71779095491685
  C   1.89337376594493      4.89769102293017     34.30353618135292
  C   2.39685572693512      5.21577064150382     33.09516753081526
  C   1.75084792960767      6.54625651684652     32.70397811417072
  C   -0.34280972510954      5.87270309613244     33.81312462963919
  C   0.20068969023721      6.22692919203548     32.38311906422923
  C   1.60938379979809      7.22468439546103     34.08077380883348
  H   2.24893246856283      7.10326153902785     31.89757470562665
  H   0.69034334565741      6.05325330339292     35.78980713764806
  H   0.98400652150737      8.12868464845766     34.07606500668940
  H   2.59035518024912      7.44690953830875     34.52590940779435
  H   2.06299022609755      3.97522180828606     34.86184383482685
  C   3.32600775978094      4.45429913471027     32.19730394597588
  C   3.81109268688595      3.11841089011496     32.75877531319469
  H   4.19321440710600      5.10229289306771     31.96295130778226
  H   2.82160808700095      4.28846600638491     31.22762510473343
  H   4.34173167296978      3.25211814257888     33.71579241502454
  H   4.50317789692802      2.62651824689526     32.05761054758344
  H   2.96787895276814      2.43105163639901     32.93403299669518
  H   -0.78844962630623      4.86945120505390     33.84477317742229
  H   -1.10400831348260      6.61140056919874     34.09907604969293
  C   -0.44897034898927      7.51499666430170     31.79208894906331
  C   -0.41907178662826      7.69441929244379     30.28459271293445
  C   -0.84085322024253      9.08692311359387     29.82782418702958
  H   0.58836394543718      7.42727635572266     29.91793723954408
  H   -1.07788128835765      6.91737325397039     29.85530560761523
  H   -1.85547350627343      9.32575627727487     30.17933340454993
  H   -0.82770272737248      9.15492342458849     28.72936450803698
  H   -0.16787809346345      9.86026099072441     30.22959984209679
  O   -0.91373186073284      8.35427013260659     32.52894386187700
  C   0.06883757236941      5.11057076071645     31.44407620598389
  N   -0.04137249406255      4.22900701766939     30.69766224661830
