122
Coordinates from ORCA-job 742_0.0
  C   -2.18251523340700     -3.57887573785805     -1.16208989458812
  C   -3.38180906795924     -3.35745732712841     -0.44126396219330
  C   -4.05974155615382     -4.40790581510632      0.18423487522471
  C   -3.52108191708446     -5.70099238140602      0.09825635787782
  H   -4.04281128680006     -6.52952515181686      0.58640388897404
  C   -2.33503995028482     -5.92805242195399     -0.59620256913344
  C   -1.65972894145078     -4.87667641823564     -1.22744697021957
  H   -7.34858445299942     -3.76113472360814      2.94135716671577
  C   -7.34628849250593     -2.68097731230928      2.78256883025775
  C   -8.23602649156354     -1.85279202728087      3.47940783215393
  H   -8.93733052782054     -2.29562699628760      4.19173945462123
  C   -8.24457936610484     -0.47768754507898      3.26876712531262
  C   -7.33561420554373      0.12507447451642      2.36459636771109
  C   -6.45355512870939     -0.68809890341184      1.63885215810075
  C   -6.46722869925376     -2.08677716733061      1.87258109198280
  C   -5.35248311228348     -4.13669043375247      0.92457614834522
  C   -5.17056893252661     -1.83501311240774     -0.02695428374831
  O   -3.82210368761221     -2.05400117525906     -0.40891448994349
  C   -5.34052255273677     -0.39208711682095      0.61532849365194
  N   -5.51640062530342     -2.71308761587436      1.08778993677617
  C   -5.64085493834197      0.66371210505309     -0.45811385829748
  H   -6.64102219475216      0.54036421752448     -0.89973074261179
  H   -4.90535435287392      0.57949064270011     -1.27390534308749
  H   -5.57240362300858      1.67184990408518     -0.03303385657488
  C   -4.05587067156635     -0.00874951440863      1.38636920274822
  H   -3.75652680771583     -0.80571499549505      2.08263903561053
  H   -4.24833479802532      0.91204695975317      1.95288143619638
  H   -3.22173560989965      0.16755616326296      0.69102010980189
  H   -0.73986222435293     -5.04067671366437     -1.78361148087612
  H   -5.31049754002048     -4.60493498995029      1.92258475919490
  H   -6.20790332731487     -4.60273494228834      0.38703611909121
  H   -1.92163056089205     -6.93798154843924     -0.65434021435597
  N   -1.62296787931646     -2.45025413786597     -1.78326286403379
  C   -0.53980068105850     -2.37937106294207     -2.62496214229030
  H   -2.14557100627418     -1.59840670628955     -1.61728851488214
  C   -0.26860022657773     -0.99532150091498     -3.27507759102612
  C   -1.05627459490683      0.16623238242553     -2.64116006517360
  H   -2.14314313799395      0.06339566909539     -2.79875622338081
  H   -0.76085149888624      1.11684262071343     -3.11379082726286
  H   -0.87244193522805      0.26718152963977     -1.56003592057878
  C   -0.68311753085981     -1.13631068209676     -4.75853075265298
  H   -1.76017614586687     -1.34991238981596     -4.85613755262641
  H   -0.12767849326586     -1.95652784162396     -5.23717145849200
  H   -0.46967924169912     -0.20333700895566     -5.30599549886457
  C   1.25834863648631     -0.73090706329511     -3.20747956789147
  C   1.85008847842609     -0.56700414593391     -1.80552686765681
  H   1.46931823919200      0.17204019067329     -3.80791520865305
  H   1.75910545729930     -1.57225548134578     -3.71072524266334
  H   1.44103589889853      0.30793049702000     -1.27456146363150
  H   2.94211181917362     -0.43024212625097     -1.86237124626490
  H   1.66642759255911     -1.45892559791137     -1.18450431367238
  O   0.16223596436535     -3.34060905535335     -2.89567726453149
  C   -6.10423420293273     -2.07750606439606     -1.20119506431829
  C   -5.72053330826727     -2.39220413891395     -2.45643896963526
  C   -6.60549326106630     -2.65186246918753     -3.58297211325924
  H   -7.16328347870350     -1.98970134341570     -0.94044724777351
  H   -4.65285664633218     -2.47893226517847     -2.65835768744025
  C   -6.14386207152412     -3.10273144570920     -4.79760235898296
  C   -6.98667823102465     -3.48448101585793     -5.92436776755597
  C   -8.09553361155707     -2.43781783408103     -3.39452521317162
  C   -8.84274099844927     -2.26574763410944     -4.71410024076323
  H   -8.25293029404845     -1.55151342826289     -2.75848473111436
  H   -8.51759263481118     -3.29076449742651     -2.82801054244579
  C   -8.48413677042363     -3.38645808635897     -5.68729960185484
  H   -8.57418605407589     -1.29278195776591     -5.16209794794865
  H   -9.93040806069052     -2.24604563796250     -4.53581951027281
  H   -9.00793412822115     -3.23704246455460     -6.64280402735353
  H   -8.84982305874804     -4.34997837564318     -5.28136737611048
  C   -6.47361660201158     -3.96533401159905     -7.10276769457499
  C   -7.20926422947416     -4.42355559192723     -8.24504610240076
  C   -6.61014160412722     -4.93712939697348     -9.36485079520779
  H   -5.38576185320577     -4.03185235694072     -7.18542696691907
  H   -8.30341378410596     -4.37918252877529     -8.22582552385359
  C   -7.32035282397318     -5.41214007457023    -10.51715097983997
  H   -5.51737470833677     -4.98739830193022     -9.36478645754348
  C   -6.79564802285671     -5.96425189349832    -11.65721886252533
  H   -8.40906373587469     -5.32119538982981    -10.46075176428437
  C   -5.31976161259959     -6.23183380544111    -12.02231230257118
  N   -7.58999162597704     -6.39388977888480    -12.71417471647164
  C   -6.81898640491567     -6.91822775334070    -13.75678382320478
  C   -5.45901133692030     -6.85091718371005    -13.40927174943589
  C   -4.66514528487354     -7.23931527224778    -11.04863818981731
  H   -5.24581270093322     -8.17289062793203    -10.99913078945316
  H   -4.58948602003303     -6.82995145206181    -10.03082277973536
  H   -3.64806504143992     -7.48872935731950    -11.39120146308674
  C   -4.49832569441820     -4.92419433018626    -12.09729216148874
  H   -4.96436426954720     -4.20385446655612    -12.78657109288562
  H   -3.48234697214866     -5.13885878791512    -12.46571944523358
  H   -4.40723690356796     -4.44424292407553    -11.11208637147816
  C   -9.02983201731471     -6.29935952666825    -12.71663445620361
  H   -9.36123129490904     -5.24936641445510    -12.63150260372180
  H   -9.46758703415342     -6.86409722140442    -11.87474679300103
  H   -9.42903874567195     -6.71183466725513    -13.65079033336153
  C   -7.22904557282218     -7.44752952447964    -14.98405754179008
  C   -4.49096610688146     -7.31575853406734    -14.29018410362668
  C   -4.88496868040723     -7.85153307122730    -15.52855618762445
  C   -6.24067402145957     -7.91282317611388    -15.86356713215549
  H   -6.54274249119231     -8.33041209577645    -16.82783735635721
  H   -8.28253619732813     -7.50451232049472    -15.26452307358698
  H   -3.43002235326421     -7.26789406179534    -14.02825243961564
  H   -4.13129080394988     -8.21980738853027    -16.22852449933565
  Cl  -4.39486459930852     -3.29867017036624     -5.02300982454506
  H   -6.85560796700924      4.16775152069632      3.47705926552324
  H   -8.21261878723126      5.26812280427750      3.84927654200995
  C   -7.92681869231620      4.21338808878735      3.71088020662424
  H   -7.38237502714426      4.25391367549912      1.07814900773994
  H   -8.10542902636855      3.68577798548218      4.66116568388692
  O   -6.32122889641789      2.28036683649753      2.03957296158202
  C   -8.47045914952505      4.27170441348801      1.23426129835636
  C   -8.77228506869885      3.59671294314379      2.59048530399670
  H   -8.92495824807809      2.60440562706787     -0.10943598384517
  C   -9.17196541466909      3.67056964141398      0.01460900826273
  C   -7.31468309883610      1.62348189593462      2.27380393856248
  H   -10.58785586544045      4.71919546930826      2.99367255211124
  H   -8.85474426018242      4.19195016876185     -0.90247161340471
  H   -8.75485983867395      5.33342878444469      1.34086344537338
  C   -10.25887430142492      3.66944123703433      2.94870143159105
  O   -8.52630701578324      2.14816493385402      2.51574867880658
  H   -10.44013035071949      3.20659115632365      3.93085054340684
  H   -10.26879395072083      3.75316446232565      0.07566385098957
  H   -10.87406359282338      3.14034482148598      2.20689494785776
  H   -8.94550232465492      0.15791518265284      3.80890356901789
