73
Coordinates from ORCA-job 743-2_0.0
  C   -1.49949951076233     -2.89168082210367     -1.00365412316968
  C   -2.70793441010340     -2.90334292999895     -0.24804527735353
  C   -2.96408164844085     -3.93116900188862      0.67415070485320
  C   -2.02409121428983     -4.95543858258349      0.84135354163675
  H   -2.19012520266081     -5.76700670083550      1.55035101935606
  C   -0.85192431319730     -4.93141082927174      0.09689508617711
  C   -0.56969429277738     -3.91215299036902     -0.82310012414621
  H   -6.14022549161958     -3.55480150553600      3.72135420724502
  C   -6.48473000590926     -2.62010130031029      3.27395221549222
  C   -7.55013709083090     -1.91828918925042      3.86269828510679
  H   -8.03122757542646     -2.31396767585308      4.75510594139700
  C   -8.01101872481638     -0.73374270894256      3.28518909652950
  C   -7.41448691095184     -0.21672030737008      2.12006106724955
  H   -7.79859537229281      0.71634402679843      1.70113463798849
  C   -6.36267389261135     -0.90559838440902      1.53959895374052
  C   -5.89517660488123     -2.10535169601151      2.11826258133056
  C   -4.24294803049434     -3.90665211108924      1.48640240861419
  C   -4.88050348822250     -1.99515126456194      0.03242995487275
  O   -3.55830880546939     -1.87557032933472     -0.48016299105291
  C   -5.48870138505768     -0.56204824285788      0.33396949242577
  N   -4.83734705859046     -2.60055060608277      1.36625515854380
  C   -6.24734508390658      0.04389052305331     -0.85128604868004
  H   -7.11638081309138     -0.56089044632687     -1.14671643783680
  H   -5.58576599726317      0.13907776454401     -1.72674757774769
  H   -6.60699542149121      1.05327181791877     -0.59401256846947
  C   -4.36564302575787      0.39961535462075      0.78387763193413
  H   -3.78334094421259     -0.02842504896480      1.61273924730626
  H   -4.81082015930185      1.34585486787007      1.12847966094335
  H   -3.67538585385234      0.61279914093511     -0.04559913821031
  H   0.36682632864018     -3.95451854488585     -1.37348324491982
  H   -4.00479501369034     -4.09637989388076      2.54617779379826
  H   -4.92317624335703     -4.72285713623101      1.15695631235002
  O   -1.36354571228907     -1.86299535590585     -1.86801233216571
  C   -0.18227208015413     -1.76709405825462     -2.65494187897034
  C   -0.28928226599744     -0.52306140008137     -3.51533081826232
  C   -5.73311024884614     -2.82507408150406     -0.90851653479428
  O   -9.03168625475949      0.04846730333028      3.82357418473291
  C   -10.14348154195208     -0.47201250645206      4.41211621996396
  C   -11.05641781405953      0.64601718854098      4.85404225337841
  H   0.70328499659961     -1.71467308661664     -1.99381232396461
  H   -0.07430154517334     -2.67345653415697     -3.28037902151593
  C   -5.37209511269423     -3.24685741188278     -2.13393058076778
  H   -6.71989515426536     -3.06970645886722     -0.50125952173174
  C   -6.16750061686787     -4.04857631872999     -3.07006289986850
  H   -4.37684538660310     -2.96468527276553     -2.49446566187041
  C   -7.50286892319198     -4.43505124680506     -2.83395616437835
  C   -8.22274273814237     -5.19544098898715     -3.74566866543443
  C   -7.64221285147828     -5.62288642128045     -4.97030191561200
  C   -6.29985117060835     -5.23637938227776     -5.21243984426569
  C   -5.59726927941661     -4.47242628214543     -4.28545963139788
  H   -8.00195832986689     -4.13052085273814     -1.91042120429781
  H   -9.25173593213824     -5.45909131141925     -3.50310734256720
  H   -5.79648076417008     -5.53362728610736     -6.13188662852511
  H   -4.56254336832059     -4.19590627457921     -4.51013905526496
  N   -8.35539007240091     -6.37813729662558     -5.88051666294012
  C   -9.71901752975840     -6.77256544717937     -5.58993107732133
  H   -9.79144384948764     -7.40094123477745     -4.68189148858673
  H   -10.11721943372728     -7.35462687692654     -6.43123450558525
  H   -10.38248288826292     -5.90012843000353     -5.44286113630531
  C   -7.72530763226183     -6.81837548207434     -7.10844577795272
  H   -7.39285108005336     -5.96894243683849     -7.73404313549476
  H   -8.44277633935657     -7.40423338262806     -7.69759791818639
  H   -6.84165965848528     -7.45743274836949     -6.92078633588560
  H   0.61246452588906     -0.41586095864734     -4.13831594055155
  H   -0.38913461131028      0.37625422607194     -2.88833306878552
  H   -1.16650311139144     -0.58025861030238     -4.17808247755663
  O   -10.35260874681407     -1.64674380861078      4.55899134698449
  H   -11.31172939926050      1.28961159470002      3.99812568496399
  H   -10.53934719779154      1.27875523863186      5.59271752892769
  H   -11.96635608766564      0.22257468372349      5.29603811575239
  N   0.13621690917472     -6.00459224543230      0.27984067806255
  O   -0.12218846584908     -6.88667087809331      1.08607923602474
  O   1.16123001989962     -5.95346311372290     -0.38662116528891
