73
Coordinates from ORCA-job 743-3_0.0
  C   -1.59940141286187     -2.97282707559486     -0.98979504564341
  C   -2.84311393379736     -2.98760960388413     -0.29386922780373
  C   -3.13943709110538     -4.01448378678105      0.61731190188554
  C   -2.20595742271641     -5.03617976462656      0.83031592024425
  H   -2.40344454644059     -5.84622147057424      1.53298898177832
  C   -0.99988728881958     -5.00993420514447      0.14231726009589
  C   -0.67674738334615     -3.99073767365804     -0.76425039345833
  H   -6.36389359655406     -3.62608557348164      3.55058550922602
  C   -6.68543149130484     -2.68855464107069      3.10808794909398
  C   -7.73486872803435     -1.94632200095982      3.67804081395342
  C   -8.17949446950767     -0.74473881381375      3.11468371946452
  C   -7.56867359092146     -0.24841165830349      1.95209251422922
  H   -7.92010742609502      0.69202787355386      1.51851106260864
  C   -6.52988717488706     -0.95700980642962      1.36567976315944
  C   -6.09532062731333     -2.16215594423620      1.95497726360678
  C   -4.45295982508268     -3.98954849341366      1.37139047722762
  C   -5.02695742440590     -2.07347136002293     -0.10921326973302
  O   -3.68334489153397     -1.96204953646144     -0.56811057730198
  C   -5.63388194151850     -0.63374543822082      0.17125446167169
  N   -5.04216990973823     -2.68409205073679      1.22129980442924
  C   -6.37067568356505     -0.03510096534534     -1.03190866084551
  H   -7.23638895727774     -0.63997888665544     -1.33679051009501
  H   -5.69546401661785      0.05356524302969     -1.89759009167551
  H   -6.73303494829113      0.97642084885049     -0.78683926608645
  C   -4.51272551288602      0.32705836380931      0.62820095890521
  H   -3.94429692746966     -0.09633727755119      1.46911789479124
  H   -4.95979465494193      1.27721057662218      0.95958712554726
  H   -3.80888076616228      0.53229475983600     -0.19188224269801
  H   0.28540535496108     -4.03062218496699     -1.26866216907838
  H   -4.26429554911244     -4.17678474052489      2.44110577740063
  H   -5.11841665572363     -4.80582113560491      1.01452457857849
  O   -1.42396681221424     -1.94299897572981     -1.84597407955852
  C   -0.20307872800317     -1.83957714343245     -2.56863712780382
  C   -0.26939971304339     -0.59248419515118     -3.42870837969760
  C   -5.84362049588464     -2.89797398408851     -1.08647820357011
  H   0.64609100185723     -1.78700217394997     -1.86140806291482
  H   -0.05863161552425     -2.74292788467372     -3.19113864238050
  C   -5.43021093823899     -3.32179768660408     -2.29447433039526
  H   -6.84776204039842     -3.13868837991686     -0.72116817887530
  C   -6.17997655235910     -4.12615950643934     -3.26534446420408
  H   -4.42036908245099     -3.03927861252082     -2.61158117801008
  C   -7.51495452922493     -4.54092821781386     -3.08109274283256
  C   -8.18657886773230     -5.30505620316371     -4.02619218051361
  C   -7.55477046556071     -5.70747630495371     -5.23382098706134
  C   -6.21230704915488     -5.29319987586492     -5.42342175988675
  C   -5.55859974584423     -4.52661502595830     -4.46359848775120
  H   -8.05185122936380     -4.25865216805283     -2.17173809464732
  H   -9.21781750176566     -5.59247630210956     -3.82348544020968
  H   -5.67001141148465     -5.57141818014191     -6.32656796508955
  H   -4.52178713892340     -4.22846742243063     -4.64732240988368
  N   -8.22003611911047     -6.46657436810690     -6.17685766755057
  C   -9.57954029171553     -6.90400239436427     -5.93212592723179
  H   -9.66104387833476     -7.54454262205608     -5.03326866445100
  H   -9.93490988038483     -7.48754720366091     -6.79140871278285
  H   -10.27250630037115     -6.05296724118625     -5.79655007074259
  C   -7.53618278821267     -6.88591026421136     -7.38309802432347
  H   -7.18794831123603     -6.02516152639041     -7.98367878384413
  H   -8.22354017352257     -7.47054874623125     -8.00832537708675
  H   -6.65391644956222     -7.51892069607264     -7.16868633797688
  H   0.66323987393114     -0.47930960831235     -4.00326748595296
  H   -0.40577251865147      0.30384321333318     -2.80430917901458
  H   -1.11070837831068     -0.65058568523763     -4.13647290741254
  C   -9.19857782122097     -3.44115244138613      6.72980070615232
  C   -8.24438138944529     -3.44138835840821      5.55983213988049
  O   -8.42882438233421     -2.31445390258860      4.82482740515435
  H   -9.00411217425292     -0.21487088200841      3.59411834851480
  H   -9.05310582450154     -4.35441646193798      7.31916217881140
  H   -10.23758085853201     -3.38362706370110      6.36944071269852
  H   -9.02245118267533     -2.55359306115102      7.35750605386444
  O   -7.44432128542124     -4.30791385197441      5.31841006477627
  N   -0.01833020366322     -6.07963983857139      0.37383275228126
  O   -0.30959779813457     -6.95805198839507      1.17269691207183
  O   1.03500954404873     -6.02920034202280     -0.24716770402782
