73
Coordinates from ORCA-job 743_0.0
  C   -1.75835540527267     -2.89750638152541     -0.79029943014874
  C   -3.02397527030472     -2.84919564999859     -0.13650557504084
  C   -3.38299802621823     -3.83377107374240      0.79821340823546
  C   -2.48891551594501     -4.87391022267928      1.07959322109030
  H   -2.73505984527186     -5.65195065671514      1.80259561688508
  C   -1.25904175899926     -4.90724167106383      0.43542082002774
  C   -0.87472934921919     -3.93212651418100     -0.49552275882428
  H   -6.69734846167214     -3.24226052611034      3.60190119715528
  C   -6.96847589934842     -2.29714961560549      3.12798933708444
  C   -7.99423812071670     -1.49807491688368      3.65488938403013
  H   -8.52566064454178     -1.83304864634911      4.54965546526189
  C   -8.35921929228346     -0.28890764669427      3.06398898311531
  C   -7.67981793809479      0.14595969325295      1.91073282422112
  C   -6.67454741302265     -0.63088122956740      1.34763333931532
  C   -6.31396668537842     -1.84163281610131      1.98047987664727
  C   -4.72083666003819     -3.74342275658888      1.50341308719553
  C   -5.17955452824266     -1.85652634632504     -0.04960626492371
  O   -3.82060707964101     -1.80825854336780     -0.47232683548969
  C   -5.73397440838209     -0.38298900351475      0.16597908250547
  N   -5.26022359871786     -2.42493372742415      1.29390877395907
  C   -6.38852358354075      0.18639910490277     -1.09925414507121
  H   -7.29075559976486     -0.37037424261919     -1.38895614976436
  H   -5.67983375922723      0.14679090672233     -1.94141053476523
  H   -6.67842645503539      1.23374841453850     -0.93780781542250
  C   -4.58857824296868      0.54526526377114      0.62903824567127
  H   -4.06021046562987      0.12409121873752      1.49671554868123
  H   -5.00486208205337      1.52134002925449      0.92152383877043
  H   -3.85578751025907      0.69906738069721     -0.17676624049965
  H   0.10266878018059     -4.01837007352779     -0.96366456508867
  H   -4.57365608085955     -3.90280611085366      2.58433369215953
  H   -5.39946554582524     -4.54923578886687      1.14691195536121
  O   -1.52489427535121     -1.90712195247940     -1.67803487103970
  C   -0.27516562915124     -1.86070395862628     -2.35644946400097
  C   -0.27366520200861     -0.64115175606729     -3.25758916951694
  C   -5.99659138131003     -2.68022142990029     -1.02742605925883
  H   0.54800148384692     -1.80844931483992     -1.61923291022292
  H   -0.13376353127817     -2.78740790422949     -2.94440099102978
  C   -5.56262873110031     -3.15683419637533     -2.20827104040467
  H   -7.01954836138285     -2.87329728958716     -0.68689682017874
  C   -6.31217047345481     -3.96424649252380     -3.17651898888333
  H   -4.53441974906178     -2.91945812678085     -2.50255853260159
  C   -7.66442330212130     -4.33038303066936     -3.01683755112648
  C   -8.33653954261097     -5.09772952439326     -3.95888183344275
  C   -7.68731803712808     -5.55354402670944     -5.13801338445577
  C   -6.32752265799023     -5.18795412190650     -5.30295768904061
  C   -5.67356164936818     -4.41732327220814     -4.34659650279846
  H   -8.21482390059323     -4.00560630073415     -2.13003544870999
  H   -9.38185530594882     -5.34514798401351     -3.77645535862177
  H   -5.77191448303250     -5.50795923646559     -6.18388469369858
  H   -4.62318687643745     -4.15768975978183     -4.51077486549770
  N   -8.35262377685945     -6.31687807343670     -6.07736252553500
  C   -9.73385362631788     -6.69727721612843     -5.86057043164489
  H   -9.86421361548430     -7.29953815412598     -4.94154452961674
  H   -10.08256418247931     -7.30198900935777     -6.70784344113760
  H   -10.40128270185309     -5.81904888871495     -5.77901338098963
  C   -7.65680304066273     -6.77808811131285     -7.26128057871930
  H   -7.27286510668627     -5.93925927113081     -7.87119396658514
  H   -8.34729168649229     -7.35648340741443     -7.88883950339132
  H   -6.79703508166743     -7.43048594313720     -7.01635887924035
  H   0.68167651834597     -0.57358518737783     -3.80118946366541
  H   -0.40542554170409      0.27884097762021     -2.66756371734040
  H   -1.09070018108582     -0.69867373747106     -3.99325227706835
  O   -8.03320465611526      1.31991126760415      1.24980022506668
  C   -8.23022234083370      2.49919495203670      1.91457867258509
  C   -8.63132882727705      3.57461168881228      0.93529098368008
  H   -7.80737451858437      3.76347003146205      0.22875300467659
  H   -8.86799884028231      4.49588907208376      1.48112998892590
  H   -9.49866812015921      3.24540049463085      0.34304207797444
  O   -8.08938374961644      2.64046892969858      3.09752974624839
  N   -0.31807416780933     -5.99415214364007      0.74189489354174
  O   -0.66644009622128     -6.83756172978026      1.55567078724006
  O   0.76096505737244     -5.99227264427127      0.16472668458419
  H   -9.15439966574853      0.32059793007142      3.49011442260656
