70
Coordinates from ORCA-job 747_0.0
  C   3.15897248380181      0.59393216569216      1.12207553817357
  C   3.60004172085695     -0.72842885017741      0.51695958890957
  O   2.43679980339407     -1.61434212677939      0.42887299296706
  C   1.21526595689799     -1.11825776912969      0.10893513508521
  C   0.86397152096325      0.20191295717095      0.38343152821140
  C   1.88411217406086      1.01312060508025      1.03773711612414
  C   -0.46003391025450      0.65890972693195      0.06737271072871
  C   -1.39233518498829     -0.27125246812023     -0.50423358252338
  C   -0.98174260742338     -1.61204886963206     -0.74952473331801
  C   0.29396992605406     -2.04582428340426     -0.45769439896975
  C   -0.89821127080053      1.99429386128980      0.29301962438229
  C   -2.18508611428720      2.38731642428194     -0.02030239337392
  C   -3.10378062403355      1.46649407472708     -0.57962308189696
  C   -2.70932376564460      0.16563037325066     -0.81623779790985
  H   -1.69243586317826     -2.31258929034180     -1.19060006816145
  H   -0.20692543362092      2.72613500424876      0.71477871874683
  H   -2.49641419025010      3.41929212998291      0.16340672579322
  H   -4.11932434013679      1.78886125156891     -0.82385889827980
  H   -3.40851006615524     -0.55494192779490     -1.25056548818427
  O   -0.26080932961921     -4.19972326384722     -1.35933944429134
  C   0.02307813904626     -5.48188883158388     -1.67317693405969
  C   -1.15187399118036     -6.14461860748935     -2.35156618098008
  H   -2.03453215886681     -6.11246285877368     -1.69388247908562
  H   -0.89902297311012     -7.18452553482947     -2.59108486138333
  H   -1.41187462710401     -5.59814549239700     -3.27171361954764
  O   1.08304157351961     -6.00309926848949     -1.43297239991380
  H   1.60102933574244      1.96411949311896      1.49405692141420
  H   3.91080835613921      1.18788862758040      1.64385406667040
  C   4.58465966942447     -1.41736478421020      1.48887045541067
  C   4.17573057533293     -2.53378680598249      2.19725595560490
  H   3.17384921580637     -2.92473219565761      2.02913693375014
  C   5.01860151677677     -3.17687016716535      3.13593571857929
  H   4.65167727688262     -4.05990349619083      3.66577651485112
  C   6.28008845884466     -2.68958243685379      3.38130322020796
  H   6.93715994642606     -3.17318366758567      4.10967151904072
  C   6.75166475905244     -1.53941236128057      2.68976404959946
  C   5.90626217271065     -0.88645287666077      1.72248903847928
  C   4.15312242621630     -0.61157121080925     -0.91069769638432
  C   3.92599418376553      0.50493995203543     -1.72406693954970
  H   3.38853246208260      1.36655159920717     -1.32200451623777
  C   4.37396616071373      0.55551188497928     -3.04476644745167
  H   4.16883321650714      1.45479188211935     -3.62442110878666
  C   5.07749392364292     -0.52789850703750     -3.62632472544248
  C   5.28004702794823     -1.66841646635296     -2.80416791824771
  H   5.79167274008718     -2.54822840738091     -3.19318696571720
  C   4.83275227414255     -1.69704626544095     -1.48853593029639
  H   5.01581726089845     -2.59506134400584     -0.89280671238728
  N   5.54690747459587     -0.46324390715727     -4.92814332773920
  C   6.21379213535949     -1.59388530163849     -5.56010555042029
  C   5.27006976725086     -2.63815737617799     -6.16807820597830
  H   4.60975691601719     -3.07629742386758     -5.40334742551671
  H   5.84545424693626     -3.45675197907608     -6.63152115598906
  H   4.63192245244368     -2.19035740579733     -6.94740660322453
  C   0.77382029675887     -3.44997007857189     -0.71665005164948
  H   1.06499087745557     -3.95298128568921      0.22153471910906
  H   1.67913260549486     -3.44491786163662     -1.34609251150183
  H   6.87471000461028     -1.19317716466524     -6.34635848933111
  H   6.88615482075570     -2.07167252248234     -4.82978597652284
  C   6.43951900133529      0.25881254179287      1.05656873789386
  C   7.70685161181181      0.73256417288686      1.33160892401656
  C   8.52762537341762      0.08813889043004      2.28735875833370
  C   8.05474205548600     -1.02559299311629      2.94624643796945
  H   5.84608050836857      0.76679413950161      0.29892892023435
  H   8.08075129739584      1.61094295571330      0.79855670470412
  H   9.53012677243822      0.47116567952821      2.49589640457143
  H   8.67794475890627     -1.53846527414201      3.68460223568388
  C   5.21800564343912      0.68201918601534     -5.75285460097428
  H   5.66755173800413      0.55390157490085     -6.74697982826218
  H   5.61254066252446      1.62299376963846     -5.32748160939834
  H   4.12755917210938      0.81278608574951     -5.89068525635820
