76
Coordinates from ORCA-job 749_0.0
  C   -7.29114861258138     -2.88844442350609      2.73939777688760
  C   -6.43306179291606     -1.78342538715838      2.70652342195446
  C   -5.64648341940221     -1.53955078105405      1.56113619972032
  C   -5.74911234782723     -2.40341141889109      0.46295351097800
  H   -5.11088583998280     -2.21884427974772     -0.40505880268621
  C   -6.62627444804412     -3.50281559083510      0.46299042112799
  C   -7.38855511724489     -3.72623268041372      1.63032495887153
  H   -4.84292548544819      0.11445460014915      7.97493552051344
  C   -5.67374977725634      0.64653072949819      7.50776553512923
  C   -6.66718495376109      1.23218078849549      8.30283200853826
  H   -6.57755447272166      1.16018696668651      9.39004828076583
  C   -7.76885628617065      1.91102751257800      7.74901167983351
  C   -7.84980390775107      2.00581272894301      6.33532367702011
  H   -8.70881478953846      2.50135558409972      5.87634948858934
  C   -6.86576351026025      1.44482373210457      5.54139480913850
  C   -5.77882360869546      0.76323991305149      6.11997539212335
  C   -4.72800217163725     -0.41136600630576      1.62035466785625
  C   -4.70008869487205      0.41029275179665      2.68393955722063
  C   -5.63132597709506      0.26734668819452      3.85892153768596
  O   -6.37052316057880     -0.99125309154488      3.80204881405222
  C   -6.68733888011668      1.44769675681336      4.02950303190170
  N   -4.92576546150271      0.27745482853270      5.12852641697147
  C   -7.97401281165092      1.18932282058145      3.23752500985982
  H   -8.49066542556786      0.28526720992863      3.58480473474817
  H   -7.75818715777253      1.07755737247407      2.16236659005677
  H   -8.66258279823738      2.04251689727174      3.34695690665039
  C   -6.07665639801950      2.80161398708282      3.60238977455195
  H   -5.12275796374842      2.99784874920079      4.11563880396382
  H   -6.76996940409756      3.61438306860694      3.86771088406650
  H   -5.90661709028126      2.84245081469646      2.51455043466710
  C   -3.92609906234866     -0.72744046876859      5.42063475084940
  H   -4.04242042055481     -0.25199921350771      0.78238631367091
  H   -3.99162891042826      1.23825211827214      2.73591285216083
  H   -3.34232127576441     -0.93650174765902      4.51288010428521
  H   -4.36829818586293     -1.67707664428050      5.77805282283702
  H   -3.23017466544735     -0.35630728088211      6.18975084683136
  C   -8.81245334802841      2.50623148233943      8.59383982750253
  C   -9.68860171456306      3.53072265080943      8.28723176880769
  C   -6.74181769851502     -4.37127414169366     -0.71744130333210
  S   -7.29405218345113     -6.03002851522652     -0.58069934625642
  C   -6.46244589207522     -4.08344574794843     -2.03680688081841
  C   -7.15580290644733     -6.30984879774721     -2.29922139566140
  C   -6.69559359367004     -5.17555474982999     -2.92561171235668
  H   -6.53448377857269     -5.11317540538622     -4.00269693356172
  H   -6.12491606895033     -3.10078076539097     -2.37081894978874
  C   -10.58639277956761      3.84203382606407      9.35652599303216
  H   -7.88669723945564     -3.06640576809842      3.63718703977764
  H   -8.08877679116859     -4.56495828196457      1.66300178718493
  C   -7.52424843659161     -7.65031100676778     -2.87899241307958
  C   -7.36220193601962     -7.75447729752536     -4.39965430895138
  H   -8.57116061857428     -7.88780773785598     -2.61094301562789
  H   -6.91560284734726     -8.43837177021281     -2.39647843373169
  C   -7.76209067993282     -9.12695123759324     -4.94418379720634
  H   -6.31362657698284     -7.53956929870445     -4.67085944102823
  H   -7.97098167113526     -6.97194047284384     -4.88552329665233
  H   -7.15107943258430     -9.93060922363417     -4.49948024620315
  H   -7.63280453689251     -9.17782309977732     -6.03710029066283
  H   -8.81849467705026     -9.35543333258617     -4.72322208644986
  C   -10.41214388207917      3.05555908815246     10.47924443158535
  S   -9.11908582114158      1.92105858489176     10.21099060749645
  O   -11.54207274748785      4.81281933505899      9.35377226491020
  C   -11.75281224830543      5.53972740138830      8.16617661174358
  H   -12.03820451061390      4.88203843726627      7.32391399640930
  H   -10.85855384577400      6.12057045802785      7.87236260891370
  H   -12.57688706879337      6.23973128975675      8.36363848877378
  H   -9.66355725599329      4.05947048452790      7.33529702347195
  C   -11.14874905356739      3.15271294637604     11.78238630901671
  C   -10.53082032700788      4.14135142719470     12.79171005200975
  H   -11.21825243930732      2.15419294865471     12.24972862053209
  H   -12.18418836396912      3.46588228333209     11.56280981601415
  C   -11.30285418224638      4.20958688415141     14.10975912843067
  H   -10.49018853201460      5.14042776303625     12.32472353865935
  H   -9.48289782246654      3.85021359402751     12.98302562911188
  H   -12.34891770152982      4.52076123844592     13.94692255591322
  H   -10.84691273210733      4.92990722754124     14.80828230299621
  H   -11.32693177283226      3.22790969524042     14.61336471568234
