54
Coordinates from ORCA-job 74_0.0
  C   -1.24278998452662      1.27648725437715      2.40870811619482
  C   -2.21895482677812      0.36688413718922      1.94779048811561
  C   -1.94399204356902     -0.46982315688336      0.84314863676244
  C   -0.70269740015262     -0.37625112591851      0.20223217843123
  H   -0.46122289384034     -1.00124669998080     -0.65778095248326
  C   0.24052755922347      0.53518097750290      0.67200183295257
  C   -0.01294770969845      1.36340930652115      1.77272007793207
  H   0.74455396261696      2.06499374256891      2.11928405470533
  H   -4.25303934340362     -1.76733264580577      6.45105074503282
  C   -4.92633796605598     -1.03298773997580      6.00690125511597
  C   -5.67995092996770     -0.18050628359051      6.82841981767579
  H   -5.60778479538248     -0.25381901105280      7.91576545308739
  C   -6.49950241233543      0.79555907351092      6.26811344844457
  C   -6.62700784255850      0.93166711999238      4.87742191300460
  H   -7.27801070299397      1.70662626928937      4.46661340493721
  C   -5.88624397638811      0.08894381598631      4.06438684401973
  C   -5.02774463208093     -0.87549764486283      4.62413238134053
  C   -3.00541345730942     -1.38282138913335      0.43984566320089
  C   -4.14053640490573     -1.49855919823844      1.15380816643852
  C   -4.39041936614308     -0.72497359419093      2.41789812209628
  O   -3.40601321438797      0.36826776686931      2.55591682365297
  C   -5.79631685336951     -0.00973615553652      2.54724627957355
  N   -4.32968267382219     -1.54320756107509      3.60982976373328
  C   -6.92857671433046     -0.92989531745106      2.03695979845367
  H   -6.86902900889082     -1.93333361122432      2.48469146494209
  H   -6.90479926046814     -1.02870622464444      0.93981172145549
  H   -7.90145573460995     -0.49564796104861      2.31242669403410
  C   -5.85067168267361      1.33540272296882      1.81571486338700
  H   -5.12321507215158      2.05025990718904      2.22115461822927
  H   -6.85736673670832      1.77315645795073      1.90954194174835
  H   -5.64806557091386      1.20479918603356      0.74011114733637
  C   -3.16245010896964     -2.35012947894503      3.92126768265099
  H   -2.78123204455475     -2.81116712989607      2.99961422764125
  H   -3.44892153229425     -3.16535499041912      4.60447521798442
  H   -2.35866368746278     -1.75446062070120      4.38900587045879
  N   1.54089372537278      0.63623057258119     -0.00703673388228
  O   1.73564542287356     -0.09123907601657     -0.97011086711037
  O   2.34887221547000      1.44093331047248      0.43235989224170
  O   -1.54219113469960      2.13133646362256      3.44953417295610
  C   -1.72340775435782      1.60282416880553      4.70947874270443
  C   -2.20890507613980      2.65163206563186      5.66886979847893
  H   -1.90233350715690      3.65790673503508      5.35447247334366
  H   -1.82875395298813      2.42257502948522      6.67329116969145
  H   -3.31130164956847      2.62260587768798      5.71690162097477
  O   -1.51027830122440      0.44838469468467      4.96134150194861
  O   -7.21119087027333      1.65659187263131      7.10834667867352
  C   -6.65528114095821      2.86878017960311      7.39763329762851
  C   -7.56008619180413      3.65672287036871      8.31031837240789
  H   -8.54722193591240      3.78549307490393      7.83987907858190
  H   -7.11038431000723      4.63419233992070      8.52199255095004
  H   -7.71913507366940      3.10156777124218      9.24799521556194
  O   -5.59217816814688      3.23472255498835      6.97070326357296
  H   -2.85296862249365     -1.98878989343418     -0.45781417747984
  H   -4.91204861245824     -2.21162080958942      0.86123418646908
