54
Coordinates from ORCA-job 74_4.6
  C   1.51875703884192      0.82740733557261      1.49180579536015
  C   0.41090354318987      0.61244224802044      2.60931183306338
  C   -1.11162478988458      0.73830167907623      2.15768623489787
  C   -1.29659718733511      1.06414972029682      0.77335183901819
  H   -2.30403843632174      1.18700279562767      0.37330829477031
  C   -0.27034434335020      1.22749607683028     -0.11578001616288
  C   1.11345698156698      1.12048718113214      0.22865888211169
  H   1.82868744347284      1.28403216052636     -0.57523288566655
  H   -6.38293738685414     -0.54226696985482      8.12163636989308
  C   -6.90831225950349     -0.25335241924891      7.20956911003102
  C   -8.31517594527801     -0.18923434659372      7.26202467443400
  H   -8.81370393812359     -0.42908703164695      8.19728780472532
  C   -9.08797161781104      0.16373549728891      6.13747148583169
  C   -8.35636306156727      0.45633604104380      4.92941476802440
  H   -8.92611682851849      0.73070014661317      4.03677071308350
  C   -6.92804561487568      0.38569865073281      4.87188934512101
  C   -6.21550783417471      0.03231995613894      6.02424260532080
  C   -2.41550368194421      0.62886343851665      2.82500246631549
  C   -3.06059989331106      0.28190058940399      4.06908579693389
  C   -4.45641578646890      0.33059734096119      4.47605188341128
  O   0.70230216230378      0.40264003693627      3.76978078939933
  C   -5.84112393124319      0.61786083500104      3.74450490620337
  N   -4.80808441503403      0.01922590798004      5.77284856622695
  C   -6.04077551648261     -0.38953585830108      2.59072013922975
  H   -5.99094053516175     -1.42771227128436      2.95220751812956
  H   -5.27131757568726     -0.25993586499914      1.81453611615821
  H   -7.02678684590951     -0.23778975485892      2.12368703217272
  C   -5.88860166263144      2.06733594808560      3.22170943822800
  H   -5.73568764230791      2.79310747905881      4.03490992626545
  H   -6.86908447902401      2.27048585253274      2.76269190258503
  H   -5.11470237252774      2.23913046451823      2.45802780826101
  C   -3.84262908436857     -0.31357263090818      6.80902033994054
  H   -3.06139010222667      0.45938313326945      6.86793902961455
  H   -3.35918695094430     -1.28340555572650      6.60584257320051
  H   -4.34703578690676     -0.36700831824506      7.77955408431709
  N   -0.60216709511791      1.56418177956842     -1.50304503787332
  O   -1.78519998906816      1.64152325498917     -1.81724191922295
  O   0.32622304775009      1.75510363326385     -2.27931415144340
  O   2.94615775419988      0.84983713601959      1.75827332168774
  C   3.91628729064443      0.37857322906285      0.80641801546974
  C   5.50596988697445      0.80362298197376      0.85554706837910
  H   5.63022108863021      1.60051135141114      0.10835771358215
  H   6.03983552275441     -0.09945070992307      0.54064968912894
  H   5.83302391131129      1.15718905587245      1.84231910315820
  O   3.58142549359086     -0.34888588580231     -0.08204724197721
  O   -10.54348242409391      0.23798831524860      6.13736702118712
  C   -11.42194598774282     -0.06540178589335      7.21905503823438
  C   -13.05930192546108      0.07795320428881      7.10811204824669
  H   -13.40012461571266      0.52647058387286      6.16610313098101
  H   -13.34201820916485      0.68766779923446      7.97460480569946
  H   -13.45192666141931     -0.94118026847383      7.22156805524906
  O   -10.99481112368932     -0.41705377492897      8.28316655163662
  H   -3.16936076830359      0.89658426072295      2.07576494804369
  H   -2.38453685967532     -0.01594365400454      4.87242466937939
