85
Coordinates from ORCA-job 751_0.0
  C   -7.83494101774085     -2.82111426234069      2.14052521654753
  C   -6.88489930663948     -1.80243724616946      2.28222959608678
  C   -5.98667477430239     -1.53092033796297      1.22961705033064
  C   -6.07101703331633     -2.28019600974267      0.04704422558404
  H   -5.34931969589598     -2.07328544686112     -0.74809795083154
  C   -7.02324209995891     -3.29884153832450     -0.12247668710267
  C   -7.89947616956569     -3.55103666376741      0.95488524583800
  H   -5.35839552413558     -0.95147877550203      7.77256979968336
  C   -6.08349406022388     -0.22956906006334      7.39172102105913
  C   -7.02461716645309      0.35182997006883      8.25696910314119
  H   -7.01015671459153      0.07085234729297      9.31479965952603
  C   -7.99140045150203      1.26185459375153      7.80815641512242
  C   -8.00282870270646      1.59916670481934      6.43589337161136
  H   -8.75666565863608      2.29960681081927      6.06133864104827
  C   -7.07671770285236      1.04012720427439      5.56843718406814
  C   -6.11713622508860      0.12883392754336      6.04332021358094
  C   -4.98738521758861     -0.49947256120084      1.46501206458323
  C   -4.95565571245922      0.19289482738006      2.61711412728480
  C   -5.94759474388820     -0.00749219943411      3.73184595339853
  O   -6.85855279061163     -1.11502216955953      3.44634413374901
  C   -6.84069967222748      1.26412802881942      4.08099610467398
  N   -5.29705182840527     -0.30451066059442      4.99634636552883
  C   -8.11967948611899      1.31985762499205      3.23806750092662
  H   -8.76329265280719      0.44974824719679      3.42096027472438
  H   -7.88041916211211      1.35786372778472      2.16253375427340
  H   -8.69145331899085      2.23000045511628      3.48047251833208
  C   -6.03862024608844      2.57173996264534      3.89431137826618
  H   -5.08599788012826      2.54615558079377      4.44529954835432
  H   -6.62548771395366      3.41805329943885      4.28295123589473
  H   -5.82535934393191      2.76710292131933      2.83099268159088
  C   -4.46955920411506     -1.48321212202515      5.13309620074354
  H   -4.24267740431382     -0.30699756471295      0.68642932715957
  H   -4.18238195820835      0.94004037705403      2.79998372371651
  H   -3.89371465776573     -1.63461919597995      4.20883734653866
  H   -5.05989229562283     -2.39891598533513      5.33098027141869
  H   -3.75084169055868     -1.34917274646127      5.95749167265743
  C   -8.97831527096184      1.89431031120835      8.76668427596032
  C   -8.55837626813710      3.28803602972475      9.27045469651578
  C   -7.10587366506249     -4.08116108270338     -1.38364141640240
  C   -7.42263012368696     -5.45791248681930     -1.36153796831519
  C   -6.87501924951373     -3.46822586033163     -2.63344407475662
  C   -7.50638532034984     -6.17949378602445     -2.54690708226742
  C   -7.27375022637410     -5.54810177378918     -3.78793620601861
  C   -6.95411808554641     -4.18690353505799     -3.82855794167063
  H   -7.57829005752703     -5.95616677675536     -0.40079289310174
  H   -6.77919087255622     -3.68035782129830     -4.78172527859364
  H   -6.65686175343476     -2.39810228506265     -2.66986095675191
  H   -8.23353275433337     -9.86048060272472     -4.59196364723248
  C   -7.97952647614021     -8.90777823213820     -5.06181230064665
  C   -7.76130125079685     -7.78187866335983     -4.26817825750742
  C   -7.87671761649664     -8.81909034315776     -6.46163928393995
  C   -7.43573147390848     -6.54344766833937     -4.85492070861935
  C   -7.54863437494963     -7.57163100553940     -7.03101832724402
  C   -7.32754581419881     -6.43868617108184     -6.24732134289165
  H   -7.46743989967235     -7.49258111605056     -8.11986593739836
  H   -7.07685993410149     -5.48526756656798     -6.72063387475432
  C   -7.82760977381578     -7.66382788873356     -2.74300617085668
  C   -9.23610086904824     -8.00911107426129     -2.21212756331300
  H   -10.00453301583191     -7.37999696922488     -2.68723422219990
  H   -9.29259222414737     -7.85511877317113     -1.12203897336501
  H   -9.48353552873745     -9.06411262377613     -2.41475821128058
  C   -6.76948149631602     -8.56237677983797     -2.06510301129570
  H   -5.75752275229565     -8.32726904230540     -2.42924349126894
  H   -6.97014134262861     -9.62623928383438     -2.27261935330152
  H   -6.78115393928272     -8.42510679728004     -0.97141825328951
  C   -8.10519619558808    -10.00681892762982     -7.38207158417605
  C   -8.49747884849951    -11.33345808348571     -6.72700674560143
  H   -7.18885865046765    -10.16379855457675     -7.98234479374878
  H   -8.88278575904253     -9.73007751682964     -8.11879571213410
  C   -8.71762925660976    -12.45318078560857     -7.74628604924351
  H   -9.41701719788314    -11.19404119691891     -6.13125539655779
  H   -7.71421591999687    -11.63946600578892     -6.01098437117940
  H   -9.52193871514194    -12.19671541714576     -8.45650775232071
  H   -8.99758610317279    -13.39792655609410     -7.25327743522206
  H   -7.80553831996198    -12.64345066335241     -8.33706283424762
  H   -9.12204034463255      1.22991500147031      9.63687505003847
  H   -9.96678365873052      1.97741466547126      8.27926329027821
  C   -9.56434868868057      3.90771257527793     10.24186610425795
  H   -8.41615797671528      3.95662554723412      8.40252102273975
  H   -7.56788559656146      3.20983644276517      9.75298051198748
  H   -10.55552879495358      4.02775502834477      9.77181138932204
  H   -9.23631608010586      4.90252538776339     10.58475998147266
  H   -9.70039384282538      3.27576835271494     11.13622017278186
  H   -8.52405564084148     -3.01648376769052      2.96491381005638
  H   -8.66987369623095     -4.31900792269974      0.85190082819475
