63
Coordinates from ORCA-job 755_0.0
  C   -7.78522282757850     -2.80019850577112      3.84306478922479
  C   -7.21346594949696     -1.50750748263276      3.85448548945312
  C   -6.41769590454767     -1.05196338484353      2.77514939801638
  C   -6.17370418285567     -1.89956973160340      1.69106217613821
  H   -5.56394319639482     -1.57682940489083      0.84690199993605
  C   -6.72318744451999     -3.17895451050004      1.69553712531623
  C   -7.52286596906239     -3.62999321335692      2.74779640703941
  H   -5.25869275308769     -0.26948823415074      8.98343111040268
  C   -6.20047391624599      0.24611236818250      8.78775157171358
  C   -7.05810583459303      0.57718209420414      9.84284353276844
  H   -6.78105658473759      0.32209355712267     10.86678955492105
  C   -8.27907458578243      1.23013902454258      9.61175091361151
  C   -8.65341141879057      1.56559827799711      8.29001184076286
  H   -9.60650405318826      2.07673942137780      8.13557121698744
  C   -7.81174590191256      1.24650304217131      7.24154190538705
  C   -6.58748008547323      0.59184566995615      7.48705831473159
  C   -5.89003835972392      0.30096060024556      2.85682606637558
  C   -6.07646630484538      1.06134708837473      3.94856975464420
  C   -6.80347091944320      0.57278769276766      5.16965358821782
  O   -7.48019923703963     -0.70444371443127      4.90571193856691
  C   -7.91066498515465      1.55568466226976      5.75370574524563
  N   -5.90548842372825      0.38069988094744      6.29683035920852
  C   -9.29759920060679      1.31233643911555      5.14585298912460
  H   -9.67106358511993      0.30344541961766      5.36206334056160
  H   -9.27675778955012      1.44853563769197      4.05242346659378
  H   -10.01525487520614      2.03967630110416      5.55675991053169
  C   -7.51069302759032      3.03395157553174      5.53842542009507
  H   -6.49704077577576      3.24223898149228      5.91363639177024
  H   -8.20844596939892      3.67924821097157      6.09267880566105
  H   -7.56143505015023      3.31721853615347      4.47510192569184
  C   -4.74055990348828     -0.47536467968499      6.21751314054046
  H   -5.32458163770242      0.68712139174066      2.00388986114297
  H   -5.64890503718966      2.06189127926167      4.00952229927609
  N   -6.45918367334116     -4.07268437962383      0.55553248265685
  O   -6.97215304300266     -5.18030857881342      0.57069093719267
  O   -5.73916266132802     -3.64944732852107     -0.33811208233719
  H   -7.93337952726059     -4.63948253157592      2.71709023896982
  C   -8.67559289524675     -3.27916624534608      4.97518940859416
  C   -8.13654304986514     -4.55414392059078      5.64211439668270
  H   -9.65352376818223     -3.56757071776979      4.55702564516124
  H   -8.84526191026867     -2.46850803891665      5.68914897706424
  C   -7.50183716834739     -4.51481544241617      7.00376490764761
  C   -7.06212322869774     -5.86762352811639      7.52089512571153
  C   -7.34539208295638     -3.36169268413179      7.67968748630886
  H   -4.32149439424856     -0.43248462470882      5.20298188248070
  H   -4.97259652760135     -1.53005316801994      6.45846056137057
  H   -3.96379733607087     -0.12405381933108      6.91521060778884
  O   -8.22168837129111     -5.61181880144175      5.04486711030328
  H   -7.66576226818443     -2.39830991502674      7.28085480904738
  H   -6.87908212199309     -3.33751255827235      8.66733772548619
  C   -6.41497742867868     -5.88901163020812      8.90248320237888
  H   -6.38146879835628     -6.30779995333565      6.77102609142447
  H   -7.94102642303774     -6.53600876623250      7.50093256034558
  H   -5.49494859838474     -5.28200581806996      8.93691720701960
  H   -6.13942893782214     -6.91866717504657      9.17880647910371
  H   -7.09602347876449     -5.50958524052984      9.68219137204358
  C   -9.21004923580118      1.59977010767782     10.70948613204804
  O   -8.76051537478035      1.22228153909366     11.92678593925342
  C   -9.59584875327171      1.55007743759023     13.03405687761572
  H   -9.74193916487408      2.63901189163556     13.10854194576240
  H   -9.08225966782483      1.17395144920123     13.92819404561864
  H   -10.58512674334367      1.07650034705486     12.93546809120272
  O   -10.26218767719237      2.18030780281740     10.55292748639473
