60
Coordinates from ORCA-job 756_0.0
  C   -7.77124248866793     -3.25695467807804      4.32153870437937
  C   -7.42633464083005     -1.88043604562225      4.34561953930274
  C   -6.48335974385115     -1.36585373965867      3.41502799149735
  C   -5.92801036847772     -2.22474748703935      2.45585848010687
  H   -5.20670772946792     -1.85749332313213      1.72525745402456
  C   -6.29528712388022     -3.56528060163262      2.43480811189690
  C   -7.20520112497437     -4.08775846057600      3.35532748003906
  H   -5.62796915965395      0.14562762623183      9.60396332756027
  C   -6.50933390502726      0.73163176197008      9.33475424957439
  C   -7.34211541661098      1.26678181974123     10.32939710366951
  H   -7.08835792315247      1.09343903336262     11.37877389070229
  C   -8.48881302261209      1.99941099122784     10.00691218552912
  C   -8.81852124309093      2.23334053902917      8.66097875847286
  H   -9.70396993298583      2.82284648291786      8.40642445976644
  C   -8.00158059586384      1.71318386243930      7.66455568829776
  C   -6.86557168317026      0.95685988612525      8.00050149852416
  C   -6.06609728186810      0.03066288290766      3.44821204890277
  C   -6.33247615931926      0.92953558833569      4.41488504024336
  C   -7.08584118305932      0.70214260371997      5.69340417134191
  S   -8.25530015437976     -0.83189548273693      5.48546134148302
  C   -8.02204637975901      1.91364290469595      6.15539620484500
  N   -6.21969943283150      0.52303852561336      6.83547293735410
  C   -9.41792083482303      1.94844245741975      5.52226360805780
  H   -10.04646692026002      1.10133888422419      5.82786731679005
  H   -9.35249548564081      1.94739652018963      4.42289158402834
  H   -9.93352803934898      2.87375590217658      5.82541539343092
  C   -7.31907682872951      3.26564450976692      5.86299925328267
  H   -6.27948628231720      3.27132490651208      6.22272678015094
  H   -7.85836294020232      4.06631661356786      6.39050424538460
  H   -7.32692892564053      3.50689306852705      4.78814930004051
  C   -5.04807630690018     -0.33147319184508      6.87047546538685
  H   -5.44287372196225      0.35740426693514      2.60988500210133
  H   -5.89117346175994      1.92342992117506      4.31520482509233
  N   -5.70637531698932     -4.45749473008275      1.42292498485678
  O   -6.04524057464039     -5.63168310576470      1.43720304324225
  O   -4.91377235124062     -3.97097375339993      0.62984191442482
  H   -7.45800261100801     -5.14617483719360      3.31341945999611
  H   -9.12734582248864      2.39381318261317     10.80111077326419
  C   -5.29368089314689     -1.77523087355441      7.34796050453460
  H   -4.31496803652031      0.13251933685314      7.55020457543208
  H   -4.59308336269815     -0.34887241439653      5.86952517733199
  O   -4.03319118303621     -2.44389833187323      7.51471077047024
  H   -5.84319879381174     -2.37478165231480      6.61464083046853
  H   -5.84651203264335     -1.79020759317707      8.29678327469257
  C   -3.38202851529446     -2.26897492719055      8.68117549989678
  C   -2.11418390051462     -3.08579229918483      8.72079274137091
  H   -2.36389818547088     -4.15691145591973      8.66140089490502
  H   -1.56965310181716     -2.87909192671362      9.65001719522111
  H   -1.48549199437899     -2.85102860057417      7.84820462279371
  O   -3.77850890543999     -1.55315450473182      9.57106756309839
  C   -8.75864425096149     -3.82791373038358      5.31933190090149
  O   -8.58907244486420     -5.23444155508271      5.51250233252139
  H   -9.79235193118613     -3.70860136046827      4.95678239543266
  H   -8.66622495180271     -3.30457752426263      6.28229308810058
  C   -7.64803383608082     -5.61835749560000      6.41235344776080
  C   -7.56707435568190     -7.12065628722792      6.50039836155376
  H   -8.57277159102914     -7.55997702812287      6.57123852861294
  H   -6.95679605737409     -7.40525614054262      7.36613448640121
  H   -7.10043354113036     -7.51353208205362      5.58219820427539
  O   -6.97255501762952     -4.83870685814108      7.03564998717862
