62
Coordinates from ORCA-job 757_0.0
  C   -7.75046385430205     -3.00866137336994      4.47797017641396
  C   -7.16926218550446     -1.69711963910017      4.38295353736472
  C   -6.71921548701448     -1.20380543438369      3.15315353736291
  C   -6.98880021953657     -1.92714463331443      1.96545443541312
  C   -7.69651570270366     -3.10564437968432      2.00212303494251
  C   -8.09385801312529     -3.67488696983983      3.24578494624521
  H   -5.44176299646817      0.43911860861636      9.59505766947130
  C   -6.36956047419881      0.84910220724545      9.19305792140617
  C   -7.37183966053330      1.30777946705495     10.06430577808183
  H   -7.17998576037182      1.25197370168766     11.13747483099550
  C   -8.59554618309191      1.80779231875997      9.60030306331034
  C   -8.80670916173860      1.84662207511736      8.20222669063133
  H   -9.75452473193147      2.23535227484955      7.81400397477824
  C   -7.82581212672284      1.40220293333142      7.32970429393650
  C   -6.60656901289256      0.90602421804416      7.82219737952218
  C   -5.91275988535541      0.00703047699370      3.17958438002388
  C   -5.75929745812051      0.72435157044397      4.30551276496297
  C   -6.53944811537376      0.42393440180065      5.55447965145529
  O   -7.05226462301997     -0.96965216187526      5.50809453762517
  C   -7.76225240891011      1.41469454416251      5.80979622255215
  N   -5.76770372732789      0.53139536450697      6.76412131945352
  C   -9.04867650036596      0.96989610174806      5.10644566245048
  H   -9.39496885188778     -0.01007323551717      5.45958126989483
  H   -8.90725015199957      0.91629233923985      4.01495202572212
  H   -9.85086901664589      1.70042312275223      5.29768435110538
  C   -7.39905707816415      2.84505592963277      5.34564946696462
  H   -6.45370492548290      3.18737153972006      5.79309185189610
  H   -8.19001957392581      3.54081640760604      5.66497810015338
  H   -7.31304780391982      2.90621402899008      4.24909396965830
  C   -4.61705980836358     -0.32303311395632      6.98671942783258
  H   -5.38266000092677      0.29230718920002      2.26569207940188
  H   -5.09998131647544      1.59265180629083      4.34276707244769
  H   -4.09574123861182     -0.48898201304725      6.03282442789181
  H   -4.89999628578741     -1.30375142254517      7.41090146452518
  H   -3.91058078122265      0.16850495215771      7.67472983998928
  C   -9.69938957081787      2.30188531414124     10.52192333615853
  C   -9.41290354125257      2.28111403056474     12.02547464791413
  C   -10.58254717204786      2.80908294703196     12.85907852475168
  H   -10.82770929343812      3.85174942472630     12.59386973020034
  H   -10.35312002525191      2.78563991819060     13.93661190968245
  H   -11.49363207003366      2.20724746133384     12.70019230996373
  H   -8.51058306274802      2.88184012469469     12.23750405270986
  H   -9.17336060516050      1.25080468382849     12.34273583716875
  H   -10.61320185913893      1.70752106378842     10.32922220295953
  H   -9.96648951551647      3.33510122942988     10.22816695489742
  H   -6.62927144632221     -1.52751315154445      1.01312577852838
  H   -7.89296573443982     -3.63223948665726      1.06466109153406
  C   -7.96686290868703     -3.71022801598546      5.70701770990967
  C   -8.57570949085543     -4.95091624846951      5.70860824575693
  C   -9.02686650205258     -5.54457277021878      4.51396874117064
  C   -8.78738409066728     -4.92815055577700      3.29985050531365
  H   -8.68002999650096     -5.48169288631784      6.65757797094429
  H   -9.53605979584964     -6.51009316584109      4.52312082109118
  O   -7.39448245534220     -3.25281756710115      6.87894582852689
  C   -8.07456451536680     -2.65158205281322      7.90558875177672
  O   -7.46536627978893     -2.37644327187311      8.90048744381692
  C   -9.54676772219537     -2.38656133198427      7.69358413455650
  H   -9.70449596958995     -1.80644787113584      6.77285329659259
  H   -9.92265475846147     -1.82500433590532      8.55687954046304
  H   -10.10698619462094     -3.32763781870362      7.58685286808195
  O   -9.19872257103507     -5.56256339322103      2.17103641453121
  H   -9.17915773079445     -4.95130547749995      1.42393019511587
