57
Coordinates from ORCA-job 75_0.0
  C   -0.68706901522494      1.23182006869068      1.83215106563243
  C   -1.76735416954046      0.33016003559163      1.94718534209766
  C   -1.84056013454418     -0.79122381542944      1.09127914006421
  C   -0.86435839743840     -0.97038657009404      0.10406230103182
  H   -0.89826803176659     -1.82158032577891     -0.57642720906257
  C   0.17103639332450     -0.04524591412096     -0.00938972143542
  C   0.27740827503992      1.05394687967935      0.85151979401631
  H   1.10527653054722      1.75454660521045      0.75115497045052
  H   -3.04057518809355     -0.13522607489823      7.39016810659356
  C   -3.75528154900142      0.48113652321500      6.84038263022418
  C   -4.41667535991068      1.54612547144967      7.47338616422085
  H   -4.20665742121754      1.74610476017685      8.52776032912596
  C   -5.32565662714006      2.35336007628614      6.78345905325154
  C   -5.60032861741916      2.10355253595861      5.42707513030627
  H   -6.31110898503854      2.73518621263113      4.88623465701282
  C   -4.95663222600403      1.05102749323666      4.78863815269985
  C   -4.04059392920553      0.25031876185010      5.49176883215399
  C   -2.94265925656917     -1.71382754079706      1.32417345037779
  C   -3.81718039366967     -1.52331309003706      2.32837460886030
  C   -3.76301974585295     -0.35181599478078      3.26926793042995
  O   -2.70012733963411      0.59466472133102      2.86384686423409
  C   -5.09183118365610      0.51072853099342      3.37124659735563
  N   -3.50608128669894     -0.73201906088494      4.63873415855770
  C   -6.34164975718690     -0.39768666865121      3.30632167648724
  H   -6.28046194215335     -1.22315237692281      4.03176746440206
  H   -6.48789416976257     -0.81931115106084      2.29877999169462
  H   -7.23324246709902      0.19747633666677      3.55452181546923
  C   -5.18040371336107      1.58552202421421      2.28220148084945
  H   -4.35863258965107      2.30966476567177      2.35461792417680
  H   -6.13247991725383      2.13169992790112      2.37465503267203
  H   -5.15756503952155      1.13050113992170      1.27825368924399
  C   -2.32886060600312     -1.49968960344477      5.01280091963681
  N   1.18770699945199     -0.22960619061959     -1.05505020057804
  O   1.08584170345356     -1.21059819984438     -1.77740426317920
  O   2.07249038424433      0.60922289211471     -1.13926446542838
  O   -0.62556393480003      2.32906812814789      2.66759383547793
  C   -0.41000393116447      2.11063729350799      4.00958017053831
  C   -0.56828369758164      3.38984873758324      4.78191798103897
  H   -1.64505790744466      3.59850142852108      4.89355822586355
  H   -0.11695573790504      4.23451893604497      4.24228712684776
  H   -0.12216589397599      3.27484397706631      5.77727301356061
  O   -0.14635033402707      1.02926437871782      4.45720314194532
  C   -2.70938333022676     -2.72350005128042      5.85280708163945
  H   -1.61753276628035     -0.86403286030336      5.56574955566869
  H   -1.81142668901447     -1.83269954463950      4.10177922644180
  O   -1.53968941609574     -3.38568570078070      6.35080015406778
  H   -3.23582665519973     -3.46816855437762      5.23868490938563
  H   -3.35502532050527     -2.43095803862172      6.69311440125805
  C   -1.00234118419475     -2.90970699818489      7.49599982665979
  C   0.22714463561345     -3.69206150972322      7.88337478515279
  H   -0.00975963355478     -4.76524897755142      7.94476219677764
  H   0.60697702997819     -3.32879988839901      8.84583817875957
  H   0.99978454715859     -3.57311171317921      7.10731721493780
  O   -1.46197819152584     -1.97822502229466      8.11172722767028
  H   -5.82343224824810      3.17971620342815      7.29693573677068
  H   -3.02970897295565     -2.59067653381241      0.67639068673947
  H   -4.60944159449268     -2.24811687529524      2.51764190915182
