77
Coordinates from ORCA-job 760_0.0
  O   3.95895269995358     -2.06025514454188     -0.51639967429393
  C   2.68565646104277     -1.86211668968509     -0.95991743512397
  C   1.74384939608048     -1.38513267578580     -0.05742414677763
  C   0.43066516296338     -1.06038623391104     -0.54274184314039
  C   0.11524014011385     -1.25501651438183     -1.93388305640761
  C   1.11569303137232     -1.75983640910196     -2.80390455884242
  C   2.38147633079725     -2.06711766308046     -2.34241709025696
  C   -0.59707309137338     -0.54541290204963      0.30026351181363
  C   -1.85209289088232     -0.24416112999042     -0.19280158155346
  C   -2.15542886702180     -0.43966588024600     -1.56179512760979
  C   -1.18723530756656     -0.93543330063833     -2.40969464477516
  H   0.87741069343598     -1.90628443608908     -3.86180583328964
  H   -0.39224389113515     -0.38149287710505      1.35931313443506
  H   -2.61806110703638      0.14955062916107      0.48093549411802
  H   -3.15150436022281     -0.19719453527455     -1.94116033383124
  H   -1.40743559716622     -1.09110418293319     -3.47001064977626
  C   3.44659105846304     -2.58481155075240     -3.19237842457063
  C   4.59468894259178     -3.03489410353509     -2.66159021887514
  C   4.84763648766314     -3.01406337077568     -1.16504908472419
  C   4.63411533558759     -4.38342040851708     -0.50621708784775
  C   6.27044169881685     -2.47272620721319     -0.93527933978783
  C   6.49635935843302     -1.11381533327430     -0.67588541632748
  C   7.79421876556731     -0.62203263298448     -0.53124924378820
  C   8.88793870623383     -1.48247898806411     -0.65734918506366
  C   8.68798113532848     -2.84008957055333     -0.93056344686603
  C   7.38182791206245     -3.31876304971034     -1.06360649631276
  H   7.23147999764855     -4.38312056106615     -1.25975102244662
  H   5.64699556870868     -0.43716985300790     -0.58172017765832
  H   7.97599947967948      0.43505037078818     -0.32523500897670
  H   9.53424605443917     -3.51798012217281     -1.01895675287876
  C   4.97854023074781     -4.56458132985992      0.84548450751637
  C   4.03675931026479     -5.46504711992128     -1.16572591924104
  C   3.80218630320052     -6.68056272920835     -0.52180056013675
  C   4.74578955122610     -5.76360700467598      1.50824960870298
  C   4.14990712357016     -6.86441180300052      0.83778273985666
  H   5.44002787842045     -3.74115484165667      1.39677397183162
  H   5.02151615366124     -5.84711625658074      2.56021659290364
  H   3.74262650827592     -5.36520214960719     -2.21292210198922
  H   3.34655792521970     -7.49458471161591     -1.08664363524066
  N   3.92199612199712     -8.05674246288694      1.48384980697752
  C   3.21934557056456     -9.18249645825634      0.87737155399149
  C   4.37187508982501     -8.34392425078679      2.84245021444909
  C   2.98233094285200    -10.14102769064715      2.05254286210954
  H   3.82860654900325     -9.65965645727251      0.08224074381915
  H   2.27431322217330     -8.85918742495560      0.40676081783146
  C   4.17364355397254     -9.85975531833898      2.97829366224239
  H   3.77443969394405     -7.78886283999919      3.59452475465970
  H   5.42544699936548     -8.04793846452988      2.98689122639503
  H   4.00319866040044    -10.17254309907249      4.01949527016258
  H   5.07004272880657    -10.38886344101351      2.61304154898499
  H   2.91398763974628    -11.19202895502610      1.73362900264370
  H   2.03757018632018     -9.88536963077040      2.56142903201764
  O   10.13541192949495     -0.88023677438259     -0.55423810686372
  C   11.23355974553174     -1.49321985534550     -0.02527905338691
  C   12.40166817462807     -0.53862046821681     -0.03795034884980
  H   12.16180239566853      0.35654475164712      0.55693886043294
  H   12.59989966336238     -0.20065021228639     -1.06708666385492
  H   13.28689524286590     -1.03823235678909      0.37361231964912
  O   11.25265657970466     -2.62136139938405      0.38677811155026
  C   2.14031821235736     -1.18664001381339      1.38847362350958
  C   2.69135292770106      0.21919069557408      1.69104496182337
  H   2.91123963818571     -1.93013293115032      1.64125283469184
  H   1.28127261428148     -1.39304699370340      2.04730183740155
  C   3.13287491070328      0.35672008036705      3.13757388792138
  H   1.93022745614114      0.98576484345851      1.46727119074733
  H   3.55088156762625      0.42719238822116      1.03312647157003
  O   3.64424866806932      1.68552038987728      3.32829150919830
  H   3.91820374459434     -0.37402850851146      3.39429203560020
  H   2.29887266649750      0.18635549250578      3.84020656542120
  C   4.12498194958733      1.98127255607566      4.55226864756921
  C   4.63439622651689      3.40237760557890      4.60703986214432
  H   5.44289937260785      3.53999219485092      3.87193612144049
  H   5.00357611620780      3.62231288595165      5.61610271055722
  H   3.82871601251804      4.10284765764846      4.33730273084588
  O   4.13782799798773      1.19555744233167      5.46764392553459
  H   3.28264933804958     -2.61065540334731     -4.27385751501569
  H   5.39111960097459     -3.44303430098319     -3.28804747868992
