56
Coordinates from ORCA-job 761_0.0
  C   3.11257821688544      0.66160372499882      1.24990089827871
  C   3.52204774136945     -0.68323776571371      0.68372847628802
  O   2.35457454598003     -1.54220704685409      0.66342315993089
  C   1.15897522091379     -1.03796450669344      0.26688364461731
  C   0.84197725631337      0.31962734238952      0.40330877058457
  C   1.85896516634229      1.12020475263220      1.08818565591047
  C   -0.45510322238799      0.77628917399476     -0.04042994411663
  C   -1.39802850318335     -0.19658156252624     -0.53656576825522
  C   -1.02519674633390     -1.56965867416756     -0.59218684497851
  C   0.22448466894366     -1.98658068631947     -0.20954063317919
  C   -0.89587554556528      2.14106648768896     -0.05947136021552
  C   -2.15479332930165      2.50275912682929     -0.50458541110381
  C   -3.06442071499866      1.52477108806174     -0.95739718164537
  C   -2.68885394712311      0.20077245974820     -0.97609693662041
  H   -1.75569537040162     -2.29297429634572     -0.96398881700398
  H   -2.44111177232710      3.55290502758167     -0.50227929568007
  H   -4.05602769499376      1.83069316894575     -1.29928536966772
  H   -3.37614234650547     -0.56902036561521     -1.33684869244023
  H   1.58179239362553      2.08022036108972      1.51267785481893
  H   3.85873403402847      1.23313591782361      1.80595137421595
  C   4.53017144835843     -1.35015557054143      1.63340628845211
  C   4.12661394024247     -2.31645642759550      2.56454640416343
  H   3.08412039382578     -2.63508050123559      2.58504145302511
  C   5.05125940148797     -2.87060603041084      3.45655979667853
  H   4.72161246999759     -3.62877440037966      4.17241012812287
  C   6.38602994558245     -2.45857428710586      3.43860679175109
  H   7.10651004273180     -2.89154718283971      4.13779362748810
  C   6.79385717123393     -1.48883425751084      2.51677147170804
  C   5.87354362617511     -0.94237385980233      1.61913129779307
  C   4.07808228301484     -0.61120341223753     -0.75220961173864
  C   4.28179253133542      0.59495686599993     -1.42989129727201
  H   4.03719350015114      1.53984831060553     -0.94008509460953
  C   4.79262346340691      0.60570556054426     -2.73345028145638
  H   4.94918539529564      1.56401468456605     -3.23853032578279
  C   5.10366763424016     -0.58505695110716     -3.40260189292698
  C   4.88922702560592     -1.79494098457231     -2.71736925720054
  H   5.12727614366812     -2.74218255636504     -3.21174606027279
  C   4.39017871283967     -1.80940898379178     -1.41681966486546
  H   4.24074040215250     -2.76215862646664     -0.90280819042453
  C   5.61378669260163     -0.57674708549732     -4.82789928597158
  C   4.49888510394391     -0.73290574101192     -5.87459988591266
  H   3.76455452432264      0.08545513703677     -5.79903200504479
  H   3.95260334445950     -1.68005424199936     -5.73583121408956
  H   4.91184983351233     -0.72633372115879     -6.89677878711714
  H   7.83636549042000     -1.16002694600065      2.48981316721417
  H   6.20691767073179     -0.19739028493747      0.89204864457568
  H   0.52916217644391     -3.03349572779341     -0.26229615655787
  O   0.02623054669424      3.11968675562150      0.29892601823411
  C   -0.29620514772191      4.21978051879398      1.04811426302364
  O   -1.38495746813193      4.43850931956577      1.50256302247797
  C   0.92339565981314      5.09130368493337      1.22120762358407
  H   1.66010344445250      4.58020379962483      1.86240781961724
  H   0.63071228797737      6.03800142224327      1.69133001050128
  H   1.40695804354259      5.27381021522290      0.24999556099470
  H   6.15868765297962      0.36427361549167     -5.01436925527354
  H   6.34792456133249     -1.39085583743746     -4.95686870262658
