87
Coordinates from ORCA-job 763_0.0
  C   -7.49937395889271     -2.17706912824392      4.46505283634703
  C   -6.55732919891343     -1.73112755542539      3.51317128574772
  C   -6.42971549247087     -2.42340622029046      2.30421832954160
  C   -7.23530520774126     -3.53404530409949      2.07502258042625
  H   -4.41103734166403     -0.47550965979595      9.54045978394566
  C   -5.14696106094677      0.29214191249990      9.29326960354604
  C   -5.24202094434696      1.45972154494198     10.06816252050201
  H   -4.57067572516781      1.58553390605070     10.92229204832039
  C   -6.16794472750804      2.45999492186263      9.76423681927414
  C   -7.03331810044524      2.30284229525992      8.66532383313439
  H   -7.76138457383509      3.08333307454346      8.42573687968268
  C   -6.94947906135224      1.15590205140145      7.88904155230906
  C   -6.01081943188650      0.15053756763272      8.20147553188704
  C   -5.75795921834801     -0.56406617168499      3.85787595793750
  C   -5.91524758244216      0.04852938732411      5.04171284240304
  C   -6.85895537966118     -0.44573434846034      6.11039159969587
  O   -7.67252914256757     -1.53509064199448      5.64461436094159
  C   -7.79465364422898      0.69081956453095      6.71047159139178
  N   -6.09287062949903     -0.89128036843716      7.28399027179022
  C   -9.10345540387062      0.07449476521815      7.25547894460006
  H   -8.90086399345642     -0.76846018998516      7.93159073131601
  H   -9.74627189225818     -0.28619086665759      6.43868134631437
  H   -9.65483456646955      0.84227397948075      7.81974478901504
  C   -8.13681660249791      1.78875592041091      5.69534085488492
  H   -7.25020897421421      2.34172075158768      5.35396113400855
  H   -8.82891974230276      2.51723371091641      6.14711146453679
  H   -8.63813184296074      1.36280778824410      4.81116175381660
  C   -5.12972240745686     -1.97287068791321      7.20205405417843
  H   -5.02270521907916     -0.20496737567274      3.13220625184920
  H   -5.30786654016894      0.91347267169671      5.31869742519568
  H   -5.71208786138268     -2.10951353650736      1.54607091200715
  H   -6.21955536460880      3.36417723216190     10.37537256698115
  C   -8.31840643541364     -3.30729859508131      4.23527875452776
  C   -8.16724051234380     -3.97719078353294      3.02030221152077
  H   -8.76380547113151     -4.85511201756367      2.77909300156548
  C   -9.30631333126198     -3.73598554387546      5.30023145159545
  C   -10.14845547795886     -4.96771559625028      4.97497960165755
  H   -9.96740628581058     -2.87953798482178      5.52250596341194
  H   -8.74839148625160     -3.90090111900426      6.23944246702984
  H   -10.76488958339380     -4.81676193156849      4.07402754815796
  H   -10.83190107507444     -5.19336722747387      5.80831155572019
  H   -9.52459856628751     -5.86056466527213      4.80771027884041
  N   -7.10306604286298     -4.26377713915772      0.80517747761622
  O   -6.29532546250152     -3.84259688081037     -0.01045903151130
  O   -7.80849596777521     -5.24850817837105      0.63742181266089
  C   -5.45559170793037     -3.13520059847598      8.14854955026426
  H   -4.10781182293350     -1.59986895473615      7.40089757650376
  H   -5.11075914483313     -2.36618394085124      6.17662969371916
  C   -4.59441825461278     -4.36442377165036      7.85634101600311
  H   -6.51163755678804     -3.42315683598815      8.00195623186262
  H   -5.36075138475558     -2.83129922369292      9.20445495373379
  N   -4.46018558134591     -5.23648778159638      8.90333485357493
  C   -3.77719372870003     -6.51136877447134      8.79647649111025
  O   -4.09963182235080     -4.56006324540124      6.75880450547768
  H   -4.92121780556128     -5.01394557673944      9.77825043400609
  C   -2.49979810622393     -6.55570806992349      9.65298558351315
  H   -3.52544408266614     -6.65362238371882      7.73638487644410
  H   -4.45359516326673     -7.32300769906073      9.11321452109363
  N   -1.91774448970922     -7.90274283652885      9.69920297998732
  H   -2.73332422919821     -6.26617648820399     10.68610243195585
  H   -1.74556182184784     -5.87755873675404      9.23636968392843
  C   -2.41811094394126     -8.77896054610851     10.67728421647883
  C   -1.83189325767969    -10.14792886365398     10.71544377718304
  C   -0.93344427495496     -8.22184411785957      8.74398587134826
  C   -0.37501569476421     -9.59971686951918      8.80016011443938
  C   -0.83516377278471    -10.52029543497165      9.77857819409267
  C   0.59674913654423     -9.98147430422923      7.88844094233214
  C   1.13631774971448    -11.28788597817072      7.92656561996758
  C   -0.29282183355076    -11.84275144967178      9.82281928433730
  C   0.70367434715023    -12.19977964861208      8.87040817796191
  H   0.92988089279160     -9.25306415906742      7.14630874921437
  H   1.12295049620537    -13.20929836387265      8.89674080705369
  H   1.90114594684047    -11.57489454899346      7.20082469547136
  C   -2.28733727036499    -11.03962325775178     11.67620483528034
  C   -1.74246982032411    -12.34637321392346     11.71855060236681
  C   -0.76988268176767    -12.73821858492462     10.81121590186894
  H   -3.05391408231827    -10.72258071998522     12.37822864847980
  H   -0.37394506692181    -13.75438246835042     10.87092928682209
  O   -2.09875910020905    -13.32909764420929     12.62392799680192
  C   -3.04183136570069    -13.22719416346660     13.60973957741283
  C   -3.11472446506783    -14.52843532404663     14.36771512300086
  H   -3.36477666829917    -15.35140792357509     13.68014900759784
  H   -3.87475830936783    -14.44909093924041     15.15406505786020
  H   -2.13386744613633    -14.76076497607266     14.81116841192591
  O   -3.70226349036815    -12.24897402008799     13.82833251973075
  O   -3.29014002646225     -8.41513667459842     11.44560579977284
  O   -0.57241576482648     -7.39949421505629      7.92417584769816
