68
Coordinates from ORCA-job 767_0.0
  C   -8.50736911298577     -2.25560134546242      3.04642062353376
  C   -7.91093172095387     -1.08822555758769      3.54352690504609
  C   -7.31774075634073     -0.19044336782575      2.63876936481215
  C   -7.33782588255120     -0.44869595225798      1.25893489618081
  C   -7.94845064372056     -1.61110418904524      0.76696206905174
  C   -8.53028372346485     -2.51122531516963      1.67871908529261
  H   -4.06904577705584     -0.41274683766528      8.28740074617893
  C   -4.93474592122058      0.23331034204885      8.44713068161110
  C   -5.01293422337249      1.04232350973835      9.59111233400200
  H   -4.19228007276555      1.02190336342002     10.31375686042117
  C   -6.11659815197588      1.86624570192577      9.81743077988433
  C   -7.17955401378415      1.88506142991757      8.89555107486637
  H   -8.04854593477060      2.51679358918779      9.09066711394379
  C   -7.11693637882238      1.10027145611932      7.75008357739324
  C   -5.99042190112687      0.27640597197004      7.53004755276449
  C   -6.66862715214486      0.97854437671101      3.21727633501564
  C   -6.63955864779269      1.15905830304605      4.54816956011067
  C   -7.21335361594208      0.17070565288609      5.53785023246195
  O   -7.93047774703754     -0.88365932773022      4.88528148696385
  C   -8.14331234230116      0.83763347861720      6.64818050893148
  N   -6.12323748364039     -0.41460333334410      6.33124119002544
  C   -9.15370201075447     -0.20963895493302      7.17099730364140
  C   -8.87807837746314      2.07455917160169      6.07238738145276
  C   -5.09480504696734     -1.23284456197546      5.72943016192726
  H   -6.19560909059156      1.69796022100039      2.54265291343709
  H   -6.13394946825905      2.02051010896136      4.99059397642324
  H   -6.87378509203988      0.24821324922609      0.56448192065647
  O   -9.00584132112278     -3.21286640716019      3.91489509184950
  C   -10.15287956912609     -2.94544117047846      4.61855656694760
  H   -6.16097534526487      2.49225978548291     10.71182168584420
  C   -5.31526704918052     -2.71641954048345      6.01872136002493
  H   -4.09851144286047     -0.92932839071870      6.09378991601222
  H   -5.08468306220193     -1.07319324327016      4.63903381659909
  C   -10.42247104912137     -4.04857711233775      5.60654259462367
  N   -8.01224493970066     -1.93652278283817     -0.60390303517099
  C   -7.46595004867171     -1.27050535533861     -1.67921909440819
  H   -10.31328719607158     -5.03327660970280      5.12881411713467
  H   -11.42857632361727     -3.92898537824557      6.02625353856745
  H   -9.67635317316785     -3.99429496111413      6.41567033861823
  H   -9.00425601961055     -3.43525297435191      1.33838487982345
  O   -10.81509784255611     -1.96024573426516      4.44575046152422
  O   -4.23614410862176     -3.43268628130433      5.40415739636960
  H   -6.27834687492604     -3.05763141152718      5.60882932240788
  H   -5.32633486917851     -2.91655898940367      7.10282565400220
  C   -4.26542713818073     -4.77883406587759      5.50150910789913
  C   -3.07243309830652     -5.39858989139226      4.81392727294130
  H   -3.03314394033202     -5.07790403993505      3.76139024595114
  H   -3.13899036952705     -6.49156869479604      4.87508326204379
  H   -2.14309769505454     -5.05226921458950      5.29318844295786
  O   -5.13981343088522     -5.38087037756422      6.07287042131952
  C   -10.03861789244600      2.64877727464698      6.89246294815949
  H   -9.27078083585461      1.79061909391475      5.08056768751586
  H   -8.14403186410157      2.87536552051859      5.88993759503206
  H   -9.91759969568768     -0.44562115062151      6.41618259909858
  H   -9.64918719406483      0.17691949384755      8.07321071610155
  H   -8.64051023303784     -1.14243263186821      7.44679999607105
  H   -10.46019274258552      3.52561130480248      6.37495087585130
  H   -9.72826151267651      2.98352015277840      7.89424562406211
  H   -10.85657525808969      1.92374793675809      7.02012382944323
  C   -7.68531862556077     -1.97648484632626     -3.01978470287147
  H   -8.51300212352351     -2.79095808674602     -0.81775776921564
  O   -6.84016900552379     -0.22960218705540     -1.58586041753599
  C   -7.49667204449522     -1.04305802127785     -4.21194156650888
  H   -8.68583724673524     -2.44415357619893     -3.03561939796571
  H   -6.95987990937801     -2.81044554923266     -3.06988660496584
  H   -7.56911503373690     -1.59869510168992     -5.15954750088949
  H   -6.51364785851544     -0.55297030444269     -4.16321913028830
  H   -8.25916472685496     -0.24845766397617     -4.21927478100639
