68
Coordinates from ORCA-job 767i_0.0
  C   -8.46507345221800     -2.28804196914063      3.25556077377219
  C   -7.77966494446896     -1.18572426717937      3.78476271837624
  C   -7.06453105064192     -0.34946046295436      2.90995480403225
  C   -7.04914942676088     -0.60378002695801      1.52952675338774
  C   -7.74682335044707     -1.70136162435094      1.00517073471825
  C   -8.45348676449206     -2.53956280182063      1.88678553555086
  H   -4.36884786297741     -0.65854524804527      8.93674684797788
  C   -5.18927063600543      0.06090025659611      8.96985693999346
  C   -5.33189883222043      0.92210829668710     10.06849378294692
  H   -4.61021301968215      0.86226411210924     10.88800346702433
  C   -6.36926639592516      1.85438556914901     10.12375491441516
  C   -7.30531217994631      1.92584383150784      9.07528005303267
  H   -8.12926212263359      2.63971792225781      9.13795265733504
  C   -7.17968872774677      1.08512808737176      7.97565193371062
  C   -6.11691055560959      0.15571072600110      7.92590836143034
  C   -6.33180513304056      0.75191859840071      3.51950332096558
  C   -6.36033560147609      0.94140446296646      4.84879363877533
  C   -7.11155239342415      0.04561904266745      5.80870508027042
  O   -7.83197873578651     -0.98667132636859      5.12736519255879
  C   -8.09816369062435      0.84464866395258      6.77782656950918
  N   -6.17376582174617     -0.58374030459708      6.75203176400479
  C   -9.23757426643575     -0.09487052016477      7.23465071749277
  C   -8.66433535373302      2.10111694884894      6.07049878739736
  C   -5.22419961680518     -1.60160870083330      6.36978903695427
  H   -5.74495679092729      1.40848352040180      2.87079588348010
  H   -5.79775932730687      1.75257769810603      5.31699505700731
  H   -6.49120194362421      0.04707230091803      0.85986861835613
  O   -9.10312868012625     -3.18559082931929      4.09726727814878
  C   -10.27054002288512     -2.80782005872017      4.70704539742785
  H   -6.46041562317548      2.52521374710504     10.98134698265236
  C   -3.85901557107875     -1.08521735039270      5.90631302807756
  H   -5.67360791234807     -2.21369029465531      5.57300132863213
  H   -5.06869371570672     -2.28002209216287      7.22688358494343
  C   -10.71268038027583     -3.86694477096816      5.68174477855651
  N   -7.77937679595959     -2.01951270960337     -0.36822285761786
  C   -7.15735084230154     -1.38308050960050     -1.42084444583400
  H   -10.67693122721133     -4.86232371134514      5.21460072681340
  H   -11.72564921707084     -3.64155954836872      6.03626664658313
  H   -10.01664556175357     -3.88018938217718      6.53587654154576
  H   -9.00362702870899     -3.41046376461290      1.52172151298124
  O   -10.82962955413356     -1.77149764173153      4.47695877131058
  O   -3.05609572223449     -2.24434485095505      5.64432618764876
  H   -3.37241009002112     -0.46260448360605      6.67370109761358
  H   -3.94153201251790     -0.47645357393015      4.99357880723437
  C   -1.77350312875653     -2.02718570941796      5.28032359864167
  C   -1.05376309031756     -3.32972569132203      5.02518751022310
  H   -1.08197949825281     -3.95992368353154      5.92784388905549
  H   -0.01443428506068     -3.12588541919733      4.74072759392870
  H   -1.56172534095681     -3.88819708189868      4.22336276728227
  O   -1.29374495863080     -0.92597888857238      5.18028540575586
  C   -9.85855927962309      2.79857601245685      6.73121829951689
  H   -8.96984143709171      1.79983479773396      5.05340896493400
  H   -7.85437175307245      2.83589650298518      5.93757400827417
  H   -9.93936372567335     -0.30981922598318      6.41600437623266
  H   -9.78864105315226      0.37195584874366      8.06378845270706
  H   -8.82959340225486     -1.04826842384453      7.60133337634382
  H   -10.14704367884040      3.68179873844153      6.13867436541218
  H   -9.63701181539839      3.15156438393604      7.75010527612088
  H   -10.74161249415314      2.14427825410792      6.78799772494586
  C   -7.38270292686568     -2.06561461106662     -2.77259568506766
  H   -8.33085541228305     -2.83577417305562     -0.60534808101927
  O   -6.47212593123874     -0.38371431668759     -1.29970410225328
  C   -6.97965996968860     -1.18542421920831     -3.95106834009931
  H   -8.43976658506757     -2.37678070072588     -2.85365705349330
  H   -6.79214315639369     -3.00116357522488     -2.77105957002731
  H   -7.09176231096679     -1.72987232397111     -4.90133743072024
  H   -5.93368387637243     -0.86110524788706     -3.85197799677604
  H   -7.59925293567304     -0.27655220729532     -3.99851666111204
