57
Coordinates from ORCA-job 773_0.0
  C   -4.75381013717001     -0.05610373614702      2.79186739180152
  C   -5.65483142436728     -0.39581147031727      3.81744834742593
  C   -6.13976584501944     -1.71968888364025      3.91888076433451
  C   -5.73429683080399     -2.66883413034752      2.97727975423557
  H   -6.09784082600415     -3.69796553955012      3.03329192627824
  C   -4.85346016075465     -2.32361454847760      1.94141817524028
  C   -4.36244369036785     -1.00989012288573      1.86050898169243
  H   -5.66125405874648      1.40038093632707      9.74682817026448
  C   -6.58675924455999      1.72048409283838      9.26459952172836
  C   -7.54812423268762      2.44642324897272      9.98553207827406
  H   -7.35401385554302      2.68549438907296     11.03484510345025
  C   -8.74492571716619      2.85577701105854      9.39321141613605
  C   -8.99469390166234      2.55578288443708      8.04135941215234
  H   -9.92405525903839      2.88922769589422      7.57038159478060
  C   -8.05379422816246      1.83884889412983      7.31534737675646
  C   -6.85461968835248      1.41674652019686      7.92470949039868
  C   -7.03779603950381     -2.00025987550537      5.03109937011841
  C   -7.37560486665080     -1.03334262987096      5.89951383899418
  C   -6.85490569819411      0.38321926343968      5.82324770687106
  O   -6.02695334792310      0.58266177162928      4.66300893165326
  C   -8.00782044263288      1.48308602135782      5.83493004712335
  N   -6.07096023395914      0.71289067118184      7.01769533972991
  C   -9.33618602186939      0.97329576425150      5.26057409965911
  H   -9.76570569575861      0.15246442223061      5.85209440965941
  H   -9.21028829852566      0.62153576511609      4.22391723251465
  H   -10.07413091395335      1.79099367898768      5.24387474272075
  C   -7.55521957378185      2.73334877543458      5.04524976907192
  H   -6.58646602212486      3.10709618458675      5.40777410263137
  H   -8.30109353215732      3.53162684910625      5.18038377791584
  H   -7.46005128738313      2.51885848444139      3.97045333840648
  C   -4.78972589722701      0.11581230315250      7.33019614641706
  H   -7.41376064326081     -3.02002321355627      5.15242744726268
  H   -8.02921649510081     -1.23969521497249      6.75030163205721
  C   -4.43956375954340     -3.33562624515441      0.94393597057929
  H   -3.66940460965225     -0.71726465711204      1.06729191163629
  H   -9.48548274592743      3.40829975313983      9.97622382855159
  C   -4.86367384765216     -1.17821717719063      8.14562150956513
  H   -4.19458098768035      0.85112432588130      7.89760985631611
  H   -4.23576999500215     -0.05238897631714      6.39473026911098
  O   -3.51608374752120     -1.51256660153417      8.49940364703524
  H   -5.31241417346929     -2.00360026034929      7.57334334865846
  H   -5.46514898316345     -1.04949509553458      9.06053900178004
  C   -3.32880413754611     -2.66820964000531      9.17237501109132
  C   -1.86545164282567     -2.89045641936160      9.46896513334108
  H   -1.29393163501120     -2.92897516575064      8.52846739936479
  H   -1.74066351481275     -3.82781600256833     10.02430600492118
  H   -1.46771849539506     -2.04733085060130     10.05510077521549
  O   -4.23130837568935     -3.40554863428829      9.48138876134847
  O   -4.30278576956561      1.24717320095049      2.66992218164611
  C   -3.44308684698938      1.73602802416135      3.62047197798518
  O   -4.81175294622535     -4.48756991627329      0.93342014291107
  H   -3.72946654805621     -2.95246847771420      0.16359382494761
  C   -3.15559417335157      3.19039658819157      3.36306983876306
  H   -2.35915866404669      3.53219744186740      4.03485761183790
  H   -4.07060463265444      3.77712840500202      3.54347596211357
  H   -2.86943254011717      3.34535903375218      2.31205101552522
  O   -3.00316311768834      1.06837108423605      4.51543357799800
