49
Coordinates from ORCA-job 774_0.0
  C   -5.89866703572448     -0.03571129950437      2.51954407238945
  C   -6.53526914343245     -0.59678905049743      3.64552123073842
  C   -7.14698834954433     -1.86624543409239      3.55163966707912
  C   -7.14958287997147     -2.54175133040075      2.32483786534257
  H   -7.61605974133702     -3.52148661087112      2.22063343012685
  C   -6.53823484063479     -1.95208326633181      1.22186597118045
  C   -5.90480893372354     -0.70750032825849      1.30461559363780
  H   -4.95199245301888      1.52260026967564      8.96826010721811
  C   -5.88378451845974      1.96786346053916      8.61554156874087
  C   -6.28632709758300      3.22203085618993      9.09831406751073
  H   -5.65342487167185      3.73879988834707      9.82422765680533
  C   -7.47519443862686      3.81323083423708      8.66556984007822
  C   -8.28798556867916      3.15211599132882      7.73200919720966
  H   -9.21776046824157      3.60736659966852      7.38234614748120
  C   -7.89214809286929      1.90579332001055      7.25704973975099
  C   -6.69337867457974      1.30130505590823      7.68917831446838
  C   -7.71268151291561     -2.41258307378552      4.77667090404752
  C   -7.73457536885522     -1.69382976557452      5.91318969433307
  C   -7.26860483583725     -0.26877306324181      5.97657094669851
  O   -6.49845519254568      0.09768212132013      4.79334171941815
  S   -8.75054742852620      0.86244580546421      6.11233110680228
  N   -6.45955023028646      0.04533650812428      7.12134980406506
  C   -5.20627346105785     -0.67319838626012      7.31554549393917
  H   -8.10866140035059     -3.43153938363760      4.75846736003402
  H   -8.15795538527694     -2.08819568755974      6.83862852356170
  N   -6.54315092224548     -2.66215471234830     -0.06787014500498
  H   -5.42570341818461     -0.27327250171875      0.42822777390958
  H   -7.77666290822802      4.79012798043752      9.05069853197510
  C   -5.22800198891994     -1.54079188827696      8.57111242340253
  H   -4.36448496928337      0.03732614613722      7.36231198492752
  H   -5.01455079198063     -1.30357260608956      6.43604939002943
  O   -3.93963943341417     -2.15374422120366      8.67100564408100
  H   -6.00988368033095     -2.31473949623904      8.51123198371478
  H   -5.43148468013337     -0.94569415891177      9.47650496860920
  C   -3.76158001250967     -3.03540392134646      9.68212450418607
  C   -2.36280410509257     -3.60030409878205      9.66867740200156
  H   -2.15469456096779     -4.07142592948512      8.69555752447239
  H   -2.25500098723719     -4.33451293899362     10.47605613611670
  H   -1.63014937144885     -2.78826121318735      9.79861077181807
  O   -4.62802246497123     -3.30916426345157     10.47348395269586
  O   -5.31921106905416      1.21173675556318      2.60199601492105
  C   -4.22209302819163      1.38092180874556      3.41790819780542
  O   -7.08591496709978     -3.75599183614221     -0.10871475827622
  C   -3.84440422573299      2.83503311739067      3.47656764350335
  H   -2.87522614952274      2.94351846708849      3.97787489607405
  H   -4.61692453369236      3.38029529576687      4.04274543747360
  H   -3.81182164443371      3.26792840619087      2.46596940235869
  O   -3.68204720800279      0.47164710112720      3.98158248833126
  O   -6.00236095557169     -2.11443532306906     -1.01625219178394
