61
Coordinates from ORCA-job 775_0.0
  C   -6.05560204646883      1.76372992694930      2.55002538228250
  C   -6.92967576792327      1.06298156916738      3.42545077996827
  C   -7.45181920882050     -0.17519841980806      3.06735309048181
  C   -7.13543944503324     -0.75239589283424      1.79081284250302
  C   -6.26827336868775     -0.02228181135470      0.90938451688902
  C   -5.73958571277160      1.23370010804937      1.32272116703431
  H   -4.72246585837560      1.30885048816777      8.47054460722157
  C   -5.60739835284016      1.94434954192843      8.40614226519784
  C   -5.70871913681223      3.10203997720977      9.19391454473667
  H   -4.89227066657143      3.35248670882426      9.87692656554102
  C   -6.82564495974481      3.93781062332634      9.11495404192597
  C   -7.87837585756090      3.62228387305213      8.23719626466903
  H   -8.75433696069914      4.27447941945923      8.17534021183945
  C   -7.79068252707465      2.47857247738993      7.45465505001732
  C   -6.66023803078349      1.64593296417526      7.53746775475403
  N   -8.29280309527751     -0.84843411592672      3.95225789053097
  C   -8.47589821322391     -0.37665198433163      5.12778903604757
  C   -7.82715041279915      0.87710296337302      5.68540477725870
  O   -7.25831791098171      1.65511787103648      4.58976050893121
  C   -8.78425708158230      1.86125444927880      6.47826275900011
  N   -6.78932033783834      0.57142378737182      6.64726598713700
  C   -9.84606568377688      1.07977171424801      7.28691403658501
  H   -9.38997046848951      0.29270979066899      7.90635509179263
  H   -10.60245096795151      0.62027365397568      6.63056440835627
  H   -10.36683418269273      1.77514711864446      7.96227753672204
  C   -9.48198375517045      2.87029008653320      5.55806205639465
  H   -8.76192842233304      3.50366392276746      5.02461281677153
  H   -10.14539273015600      3.51926323203741      6.15192156760604
  H   -10.10717010332665      2.35447527045828      4.81103890458452
  C   -5.68504105502952     -0.32371281385513      6.33798295498873
  C   -5.95804091695114     -0.59003139806565     -0.35475073939604
  H   -5.06932310867505      1.79037666457768      0.66370975286159
  H   -6.88231009067188      4.83634154190418      9.73422113908595
  C   -5.57855129161360     -1.46076312086038      7.34998234135458
  H   -4.73710779036122      0.23786778345609      6.28303703788735
  H   -5.83941087950789     -0.75660445825660      5.34001480231205
  O   -4.47532089624914     -2.27699808370332      6.94323088922452
  H   -6.50215775419643     -2.06227904876380      7.37063191470576
  H   -5.41103002301166     -1.09071233303241      8.37440160099212
  C   -4.19389434495185     -3.35103870437633      7.71212570524831
  C   -3.03112155583200     -4.13049741639284      7.14720696525808
  H   -3.29236554076540     -4.51548240155412      6.14872768244879
  H   -2.78593424407174     -4.96392568298313      7.81656007392191
  H   -2.15791875270457     -3.47192509764804      7.02187564597792
  O   -4.81219537200336     -3.62782628951387      8.70930611838570
  O   -5.57729427160713      3.00828239194089      2.92778092700566
  C   -4.69144979609479      3.07666671960970      3.97194742952174
  C   -6.47123932246138     -1.81317818524680     -0.73181642751068
  H   -5.29877632099064     -0.04302695964812     -1.03437268371525
  C   -4.43512180109855      4.51095548959330      4.34836164798477
  H   -3.54858602220917      4.56933760797822      4.99143032270910
  H   -5.30885946716050      4.89010963476631      4.90320285896425
  H   -4.31247629611056      5.13606425853905      3.45218527241432
  O   -4.21369333011349      2.10728998683577      4.49473494271745
  C   -7.32792796238673     -2.53004669932900      0.14653510162448
  H   -6.22161357320676     -2.23908189420101     -1.70935543169131
  C   -7.65290103287384     -2.00515280757886      1.38741243518268
  H   -8.31217061281531     -2.55561272686815      2.05858582666999
  O   -7.84630175812913     -3.73647148203528     -0.20073176665036
  H   -9.12092871242941     -0.93757026637306      5.81427501962531
  H   -7.54342483794820     -3.97638352275273     -1.08617582288999
