58
	Energy:     159.2369534
C         -7.36463       -3.47328        4.70250
C         -6.75347       -2.19169        4.67859
C         -6.32741       -1.58557        3.47994
C         -6.54986       -2.23675        2.25067
C         -7.20403       -3.49533        2.22316
C         -7.60758       -4.12049        3.45931
H         -5.46762        1.41192        9.58898
C         -6.45673        1.51816        9.15613
C         -7.45308        2.14739        9.91635
H         -7.22295        2.50349       10.91803
C         -8.73947        2.32622        9.39986
C         -9.04038        1.87614        8.11883
H        -10.03454        2.01200        7.70387
C         -8.04374        1.24452        7.38637
C         -6.74537        1.04553        7.87928
N         -5.69107       -0.31853        3.47734
C         -5.80932        0.37363        4.56653
C         -6.53629       -0.12606        5.80827
O         -6.58299       -1.54627        5.88872
S         -8.23095        0.59446        5.76017
N         -5.86500        0.40323        7.01815
C         -4.53261       -0.06509        7.39322
C         -7.41962       -4.07104        0.94030
H         -9.50416        2.81831        9.99575
C         -3.44072        0.86781        6.84731
H         -4.36429       -1.06883        6.98441
H         -4.43798       -0.18570        8.47817
O         -2.53293        1.24233        7.89574
H         -3.87503        1.78414        6.43079
H         -2.88865        0.34317        6.05764
C         -1.47784        1.98478        7.45422
C         -0.62501        2.42052        8.60526
H         -1.13517        3.21098        9.16059
H          0.32505        2.80621        8.22354
H         -0.40790        1.57057        9.25690
O         -1.26732        2.28988        6.28924
C         -7.01181       -3.45676       -0.24706
H         -7.92245       -5.02753        0.83200
C         -6.36536       -2.23702       -0.19911
H         -7.20296       -3.93740       -1.20276
C         -6.13940       -1.63781        1.03583
H         -5.63254       -0.67318        1.04903
H         -5.39647        1.39513        4.59276
H         -8.73542       -2.82739       10.04371
O         -7.44527       -3.59508        7.15409
C         -7.99449       -2.68357        9.25219
H         -7.08023       -3.20071        9.55731
H         -7.79860       -1.61864        9.11949
C         -8.51927       -3.26515        7.97286
O         -9.70818       -3.40009        7.71702
H         -6.04010       -1.74627       -1.11188
C         -7.76596       -4.14780        5.89577
C         -8.36738       -5.40738        5.89203
C         -8.62537       -6.02121        4.68399
C         -8.25066       -5.38849        3.49763
H         -8.64099       -5.89798        6.82108
H         -8.47676       -5.92879        2.58240
H         -9.11150       -6.99269        4.65501
