64
Coordinates from ORCA-job 77_0.0
  C   0.37060477681544      1.03687694174346      1.58103231362330
  C   -0.70677397236880      0.21824626942167      2.00977687220252
  C   -1.36982526207118     -0.63102185583978      1.08371553715035
  C   -0.96123637330939     -0.63148297917981     -0.25737548615066
  H   -1.44675967490746     -1.27752213434890     -0.98954511043680
  C   0.08165641773876      0.19218893216642     -0.66628973838805
  C   0.74872161176736      1.02039357712589      0.23820050701310
  H   1.56069358975766      1.65226311035909     -0.12294344974554
  H   -2.88295242847755     -1.09673763275265      7.97983607864985
  C   -3.32358266870028     -0.24959582105400      7.44883979577581
  C   -3.83604175971636      0.85136308807933      8.15363298326991
  H   -3.78021268935701      0.85120175711150      9.24562137893470
  C   -4.40548666791560      1.94222078276502      7.49043319747742
  C   -4.48410509126995      1.95101237084605      6.08665581421979
  H   -4.93537559604371      2.80090465602794      5.56664253663134
  C   -3.98277971169683      0.86912098798758      5.37403688206822
  C   -3.40230664398750     -0.21612706461547      6.05346367039047
  C   -2.42563635915602     -1.54877197050258      1.50666213100621
  C   -3.04710458919548     -1.56180579487403      2.69940628513026
  C   -2.88154527693593     -0.57162242810001      3.81434250245707
  S   -1.13343006319257      0.22177594288526      3.71811079062381
  C   -4.00684658272196      0.55543227008880      3.88379653236943
  N   -2.95600725413101     -1.17465610556883      5.12910334819712
  C   -5.38419323996200     -0.06795687377146      3.54049913591362
  H   -5.58815023853768     -0.96191424521563      4.14873381527849
  H   -5.44855607253656     -0.34243123084034      2.47564041148113
  H   -6.17580352040534      0.66704256255539      3.75118824140400
  C   -3.76285747951943      1.75732236789560      2.96654161658178
  H   -2.83433414948040      2.28781973935442      3.21708730971274
  H   -4.60217733332180      2.46602112895022      3.05376297513668
  H   -3.71093685444401      1.44393240301799      1.91115835458485
  C   -2.12455690562833     -2.29562854768241      5.52794451426724
  N   0.49316696447284      0.18529181984719     -2.07864452189890
  O   -0.10571315863045     -0.56088569934427     -2.83964716158135
  O   1.40753018883034      0.92705963611140     -2.40582227461292
  C   -2.97269670070235     -3.47374460507376      6.02139086384764
  H   -1.43091461754643     -1.99173434655760      6.33063514419768
  H   -1.51147026892022     -2.60951361248590      4.67055314405468
  O   -2.14945701158012     -4.51837643350214      6.54458737455677
  H   -3.53326168296085     -3.92500495394652      5.18976390590756
  H   -3.68231559506710     -3.13834152970679      6.79133979834116
  C   -1.74748048447832     -4.37889030718181      7.83620931759936
  N   -1.00775970171099     -5.44696836008969      8.23691999242640
  O   -2.02477668303173     -3.42549091363356      8.53711207109038
  H   -4.79109730928088      2.78952356176088      8.06284668789874
  O   0.27228408663278      3.09915818586758      2.77690719330683
  N   -0.18964824621006      4.94878498961822      3.93243386905642
  C   0.67411302258546      3.90622596479255      3.79951024456415
  O   1.66267379543773      3.70225156662388      4.47035163830973
  C   1.09538378637731      1.95138564189203      2.53715059295232
  H   2.05771197997806      2.27084836509698      2.10625474891899
  H   1.31836657828769      1.45673379149731      3.49540575741748
  C   -0.03644068252806      5.96436143500576      4.95012678452853
  H   -0.88060801949809      5.96217444956760      5.66172938514813
  H   0.04561933517253      6.97252696811477      4.50853563486896
  H   0.88628716927976      5.74896813746599      5.50509994046116
  H   -0.97675005055080      4.98050595993218      3.29597081468434
  C   -0.59955886673701     -6.56210444022864      7.40424407606316
  H   -0.62752250469686     -5.35501157365827      9.17092277308643
  H   -1.45363410610248     -6.95257966801049      6.83220175433553
  H   -0.21946864458827     -7.36678597206784      8.04987115742401
  H   0.19418384025987     -6.28924440111117      6.68564183084097
  H   -2.71906783043300     -2.30250592605835      0.76962090729272
  H   -3.80443051914925     -2.32934193457328      2.88456480808253
