58
Coordinates from ORCA-job 780_0.0
  C   -0.72357839908477      1.21643752512055      1.74882221948794
  C   -1.79633690536016      0.31756423832950      1.89863966934466
  C   -1.89903452095383     -0.79249227853457      1.03686405521835
  C   -0.95994026560764     -0.95645407110026      0.00886650537687
  H   -1.05131193380836     -1.80816477799742     -0.66871380760673
  C   0.07928753144974     -0.03893313235455     -0.15591229301489
  C   0.20067184437153      1.04643565953824      0.72545821299590
  H   1.00818691753004      1.77238672314717      0.61996622024723
  H   -3.04444226243252     -0.14260483289806      7.38947453462244
  C   -3.75693088157562      0.47601689722082      6.83932696118889
  C   -4.41775922804298      1.54091930740269      7.47283191848581
  H   -4.20958246398860      1.73873326986641      8.52802716697635
  C   -5.32413645388458      2.35079188724071      6.78251928815120
  C   -5.59628587296450      2.10306649430087      5.42525250014347
  H   -6.30494727900335      2.73654415714892      4.88368374427053
  C   -4.95362027421339      1.05026679853637      4.78626507751130
  C   -4.03956218923163      0.24684573026244      5.48948443465682
  C   -2.98815106309536     -1.72108210061522      1.30276673348386
  C   -3.83284619329131     -1.53436670608392      2.33278604385406
  C   -3.76190717899272     -0.35559325297992      3.26446878554563
  O   -2.69681113827356      0.57484623776849      2.85677303199449
  C   -5.08861963625967      0.51274295153351      3.36820741789814
  N   -3.50571605990850     -0.73543551598070      4.63789292647544
  C   -6.34365805271488     -0.38734336540990      3.29751479927902
  H   -6.29250350689509     -1.21248893230413      4.02417029546602
  H   -6.48570802456406     -0.80990691084282      2.28974735309136
  H   -7.23330213275678      0.21355054022602      3.53925229495465
  C   -5.16779571296068      1.59024133566826      2.28096643471665
  H   -4.34076569894197      2.30808579282992      2.35627804154982
  H   -6.11643280462485      2.14280885310470      2.37155691098091
  H   -5.14515410730956      1.13655762591470      1.27635372817187
  C   -2.32033632821739     -1.49209697997657      5.00735257441324
  O   -0.63015839441595      2.31305939424328      2.58522747099527
  C   -0.37716892575774      2.09262976771252      3.91887159442290
  C   -0.51959642980904      3.37034515698641      4.69826694390936
  H   -1.59380445038912      3.57595148111086      4.83692637400526
  H   -0.08404280411921      4.21765026005739      4.14973692870759
  H   -0.04862721806665      3.25473983634970      5.68209665011864
  O   -0.09664102405324      1.01255833325936      4.35975214473450
  C   -2.68718924431239     -2.72326747841311      5.84227646884233
  H   -1.61438985809540     -0.85225709623538      5.56272581357947
  H   -1.79960499722368     -1.81483549187644      4.09448623459387
  O   -1.51019593324538     -3.37656228623502      6.33661523624793
  H   -3.20647725069044     -3.47056397524366      5.22524511015973
  H   -3.33482065436439     -2.44182114110249      6.68483276980184
  C   -0.97748668449411     -2.90177133089993      7.48390805608804
  C   0.26481846052820     -3.66852845431421      7.86242708485800
  H   0.05802845516237     -4.74935773543933      7.87297791302221
  H   0.61804109926152     -3.33527087117469      8.84573531315748
  H   1.04803674118541     -3.49320177847609      7.10766122583202
  O   -1.44707494866769     -1.98029353069286      8.10725590646054
  H   -5.82164073776450      3.17724396931494      7.29616183412602
  C   1.10374449530292     -0.24388708541048     -1.24009330925557
  F   1.61879222389406      0.92315717615134     -1.66926668511365
  F   2.14181142729233     -0.99571735180486     -0.82067246207211
  F   0.57931338817192     -0.87322359914725     -2.30865340527807
  H   -3.08910021470368     -2.60029345618134      0.65987284954196
  H   -4.61419624501862     -2.26321188062089      2.54968215858250
