73
Coordinates from ORCA-job 781_0.0
  C   -0.52915307910834      1.60640737151126      1.82294640730425
  C   -1.64023759243198      0.71732489607473      1.82221244777612
  C   -1.72980624898693     -0.30411103602166      0.88474653614491
  C   -0.72090019654818     -0.44653243841960     -0.12776169451175
  C   0.37461911900437      0.48085846577785     -0.13656750823454
  C   0.44611211629053      1.49348784056897      0.86296645785581
  H   1.28365471706915      2.19463582818981      0.87621511819143
  H   -3.13541867537222     -0.57571765448728      7.11019187540875
  C   -3.84127113565742      0.11606574463070      6.64505995496939
  C   -4.56512880228588      1.03158450350265      7.42583937829289
  H   -4.41328015380431      1.03757934167954      8.50879527178766
  C   -5.46319158623822      1.93374733087669      6.84798082700208
  C   -5.66155819836211      1.93372160386279      5.45585546701100
  H   -6.36225908467827      2.63951654513948      5.00029492667177
  C   -4.95558707100651      1.03079959455647      4.67089316246125
  C   -4.05191127544166      0.13215212184871      5.26308446071144
  N   -2.80269830698717     -1.19356528713222      0.93405211213816
  C   -3.66939537609129     -1.08324441280051      1.86773793885730
  C   -3.65712870734729     -0.05226204798127      2.98082443853795
  O   -2.59929205509051      0.92353971861136      2.74455528872421
  C   -5.00504145872673      0.76495454132967      3.17196599586814
  N   -3.44719069628809     -0.66309078606825      4.27565278446922
  C   -6.24081450280555     -0.11117516750201      2.86231550398391
  H   -6.22003604469009     -1.06016065084468      3.41954330432119
  H   -6.32354495620610     -0.33477958376720      1.78640868369969
  H   -7.15026518212500      0.43020545716612      3.16384632539595
  C   -5.04509060758434      2.03044064544368      2.30640982020712
  H   -4.22566459594552      2.71758199388571      2.55250993287335
  H   -6.00011409340070      2.55715283623750      2.46161053394786
  H   -4.97767497525776      1.77887467379461      1.23517803731395
  C   -2.26447227434732     -1.46066836379733      4.56011658325458
  O   -0.48288578917017      2.62135952729855      2.76482766236093
  C   -0.31073393582484      2.27543194743801      4.08087165664283
  C   -0.49857977202370      3.47530309703151      4.96882962189952
  H   -1.58013965002850      3.65772707527081      5.08117156794299
  H   -0.05203689604133      4.37394749495662      4.52016703784059
  H   -0.06787468658330      3.27212746648875      5.95701141962123
  O   -0.05919076216949      1.15712574904004      4.43811884313667
  C   -2.64402630540773     -2.82788436943394      5.13915378871697
  H   -1.59963147858858     -0.92363506338599      5.25715666549864
  H   -1.69229032443406     -1.60546719332515      3.63258598205874
  O   -1.47629607565233     -3.55186528231213      5.54925884540748
  H   -3.12890044063857     -3.45230874313804      4.37530048722533
  H   -3.32541956466990     -2.71062468505834      5.99380747191361
  C   -0.99856944902425     -3.30678612444458      6.78862025453056
  C   0.23291840510288     -4.13255638963681      7.06554937981070
  H   0.02710755686696     -5.19694855364166      6.87574936755599
  H   0.55162149509725     -3.98242771475047      8.10402373039993
  H   1.04016776028440     -3.82992190136708      6.37976527332174
  O   -1.50343600338223     -2.52501471412347      7.55821718240706
  H   -6.01089396352590      2.64012390640004      7.47684599309194
  H   -4.48368000445538     -1.81661662230396      1.90718103409671
  C   -0.78169508821968     -1.46167190961052     -1.10726716215269
  C   1.35930867194125      0.34760810151412     -1.14834615369506
  C   1.28258712099381     -0.64545210011006     -2.10525899846557
  C   0.19989693549673     -1.56430510181004     -2.08139232760111
  H   2.19456976447234      1.05319580573500     -1.16872315022853
  H   2.05519705012951     -0.70508668104199     -2.87238836277157
  H   -1.61120135940311     -2.16855897540527     -1.09990974416707
  O   0.06034439869302     -2.59496739488271     -2.96621753297456
  C   0.96897543724919     -2.77451961717933     -4.01207957862154
  C   0.76575477003838     -1.78810952712117     -5.16161630718653
  H   0.79672493514277     -3.78733171063591     -4.41008871040256
  H   2.02438106225551     -2.73898325458619     -3.68561035415809
  O   1.67138283021584     -2.03043662269764     -6.12566954504209
  C   1.61037728684070     -1.22126638309847     -7.31889406810064
  C   2.39843646804856      0.06848953007349     -7.16342480853042
  H   0.55533772489853     -1.01281237219132     -7.55164023782925
  H   2.03455872418649     -1.85801265065399     -8.10900642740269
  H   1.94713617429943      0.71262128025787     -6.39377680093814
  H   2.39734174992571      0.62340727578102     -8.11568806033863
  H   3.44477295165719     -0.13806463854161     -6.88789262770517
  O   -0.08362674414182     -0.93860558666420     -5.20635267960343
