72
Coordinates from ORCA-job 783-2_0.0
  C   -0.98612748335941      2.05668565583355      2.26381314245525
  C   -2.18595765949943      1.26954451169475      2.37822974742673
  C   -2.26691987655512     -0.01564068110466      1.73694760929483
  C   -1.16636895331246     -0.47250774270934      0.91002520981010
  C   0.01284460597028      0.26943092306385      0.93262527158463
  C   0.09214674004795      1.54125023282087      1.56331513900435
  C   -3.40472477144439     -0.81691444754732      2.03332556790867
  C   -4.45297149210419     -0.37039617801771      2.81457562757204
  C   -4.39978901637771      0.93295231715117      3.34804456409823
  C   -3.28546707862238      1.72213166071017      3.15231918714387
  C   -1.16224111082780     -1.65363722105602      0.03233950589170
  C   0.08937194891646     -2.14053174915599     -0.42919397764828
  C   1.34071735111787     -1.40788651940212     -0.15678228885248
  O   1.17254785724663     -0.14595572566263      0.36176348109668
  C   -2.31787483399171     -2.30386940923889     -0.46052480464999
  C   -2.22341629040862     -3.42603689306498     -1.27940442922840
  C   -0.97448315461583     -3.94423229520868     -1.65094062889783
  C   0.17706227201949     -3.28589097351225     -1.23720773637859
  H   -0.90871989593368     -4.83254985402247     -2.28379816144119
  H   1.17059197134124     -3.61855123503461     -1.54443127837531
  H   -3.30512013671774     -1.90554322071096     -0.23785737734923
  H   -3.14026042686941     -3.89739251800135     -1.64377544824270
  O   2.45452182637734     -1.77717341562016     -0.41920380419693
  O   1.26538126739068      2.19774222578875      1.41420829270159
  C   -0.77315794472664      3.34498403992684      2.90757322673748
  C   0.42629547905770      3.95285781789125      2.86030777370829
  C   1.62993501201203      3.34676858373108      2.18264970404912
  H   -1.59027850460631      3.81580483522868      3.45620955348061
  H   0.59874765365518      4.90020884155271      3.37575898667466
  N   2.63093608159078      2.96284913878397      3.18893021079971
  C   2.43055016748497      4.36068367195639      1.25880080855125
  C   3.13636827558469      3.59049326692761      0.11837854934361
  H   3.74837871236412      2.76433278126149      0.50703935140065
  H   3.79669479032210      4.28246494225000     -0.42676460532220
  H   2.40830863894113      3.16467712180951     -0.58707678371031
  C   1.54038017130859      5.45486946488081      0.65599389165300
  H   0.71433806652011      5.00975932091835      0.07835183030134
  H   2.12700586387270      6.08064253456062     -0.03536614294032
  H   1.10758692285575      6.11901909622994      1.41789970219576
  C   3.49053619430402      4.86327646898805      2.23275297211236
  C   3.60382567512321      3.94713285174114      3.30041898450722
  C   2.43827378694930      1.85636018256006      4.09606507322337
  C   3.22546648956386      0.61859744729969      3.63978682152030
  H   1.36629550289727      1.60869744485034      4.14457067587798
  H   2.74416091582202      2.13739659738131      5.11898133427976
  O   3.04801996611388     -0.47255887901530      4.55580572719731
  H   4.30425957027730      0.83135254764836      3.63586885975800
  H   2.90914857846243      0.32205275593083      2.63054192160404
  C   2.03384134438944     -1.33294511449729      4.32222186038569
  C   2.02292536427067     -2.44261378734928      5.34467852845008
  H   2.02155283837904     -2.02270615390920      6.36211677919294
  H   2.93914303955373     -3.04566715518722      5.24256350781557
  H   1.14136913389392     -3.07662385102422      5.19109601232891
  O   1.25431027468837     -1.22005375519944      3.40738853402480
  C   4.34550489306617      5.95334176540549      2.15538942153920
  C   5.32363133744476      6.14090265740152      3.15052348908370
  C   5.43767705632303      5.22105967000844      4.19485450743241
  C   4.58266759885919      4.11074185260377      4.28661239985539
  H   4.26661279710691      6.66398195114296      1.32735392915544
  H   5.99416521921286      7.00217834955885      3.10197998638332
  H   6.20431141650268      5.36452817245335      4.96155143401317
  H   4.68654167494733      3.40134508076763      5.11043492474127
  H   -3.44265819920722     -1.84418245029290      1.67989603094292
  H   -5.30175754888784     -1.02024956328318      3.02152780073834
  H   -3.26714267805043      2.69889518125252      3.63449240087902
  O   -5.38700455461550      1.44962067762482      4.17685902257428
  C   -6.71846447905599      1.29645490672703      3.90543994472241
  C   -7.53775466117390      1.95813855293044      4.98453444636361
  H   -7.29953427767260      1.51142727924151      5.96255217268667
  H   -8.60444518932790      1.83452894927812      4.76240172715775
  H   -7.28481549354706      3.02801055613429      5.04634510534328
  O   -7.14844663263794      0.71972590492509      2.94440519645882
