97
Coordinates from ORCA-job 783_0.0
  C   -0.84020383666222      1.75226480988360      2.03063744613905
  C   -2.02056975078103      0.98084402756472      1.98898480396893
  C   -2.10229446210352     -0.22987055714332      1.27472736946037
  C   -0.95267152022380     -0.67686346982251      0.54110982425829
  C   0.25876425672552      0.01604612472711      0.72385361343530
  C   0.31259338409993      1.23321479049397      1.43345835157099
  H   -3.17621686936662      0.91188307624991      7.28341167634419
  C   -3.88273132524971      1.55732475278763      6.75647172971111
  C   -4.45013803549618      2.67090447396543      7.39682715040047
  H   -4.17523373759044      2.88289137701765      8.43387066242389
  C   -5.34867108153780      3.51097309564398      6.73374635642777
  C   -5.70856816013469      3.24434640586258      5.39986692711748
  H   -6.41436504917225      3.89969952863890      4.88102904797875
  C   -5.15750913584128      2.14552807036350      4.75448871575801
  C   -4.24712012717195      1.31160986170187      5.42950210032941
  C   -3.34091256258057     -0.97655411030712      1.46707166731324
  C   -4.29169648338811     -0.58200143901170      2.33911329191838
  C   -4.13819295422037      0.63529563334957      3.20202166879060
  O   -3.08408661594925      1.48415554145687      2.65723451677393
  C   -5.40542304482176      1.57439392779221      3.36286694587074
  N   -3.81518950192898      0.28882016914666      4.57868972002542
  C   -6.70417505216861      0.73612107884208      3.40228550769133
  H   -6.64217762112815     -0.07377356958316      4.14508808139066
  H   -6.93354510526605      0.29761704147685      2.41775254962117
  H   -7.54637524646168      1.38457019777981      3.68707283711984
  C   -5.50945323081847      2.62573846157860      2.25213086460050
  H   -4.65284286482091      3.31159747678005      2.25602865387164
  H   -6.42922659912871      3.21765443156073      2.38475387451161
  H   -5.56266934343743      2.14520394362804      1.26174205709916
  C   -2.73189150363835     -0.61177979073597      4.92521827132680
  C   -3.22571589144179     -1.81370783496070      5.73786454514037
  H   -1.94116286060228     -0.08171376191200      5.48304861157374
  H   -2.26910975100107     -0.99520425122197      4.00638291107472
  O   -2.17984127077452     -2.77984086425598      5.89217629852806
  H   -4.02660200306080     -2.33055649204059      5.19045225488665
  H   -3.60140685375487     -1.50703191809705      6.72516239400304
  C   -1.29636586159617     -2.60569133622719      6.89505197336159
  C   -0.21043785637706     -3.64801748548409      6.84167529055333
  H   -0.58995683286112     -4.60122584737655      6.44945924889192
  H   0.22877742682541     -3.78101380918303      7.83868694206161
  H   0.56574219658553     -3.27248130405771      6.15501821122121
  O   -1.36840428082560     -1.70594290239240      7.70068074302231
  H   -5.77288708283358      4.37530201803547      7.25058152118559
  C   -0.90914785943945     -1.79373118458773     -0.41897676500431
  C   0.35925890815352     -2.28663460624497     -0.82193475991391
  C   1.61325514767452     -1.61964352397578     -0.40805709954016
  O   1.45565031349889     -0.41802636769850      0.22679106176019
  C   -2.04196134546393     -2.36451295760288     -1.04338975362697
  C   -1.91978813914719     -3.42721115801361     -1.93493981541575
  C   -0.66177840834242     -3.95863577396564     -2.25168890078359
  C   0.47365542923169     -3.37120474934019     -1.70683948201779
  H   -0.57333768688784     -4.79971128806982     -2.94351288386330
  H   1.47770705626508     -3.71269421894800     -1.96617376922490
  H   -3.03053255536852     -1.94597700567526     -0.87048666789236
  H   -2.81949864875313     -3.83829363233169     -2.40078302231221
  O   2.72692383340562     -2.00869408703404     -0.64552487576437
  O   1.50507758295998      1.85706489108125      1.49700277040999
  C   -0.73280192186391      3.04656959070805      2.68230496936997
  C   0.43916012663293      3.70563597179582      2.68373788923510
  C   1.72172416271164      3.12081423551991      2.14357141414506
  H   -1.62356659126721      3.46685381333919      3.15198348393609
  H   0.53662294191358      4.68404654580463      3.16046382859766
  N   2.67284676470521      2.92913389675002      3.25090645542964
  C   2.51559719155921      4.07456381715118      1.14676755993591
  C   3.32664205080096      3.22874042705259      0.13687630161465
  H   3.95467096239982      2.48470607795957      0.64673360499320
  H   3.98199642080497      3.89587246513955     -0.44439469550463
  H   2.66642487235916      2.68900501944090     -0.55714912211634
  C   1.59586477349649      5.03661496392240      0.38373026831721
  H   0.83950118017565      4.48023664203834     -0.19316954157755
  H   2.18390053070958      5.63200869179406     -0.33300763757017
  H   1.07302503400978      5.73866407156619      1.04899151895006
  C   3.48611678246547      4.75316126182208      2.10146616137286
  C   3.57097924135584      3.99550211290469      3.28597837485424
  C   2.32431362240642      2.16695351647754      4.43127435047272
  C   3.18801996435143      0.91073057540638      4.60336422857432
  H   1.26613696752558      1.87185653729328      4.37692831862668
  H   2.43527249768584      2.79048869010752      5.33730748144964
  O   3.06262404714227      0.41259117274968      5.94513724023421
  H   4.25261905933481      1.15336296432311      4.48086292154985
  H   2.90329226453230      0.13582721453567      3.87729226431331
  C   2.03277813976604     -0.40590248441666      6.23573225308415
  C   2.04068246216176     -0.80863256625790      7.68956965954301
  H   2.60707498267398     -1.74974537233776      7.79120398566113
  H   1.00943500479275     -0.98600428306714      8.02468955427985
  H   2.53501360040867     -0.04878528065140      8.30925483043008
  O   1.22600703220436     -0.78011838997176      5.41374790953562
  C   4.28145063675403      5.87787174149008      1.93089734857517
  C   5.16922379418663      6.26010829336802      2.95325278353325
  C   5.25125895817379      5.50052834258853      4.12230500479280
  C   4.45547461081840      4.35835144703666      4.30762610205456
  H   4.21845517822645      6.46637695627802      1.01102532856571
  H   5.79275621120774      7.14908183331200      2.83164044759996
  H   5.94528289833065      5.79734391324129      4.91364292425631
  H   4.53481722302328      3.77621164947235      5.22785286148172
  H   -3.47988083463520     -1.92884581099824      0.96087468036352
  H   -5.16487236984652     -1.20996417479657      2.51740342147505
