97
Coordinates from ORCA-job 784_0.0
  C   -0.83931924197023      1.76030390956307      2.04379990364198
  C   -2.02375029112762      0.99547707551156      1.99680865148877
  C   -2.11373542503972     -0.20633211181310      1.26899661485646
  C   -0.97009293724149     -0.64959572315061      0.52406133038008
  C   0.24581209256271      0.03387601075284      0.71131354202523
  C   0.30835263860676      1.24069521629500      1.43728563470813
  H   -3.18197908679176      0.89731241763381      7.29895599289657
  C   -3.88496888187350      1.54522144537683      6.77054517037961
  C   -4.44548085698703      2.65478827233559      7.42254591723183
  H   -4.18041573521452      2.87101729779137      8.45919710841212
  C   -5.33805606018906      3.49354854138761      6.75234855080240
  C   -5.70381588436106      3.24652046278559      5.41732264451027
  H   -6.40634534939136      3.91445102448332      4.91453267857121
  C   -5.15319705263469      2.14832810820788      4.77321796508133
  C   -4.24654256026190      1.30550879139643      5.44201516548862
  C   -3.35354868193234     -0.95150769335867      1.45882849341882
  C   -4.29989115674704     -0.56287857912875      2.33818256399448
  C   -4.14030612072518      0.64705239591509      3.20985949152975
  O   -3.08344455531277      1.49609701411423      2.67461625523832
  C   -5.40491535936174      1.58902939661241      3.37785530650825
  N   -3.81929876677969      0.28791049322853      4.58519819363711
  C   -6.70658299862790      0.75514396013138      3.41493426779893
  H   -6.64638637657665     -0.06002862149540      4.15200510037995
  H   -6.93772896290626      0.32434908959495      2.42768044042712
  H   -7.54642895825919      1.40444923891127      3.70444217481718
  C   -5.50665909720572      2.64938837249251      2.27581554086871
  H   -4.64744728352941      3.33193413499583      2.28289963459338
  H   -6.42417429671578      3.24346880622866      2.41382546209222
  H   -5.56329262808470      2.17561825322206      1.28253617560594
  C   -2.73949085172151     -0.61955087874794      4.92594813335466
  C   -3.23838752173269     -1.82154634623329      5.73531193725329
  H   -1.94492125249683     -0.09549174660298      5.48397112842337
  H   -2.28143131996609     -1.00106848253185      4.00393172983934
  O   -2.19429199441360     -2.78744258858350      5.89745249900031
  H   -4.03599459619668     -2.33844517287476      5.18317107625281
  H   -3.62106614772620     -1.51455793254462      6.71993506163566
  C   -1.31319161556637     -2.60728450640332      6.90190296897489
  C   -0.23171177791284     -3.65454349598982      6.86273787990189
  H   -0.61381582362981     -4.60971287887381      6.47794110020652
  H   0.20281588965752     -3.77991257551463      7.86275063685649
  H   0.54916928584773     -3.28965499464715      6.17571916772280
  O   -1.38497304512958     -1.69923549585580      7.69817710864291
  C   -0.93757512366010     -1.75199350819658     -0.45299309507747
  C   0.32617891162893     -2.24488569187371     -0.87025447385049
  C   1.58590996951038     -1.59182674873077     -0.45178602207549
  O   1.43787523433696     -0.39876330182097      0.20300734272485
  C   -2.07671990056013     -2.30641966845087     -1.08029511483522
  C   -1.96481191590413     -3.35463374332560     -1.99021607246682
  C   -0.71124580518246     -3.88701700133730     -2.32249048739746
  C   0.43022999706102     -3.31501032644121     -1.77379068881965
  H   -0.63087029466826     -4.71658970276267     -3.02898204716793
  H   1.43099086108289     -3.65754909042318     -2.04420720801484
  H   -3.06221163743920     -1.88564315943851     -0.89535042499882
  H   -2.86899166247817     -3.75312105359246     -2.45824880187483
  O   2.69625780187843     -1.98261217039932     -0.69994056908257
  O   1.50552219263996      1.85528073012813      1.50677218449881
  C   -0.72133065594792      3.04760755790851      2.70747447659229
  C   0.45431677684197      3.70049685744915      2.71030669759298
  C   1.73123773398785      3.11304840079165      2.15974865307339
  H   -1.60758085746319      3.46979168938055      3.18396305469365
  H   0.55805811520789      4.67418215859557      3.19527064063867
  N   2.68693025425261      2.90772189328500      3.26108119251676
  C   2.52676031715129      4.06767459813555      1.16233578551372
  C   3.31103081501423      3.22314489154058      0.13056390664669
  H   3.93462502076458      2.46243259858861      0.62070763990233
  H   3.96751579005769      3.88768566650288     -0.45225057797743
  H   2.63194948282089      2.70312839703664     -0.56004778370593
  C   1.61240833610910      5.05479537406499      0.42515870652359
  H   0.83815195814703      4.51726057036543     -0.14557560705889
  H   2.19907732143975      5.64814088112968     -0.29428393588369
  H   1.11148771654740      5.75778598648519      1.10598771405040
  C   3.52204145665072      4.71930159972491      2.10969577268568
  C   3.60485268077083      3.95489192300468      3.28973498246583
  C   2.34195742572359      2.14181763826847      4.44000104722290
  C   3.19274775384024      0.87478170188659      4.59822602601874
  H   1.28006962802246      1.85936936306486      4.39377246893938
  H   2.46844664669746      2.75888906131367      5.34851074794522
  O   3.07253123024257      0.37343993874208      5.93889760725272
  H   4.25920588724694      1.10474628705159      4.46738861342877
  H   2.89267985095187      0.10640780913038      3.87146492105672
  C   2.03235450076528     -0.43054065829602      6.23491221331565
  C   2.04543471895328     -0.83839598568327      7.68711793634811
  H   2.60601102260969     -1.78345641441513      7.78339536386209
  H   1.01468325934363     -1.00859429223354      8.02726189137608
  H   2.54826409127811     -0.08380539054497      8.30642795368971
  O   1.21373098565224     -0.78854217235535      5.41748760899799
  C   4.33557722203849      5.82728575945737      1.92512647846346
  C   5.24157621817614      6.17642873686469      2.94202682480750
  C   5.33123212339922      5.42215032195666      4.11239364969501
  C   4.51032592681974      4.29899081647345      4.29886528135664
  H   4.28454005091348      6.42802009464644      1.01474400861774
  H   6.04461399423526      5.71297326332179      4.88576799873434
  H   4.59284854410245      3.71643244463047      5.21825546923032
  Cl  6.26997362280780      7.58179202762679      2.72984748726209
  Cl  -6.01911035888129      4.88145068356790      7.58297037196886
  H   -3.49632306207070     -1.89875067056421      0.94419490160111
  H   -5.17361152780089     -1.19047687585334      2.51485088952642
