58
Coordinates from ORCA-job 785_0.0
  C   -0.79615609559614      1.27701658754495      1.76656660413037
  C   -1.88505951186199      0.38974183638028      1.88582313394317
  C   -1.97031339492056     -0.72935106697967      1.03084209269195
  C   -0.99194971194406     -0.92031964092035      0.04646196747358
  H   -1.05901130085813     -1.78197677486411     -0.62003472385209
  C   0.07280885068137     -0.02016490831671     -0.08643568533580
  C   0.16659745282473      1.07804431514262      0.78934763956623
  H   1.00251656614286      1.77331331338768      0.69756471969875
  H   -2.96123290405178     -0.16650682361487      7.33332071677414
  C   -3.70266692735297      0.45657739656289      6.82837787231430
  C   -4.34520500493791      1.50050419737598      7.51355603140649
  H   -4.09314071678576      1.67662404980365      8.56303745394160
  C   -5.28792336123159      2.31673035348854      6.88181016721438
  C   -5.61564197469287      2.09732093066520      5.53188429441262
  H   -6.35210521166453      2.73540847007760      5.03471705893990
  C   -4.99092064930665      1.06592819032126      4.84226042499927
  C   -4.04086274960089      0.25541767218791      5.48686082880066
  C   -3.08459127143459     -1.63694777014314      1.26291272523071
  C   -3.94570425891153     -1.44696641627260      2.27909108290423
  C   -3.85313839086590     -0.29187786191683      3.23815035801162
  O   -2.82000450109137      0.66560553945528      2.80345224265508
  C   -5.18130055799684      0.55955930631967      3.41892744898484
  N   -3.53574723593746     -0.70183241953781      4.59034940642078
  C   -6.42918949489559     -0.35329242476541      3.38566229073167
  H   -6.33094155863677     -1.19803450981888      4.08437260745680
  H   -6.61927211547497     -0.74837973215214      2.37471056131538
  H   -7.31112200467482      0.22977205824628      3.69083739202248
  C   -5.32150380412285      1.66070937535675      2.36204761896385
  H   -4.49883306066883      2.38524638651779      2.41630989631376
  H   -6.27060886364140      2.20034883279844      2.50919508372642
  H   -5.33956560847765      1.23053716867873      1.34716777886883
  C   -2.33098691488463     -1.45729927859983      4.89473871272345
  O   -0.72462936303412      2.38074894281724      2.59834398280889
  C   -0.49694625098925      2.17065812525659      3.93579523194093
  C   -0.64727317600094      3.45470525111373      4.70366532567904
  H   -1.72283599836917      3.66263827471044      4.82743616273320
  H   -0.20349482977490      4.29703808738817      4.15417672846927
  H   -0.18949756920293      3.34568449751283      5.69445075881987
  O   -0.22944489552232      1.09284028507796      4.39184772065714
  C   -2.65169754176244     -2.70989946295401      5.71655902852633
  H   -1.60839569860550     -0.82281068596027      5.43399969040355
  H   -1.84605569761115     -1.75624759806801      3.95470682412926
  O   -1.44710079389671     -3.35751496861104      6.14898053247766
  H   -3.18626624934726     -3.45094443049589      5.10506679244454
  H   -3.26766982035853     -2.45467050426694      6.59064388124826
  C   -0.87601159550809     -2.90226196135100      7.28555974109911
  C   0.39064045839896     -3.65960100774523      7.59623578515904
  H   0.19494733821099     -4.74262439485381      7.60371170877275
  H   0.78530283345417     -3.33440929180390      8.56634680529825
  H   1.13595729151836     -3.46779423499180      6.80799906252099
  O   -1.33373509508763     -2.00421652014113      7.95047997464672
  H   -5.77012333139030      3.12625682041919      7.43547263338787
  C   1.13074787397332     -0.18430034246298     -1.11650080984902
  O   2.07412889162955      0.55879947055978     -1.26664647452943
  O   0.94472583124374     -1.27331293887033     -1.89779707902899
  H   1.68507875898647     -1.28366432008171     -2.52732323492058
  H   -3.19305528375052     -2.50366903453163      0.60436044393197
  H   -4.74658980033162     -2.16204441007540      2.46838297972370
