79
	Energy:     135.4848053
C          0.92213        1.41277        3.88075
C         -0.35202        0.84766        3.37121
C         -0.41526        0.23192        2.18122
H         -3.81371       -0.89154        7.58228
C         -4.03682        0.08695        7.16966
C         -4.57720        1.06836        8.00732
H         -4.76188        0.83701        9.05365
C         -4.87730        2.34416        7.51376
C         -4.64349        2.65501        6.17532
H         -4.88335        3.64191        5.79416
C         -4.09585        1.67539        5.35663
C         -3.78198        0.39623        5.84189
C         -1.66166       -0.34015        1.74717
C         -2.76547       -0.21976        2.49656
C         -2.74512        0.51071        3.81419
O         -1.43495        0.97042        4.21043
C         -3.74951        1.74603        3.88485
N         -3.23357       -0.43767        4.84210
C         -5.05431        1.54708        3.08607
H         -5.54607        0.59723        3.32803
H         -4.86746        1.56667        2.00682
H         -5.77680        2.34307        3.30453
C         -3.10458        3.07726        3.47807
H         -2.26641        3.34913        4.12897
H         -3.82546        3.90153        3.53283
H         -2.73641        3.03153        2.44732
C         -2.40742       -1.56835        5.26475
C         -3.25635       -2.84481        5.32272
H         -1.89325       -1.37849        6.21472
H         -1.59733       -1.74864        4.54716
O         -2.46095       -3.99268        5.66342
H         -3.68408       -3.04371        4.33294
H         -4.10751       -2.74832        6.00724
C         -2.24898       -4.17280        6.99518
C         -1.49663       -5.44645        7.22768
H         -2.08093       -6.29318        6.85835
H         -1.33201       -5.57936        8.30077
H         -0.52577       -5.40110        6.72833
O         -2.61532       -3.41308        7.88075
H         -5.29468        3.09469        8.18037
N          1.05968        2.14425        4.93631
C          2.51500        2.39064        5.03381
O          2.01260        1.07952        3.15321
C          3.12746        1.46938        3.96062
C          4.26441        1.99600        3.11614
H         -3.70921       -0.67255        2.20582
H          0.45674        0.13307        1.54024
N         -1.75037       -1.09681        0.49372
O         -2.86896       -1.45709        0.10152
O         -0.68951       -1.32653       -0.10232
H          3.46691        0.54035        4.44004
C          5.58893        1.82135        3.55023
C          4.03703        2.68669        1.91643
C          6.65578        2.32319        2.80330
C          5.10570        3.18585        1.16960
C          6.41372        3.00440        1.61309
H          5.80083        1.29800        4.48015
H          3.02344        2.85019        1.55797
H          4.91622        3.72176        0.24329
H          7.24419        3.39746        1.03276
H          7.67603        2.18634        3.15230
C          2.88276        3.86214        4.99511
H          2.82567        2.01601        6.01913
C          4.04748        4.28395        5.66008
C          2.12364        4.82076        4.30929
C          2.51896        6.16371        4.29711
C          4.45003        5.62057        5.64205
C          3.67686        6.55916        4.97122
H          1.21490        4.53207        3.78679
H          4.66264        3.56645        6.19903
H          5.36680        5.88620        6.15576
H          5.19083       10.12988        4.22683
C          4.98188       10.03706        5.29528
C          4.93673        8.59039        5.68747
O          5.61365        8.10847        6.58434
H          5.78743       10.53258        5.84589
O          3.99511        7.93615        4.88697
H          4.03473       10.51831        5.54961
H          1.91983        6.89698        3.76454
