79
Coordinates from ORCA-job 787-2_0.0
  C   0.48119846180756      0.87179675542287      4.14779654521621
  C   -0.56404999103111      0.12353577422393      3.42616490272303
  C   -0.27961692115069     -0.82617720017837      2.49637772571804
  H   -4.67392448831796     -1.21039072415894      7.07097972476494
  C   -4.94079786329800     -0.34047351894647      6.46654097670319
  C   -5.81623101275182      0.63664314388163      6.96657627256015
  H   -6.22523184974755      0.51518610779786      7.97331563830104
  C   -6.16649343509650      1.75663550308244      6.20746205781010
  C   -5.64831008044698      1.91997786440010      4.91096955801705
  H   -5.92604673555595      2.79475424955155      4.31596163873897
  C   -4.78364654027577      0.95977692729701      4.40136226852623
  C   -4.43013150819811     -0.15403214253693      5.17928224198752
  C   -1.40700203746431     -1.44749703923150      1.85574194123952
  C   -2.68441136751197     -1.18092967754785      2.19351644120641
  C   -3.01031713173939     -0.25176819756363      3.32987413833016
  O   -1.81153879876883      0.49499597311791      3.74690904398518
  C   -4.13375185289404      0.83606150760218      3.03043153128449
  N   -3.53122765411126     -0.96834258095273      4.47012857919672
  C   -5.18042039088024      0.28714101141738      2.03477353479226
  H   -5.58734247944253     -0.68193136347413      2.36209738438124
  H   -4.75919909011786      0.17110950235687      1.02301802108734
  H   -6.02161870807255      0.99351349922953      1.96933198757438
  C   -3.54573744433372      2.14591677358601      2.49156356477619
  H   -2.85356233658377      2.60489298274960      3.20877745278179
  H   -4.35922378141742      2.85906067145508      2.28378498940699
  H   -3.00632546447600      1.97607596206720      1.54533624734720
  C   -2.81543938007164     -2.05728754273062      5.10799570648482
  C   -3.64373361163922     -3.34826393491476      5.11233497494706
  H   -2.56055242591226     -1.78231661577412      6.14583187974796
  H   -1.86912758629594     -2.23684070614460      4.57787637030507
  O   -2.97931646299189     -4.38693859024841      5.84254663273379
  H   -3.76309989234275     -3.73203550268404      4.08919004944064
  H   -4.63666792183258     -3.16441145306660      5.54742554518097
  C   -3.15631374946064     -4.41358374605508      7.18272997600967
  C   -2.43236989100818     -5.58340712898260      7.80005568761830
  H   -2.82804888841427     -6.52510471234839      7.38825309911751
  H   -2.56222724165763     -5.56492242838770      8.88878163926714
  H   -1.36260724059072     -5.54227604295593      7.54300708007341
  O   -3.81689265146195     -3.60132763449954      7.78402037991509
  H   -6.84527525579041      2.50674174964534      6.62056434788961
  N   0.28829960000535      1.80726916217868      4.99025790942484
  C   1.60800096451256      2.19700399092968      5.48664602433479
  O   1.76129911952401      0.51620774422937      3.85505078035283
  C   2.61461113186719      1.51119906197861      4.46596818353153
  C   3.25264404274788      2.39230450454949      3.40922998078670
  H   -3.49818345648430     -1.68423045155855      1.67623813666982
  H   0.74190742501448     -1.09195844334665      2.24200130014452
  N   -1.14555966629225     -2.42554325788874      0.76831741353611
  O   -2.10436930879637     -2.95317892271528      0.22995320048320
  O   0.02234319234720     -2.63699933045970      0.48827914958425
  H   3.40157151047508      0.97505137776170      5.01559305634073
  C   4.39940933047646      3.13797350585470      3.72878189378198
  C   2.72644860898299      2.48048826834994      2.11212421018417
  C   4.99481061842722      3.96585927747833      2.77434030139636
  C   3.32676601007686      3.30636062917253      1.15650641674735
  C   4.46087556918979      4.05383400758159      1.48462422329448
  H   4.83242881765403      3.09307597056192      4.73119697587754
  H   1.85317818934623      1.88528936167297      1.83943847715437
  H   2.90694709469788      3.35891190275188      0.14821420808101
  H   4.93058823146521      4.69820967146258      0.73653553238040
  H   5.88259443839489      4.54320708549692      3.04538037983167
  C   1.78308243923673      3.68390674435009      5.70668088090337
  H   1.74230574600702      1.70111292300031      6.46656470989927
  C   2.78020124829735      4.12321629744172      6.58776020371106
  C   0.99999505124044      4.62694240662166      5.02891464119001
  C   1.22553326636699      5.99310844585246      5.21895558251119
  C   3.01568284476659      5.48885596561151      6.74521987120752
  C   2.24130946040656      6.43419553487832      6.07032516295456
  H   0.20828033773476      4.28095985564429      4.36242296721052
  H   0.60640885634205      6.72508217547427      4.69378503195493
  H   2.43985718292317      7.49665848463496      6.22521784602717
  H   5.69368212556613      6.03191974379247      9.60011738456929
  O   3.98646100050492      5.96909401808369      7.61964542088031
  C   6.11210732388671      6.21871539170145      8.59879731012724
  C   5.27481575255179      5.52231860152626      7.55670209531380
  O   5.66635861518568      4.69627095658735      6.77568695810842
  H   6.08505706955417      7.30724873040572      8.43514176700390
  H   7.14471783838027      5.85364697574200      8.54526858863874
  H   3.38679507876328      3.40311415710777      7.13936804668193
