79
Coordinates from ORCA-job 787_0.0
  C   0.64443403481142      1.24124600375947      3.66778449514245
  C   -0.59096646955050      0.55218747101086      3.26029030267835
  C   -0.67139914422191     -0.26757306299869      2.17975492080230
  H   -3.23803366665225     -1.35414889537639      7.84711584880799
  C   -3.65331945086122     -0.40105051505479      7.51190946853373
  C   -4.23970865144030      0.48705419898816      8.42818425116257
  H   -4.27429250306092      0.20965450507557      9.48534240835806
  C   -4.77048747676215      1.71261842026952      8.01535083849216
  C   -4.73530629812607      2.07579615435987      6.65726505398524
  H   -5.14767492702592      3.03533278650220      6.33365114016133
  C   -4.16603398181928      1.20377148937085      5.73828338104321
  C   -3.62094414187968     -0.01609024220566      6.16879238496368
  C   -1.97984889910545     -0.78028548451211      1.87111599302088
  C   -3.06145237009317     -0.55272509711536      2.64369001035433
  C   -2.93947424601066      0.18768493519930      3.94667805860322
  O   -1.64222437083397      0.87261807846106      4.02636580340896
  C   -4.04295329717294      1.29995864271193      4.22394685126191
  N   -3.06629882089842     -0.70554163364020      5.07681441262090
  C   -5.39417134937913      0.90105182392238      3.58906159651602
  H   -5.70231843738716     -0.11554552794594      3.87894704863800
  H   -5.35849099458277      0.96020207554145      2.48911306176557
  H   -6.17411003025401      1.59482385822639      3.93651629817924
  C   -3.62035581549497      2.68576067693258      3.71794919270796
  H   -2.72839550704554      3.06254407739148      4.23461832709962
  H   -4.44063127426327      3.40142493406368      3.88690426712774
  H   -3.42092668588877      2.66490652460265      2.63396706450757
  C   -2.21050005000156     -1.86308817206051      5.26081081031181
  C   -3.02697258984814     -3.15697767110342      5.36451682419605
  H   -1.60565884764265     -1.73976400893172      6.17544311713513
  H   -1.51059795775847     -1.94175691503139      4.41690404709446
  O   -2.18924841757515     -4.27463318604663      5.68795152412342
  H   -3.48835687912276     -3.40095798922626      4.39717044231113
  H   -3.81545737583168     -3.05154144453978      6.12368938118817
  C   -1.89750992323418     -4.47175932635022      6.99269630147997
  C   -1.04354513153202     -5.70071391768681      7.17745275451425
  H   -1.56647031546886     -6.58381692108588      6.77862410809442
  H   -0.82315032129013     -5.84006060437765      8.24254815501197
  H   -0.10701194043781     -5.59494808112868      6.60781326880252
  O   -2.28319312713580     -3.74701300137114      7.87827097146115
  H   -5.21645932524767      2.38976165192342      8.74803800473857
  N   0.74523123510028      2.04741815264906      4.65031323880903
  C   2.10024079233966      2.63363264501540      4.56986057683277
  O   1.74946807957245      1.01889961068674      2.90401633605138
  C   2.83686891145300      1.59327850970821      3.66661074708896
  C   4.01028845706305      1.96436513172537      2.79345775748119
  H   -4.02875240724469     -0.95727336484246      2.35418256730425
  H   0.19239275826901     -0.49714772124739      1.56358898581372
  N   -2.14342690351693     -1.58648747919709      0.63451821610731
  O   -3.25727159589575     -2.00414844662363      0.36587374308716
  O   -1.14035873993646     -1.78083120135969     -0.03192829156281
  H   3.17621207876334      0.79394154108979      4.35465889809837
  C   5.14187323556045      2.55212523028349      3.38216371764080
  C   4.02607839616103      1.68247767722635      1.42012216905323
  C   6.25977356468083      2.86978286965925      2.60856592424277
  C   5.14816070329761      2.00087351398968      0.64687939832458
  C   6.26594741299103      2.59698453065127      1.23608207515942
  H   5.14883681625076      2.77006897706841      4.45420936376686
  H   3.15417456104516      1.21632653067109      0.95878641119783
  H   5.14617197850433      1.77804639352517     -0.42353512254153
  H   7.14120901793906      2.84583126755608      0.63030306462938
  H   7.13063338832464      3.33334331199588      3.07959209598560
  C   1.95515931728812      4.09365487394484      4.14367023425174
  H   2.54519049341754      2.62657738148241      5.57599869701586
  C   1.38048824942279      4.97895335984714      5.07646193839515
  C   2.29505342330653      4.61096390447414      2.88585773360245
  C   2.10111734465408      5.96362674720271      2.58551739733227
  C   1.18749113436320      6.32906963625604      4.79143460646782
  C   1.55698162210657      6.82581053881643      3.53922673708676
  H   2.71836973914370      3.95720184301200      2.12542413249669
  H   2.37965816268431      6.34063426464390      1.59824274117604
  H   0.73953657960361      6.97473694505951      5.54866776352115
  H   1.40694244800105      7.88346336427608      3.30773651095900
  O   1.01730911746505      4.46402927893695      6.31357156803861
  C   -0.32118961519822      4.24379488466212      6.56137258539127
  O   -1.19468008975958      4.67176237764207      5.86033828522746
  C   -0.49176426084379      3.39417225099252      7.78878610180789
  H   -0.31057272986701      2.34918319812542      7.48886769199683
  H   -1.51903931185580      3.48150777628538      8.16342975340809
  H   0.23955361247198      3.66201308358565      8.56445145884809
