60
Coordinates from ORCA-job 788_0.0
  C   -0.61728993740110      1.33272285820626      1.74320446133953
  C   -1.73523857479527      0.45684862157867      1.82349066014812
  C   -1.83018394188229     -0.64191345642282      0.97833309345220
  C   -0.82624443229041     -0.87582632247710     -0.01940128200895
  C   0.27759837536780      0.03507024411331     -0.11364254462969
  C   0.35631421550222      1.12996137195907      0.79563582242752
  H   1.20009950301997      1.82222100712332      0.75009350231943
  H   -3.05790730319223     -0.34675267323263      7.20852321933023
  C   -3.78474762298805      0.29421473477512      6.70479394830698
  C   -4.48225263723221      1.28240613749956      7.41818955637989
  H   -4.28926276707318      1.39576619520991      8.48859729137253
  C   -5.40543090528677      2.12250759246480      6.78875326422302
  C   -5.65649903983860      1.98516101992393      5.41212070450297
  H   -6.37683924829897      2.64256202669167      4.91658196754507
  C   -4.97664785299476      1.00936159750050      4.69411049080272
  C   -4.04777795842759      0.17374747521410      5.33716192879531
  N   -2.90630552508878     -1.52087695585679      1.10961586740250
  C   -3.75745285475508     -1.33625757642520      2.04625306721668
  C   -3.72884444395361     -0.21960813520100      3.07313891634867
  O   -2.69366967402024      0.74845122868429      2.72329528279998
  C   -5.08093284836348      0.59527854557185      3.23205030529901
  N   -3.47580120542832     -0.71447828087120      4.40871842559999
  C   -6.31204782661452     -0.32597077022337      3.06682512942145
  H   -6.24452876267335     -1.21578150882652      3.71107703931021
  H   -6.44153847265972     -0.65375857811695      2.02266357868818
  H   -7.21707025504142      0.22765872754392      3.35895734747413
  C   -5.17891214856846      1.76477147216345      2.24553484406982
  H   -4.36182849046639      2.48470649628478      2.38217331900861
  H   -6.13507628633976      2.29259371177578      2.38943922064452
  H   -5.15422486596171      1.40636158771446      1.20322613002341
  C   -2.27340660454597     -1.47070860261226      4.72604596675752
  O   -0.55749021845263      2.42241007549469      2.59512081081674
  C   -0.37876552015950      2.18601618788277      3.93526243134346
  C   -0.55120773106424      3.45605101312802      4.72200776053236
  H   -1.63038852128632      3.65697866523103      4.82482224593389
  H   -0.09953787859640      4.31036548949362      4.19819158905174
  H   -0.11618826558411      3.33130168921100      5.72122915501467
  O   -0.13241855776581      1.09860510139471      4.38050611356353
  C   -2.61135771239796     -2.76908357704127      5.46628495430902
  H   -1.58419123487166     -0.85675794326284      5.32936501404346
  H   -1.74127301885476     -1.71233079533065      3.79488774763655
  O   -1.41812052589627     -3.42062509799675      5.92217122171752
  H   -3.10393065336971     -3.48527030314739      4.79320900152670
  H   -3.27191737938759     -2.56776651043474      6.32168743020709
  C   -0.90827167027744     -3.01741978501786      7.10628214571818
  C   0.35416537579248     -3.77288476104828      7.43766576839499
  H   0.18218869603489     -4.85701876317592      7.36018559357621
  H   0.68794733414904     -3.50714819642554      8.44793563245805
  H   1.13768249501946     -3.51388916785596      6.70766897617609
  O   -1.40959848875390     -2.15952911716937      7.79272815660274
  H   -5.93161345964081      2.88749974780368      7.36521452299938
  H   -4.57239940344792     -2.06239727885679      2.15193162863222
  C   -0.89390960710430     -1.97464312804748     -0.91604922165328
  C   1.27054453982437     -0.18867172272950     -1.10699939753289
  C   1.17921135582131     -1.26371545787607     -1.96810164656880
  C   0.08776724929471     -2.16191462745659     -1.86972446051107
  H   2.11160428988683      0.50709688412069     -1.17665838749328
  H   1.94887282764071     -1.42517606045206     -2.72739655065214
  H   -1.74007186400352     -2.65792993672760     -0.82946472743708
  H   0.02390793974341     -3.01081241544049     -2.55598403277778
