55
Coordinates from ORCA-job 78i-_0.0
  C   -9.95202460737810      9.33844507498866     -7.67344452973652
  C   -9.91182539991406     10.01392921373435     -6.44320928706073
  C   -8.66866149752753     10.26314260228461     -5.82953445194647
  C   -7.48842388637987      9.84175876944008     -6.46411056136515
  H   -6.52945731584558     10.03984109911002     -5.97751378571348
  C   -7.53543242946944      9.17849806574275     -7.68956184347498
  C   -8.77253119357685      8.92813969585492     -8.29308056412732
  H   -8.84431343674570      8.40714150261008     -9.25013273190784
  H   -13.61155502556771      9.61522270659061     -1.43761887335535
  C   -13.61771282302463     10.63363272380349     -1.83138765542927
  C   -14.38072587950465     11.63136479174723     -1.20328740439086
  H   -14.96667501815372     11.37129428601664     -0.31725558452349
  C   -14.39417525504258     12.94364603213620     -1.68052125582410
  C   -13.64608685976505     13.28009899262124     -2.82432211850409
  H   -13.66787858070160     14.30317811234404     -3.21114457183104
  C   -12.88777748086722     12.30552402624867     -3.45708546277668
  C   -12.86729076935674     10.98586094383984     -2.95918078098924
  C   -8.69980243373469     10.93384668398442     -4.53804657970504
  C   -9.86657704652418     11.29997365063223     -3.98362148857343
  C   -11.21301485144848     11.03847930308633     -4.61916140084853
  O   -11.09291857653779     10.38813585963186     -5.89031148440063
  C   -12.09740792355546     12.35474085454912     -4.75815277151433
  N   -12.03756770722170     10.19066616953376     -3.74051757145507
  C   -13.08893326846145     12.20717924932915     -5.93531886771726
  H   -13.65715743047608     11.26831319171058     -5.85972654450720
  H   -12.56842794579141     12.22353762651861     -6.90328500099362
  H   -13.80560969643784     13.04244542847288     -5.90385481735172
  C   -11.26195724847656     13.62511502266735     -4.95882520324464
  H   -10.61480501160317     13.84947444429388     -4.09868395836753
  H   -11.92613808598931     14.49087404613216     -5.11063873396707
  H   -10.62784536049746     13.53682834150059     -5.85531784734675
  O   -11.17119785482709      9.01661361727642     -8.25046227552379
  C   -11.89962032470279     10.00883235202895     -8.84939343652766
  C   -13.21928803700829      9.46533865158384     -9.32968597201356
  H   -13.06132654145578      8.56564597438529     -9.94346007157190
  H   -13.74738085346231     10.23524697038069     -9.90478135546260
  H   -13.82589784683377      9.16554188720811     -8.46035790796414
  O   -11.51193576411567     11.13981735555912     -8.95580124754451
  C   -11.76442335046584      8.79504587563116     -3.49243879993795
  H   -7.75249392528458     11.11974017608916     -4.02330399946123
  H   -9.90298627418616     11.78924946005781     -3.00722545910649
  H   -14.98455284504718     13.70771065885659     -1.16921724216638
  H   -6.61409006574025      8.85435050780862     -8.17844151252650
  C   -10.80381911706326      8.51356704600527     -2.33325733062289
  H   -11.36595664346629      8.34746598676361     -4.41598967288420
  H   -12.71956921626787      8.28035009397520     -3.28941202567779
  O   -10.74897573648682      7.08849810829961     -2.18591175193834
  H   -11.15531166254184      8.96990968569841     -1.39338084078505
  H   -9.79587562213889      8.90614745865403     -2.53127753898253
  C   -9.86058905706136      6.60254234540518     -1.29204907882923
  C   -9.88395364395873      5.09314211179150     -1.26723496318775
  H   -10.91423348102952      4.72640138833139     -1.14473334627960
  H   -9.24806957776282      4.72938669125704     -0.45101126755477
  H   -9.51068864918866      4.70279878871890     -2.22774595431303
  O   -9.14647386432693      7.30601829707701     -0.62247321618838
