63
Coordinates from ORCA-job 790_0.0
  C   -8.03938061434806     -2.51040226100066      3.79961681617576
  C   -7.28522944227131     -1.32071249031739      3.70850009511355
  C   -6.51967752319755     -1.05542977233898      2.55086928186484
  C   -6.52436496003923     -1.97597449045699      1.49630611320736
  C   -7.28002096281835     -3.14074339163465      1.61048724740330
  C   -8.03918756282009     -3.42145847693875      2.75312507528207
  H   -4.96746705575303     -0.68892368756640      8.58936973765146
  C   -5.80866618574502     -0.00845015925950      8.45031285275884
  C   -6.62803880300647      0.33042622874181      9.53808018252433
  H   -6.42348343911910     -0.07455597190402     10.53153830743285
  C   -7.72801802947003      1.16526120250096      9.35900931134782
  C   -8.03200969574946      1.71204422007764      8.10332437232918
  H   -8.90003925905062      2.36632997733321      7.99473022512271
  C   -7.22162961574541      1.38226651824693      7.02831124027098
  C   -6.12420039375183      0.51834984301780      7.19657497914533
  C   -5.76879609235353      0.19261570589929      2.53961884024672
  C   -5.72461172034827      0.99381266262143      3.61956811360527
  C   -6.41504662140904      0.66126821552904      4.91311725268048
  O   -7.36448011861925     -0.45416231676166      4.72050026583724
  C   -7.27515936428936      1.81853674592558      5.57058657571886
  N   -5.49406256611785      0.29531757966218      5.96692171787967
  C   -8.68972190916500      1.91481779327994      4.98840274245055
  H   -9.26310438278558      0.99438497289329      5.15713350501626
  H   -8.65552774844822      2.11087973676649      3.90434707035242
  H   -9.23010930161537      2.75235949882718      5.45773881184470
  C   -6.55866083529883      3.18133212288062      5.43162918244358
  H   -5.51250305486667      3.12591113714607      5.76853300674002
  H   -7.07324435095483      3.92770268230791      6.05532974617724
  H   -6.57778272069132      3.54303491870213      4.39111409822294
  C   -4.54538292328601     -0.79272335335121      5.80370313853310
  H   -5.22434701656570      0.46114545873188      1.62982707071403
  H   -5.12866368466893      1.90684774502914      3.60947492352881
  H   -8.62178373142577     -4.33950909490989      2.81551850658317
  O   -8.83825874838298     -2.73232699499208      4.90209475340241
  C   -8.24224163590049     -2.96953258331205      6.12129003207080
  C   -9.27624495748308     -3.01301917402956      7.21728831707427
  H   -4.14113275028335     -0.77349823035950      4.78223228424798
  H   -5.00682502698867     -1.77857183332778      5.99174966787838
  H   -3.70013147997917     -0.65375482045603      6.49621251317218
  O   -8.53435725050430      1.48276493671160     10.45603525430803
  C   -9.63648351060850      0.71488841912394     10.69079686382115
  C   -10.36540336703141      1.20513156054655     11.91604005633231
  H   -9.69839061664090      1.15781980185657     12.79096013668838
  H   -11.25693437216667      0.59002218374817     12.08699694106830
  H   -10.65077624460487      2.26040645658085     11.78435542253573
  N   -7.28440849691293     -4.10449466687900      0.50008622182723
  O   -6.61119798313841     -3.83730433233757     -0.48483148359987
  O   -7.96071891093970     -5.11412027258453      0.62840993328586
  O   -9.95764581310615     -0.21714960729963     10.00146987375617
  O   -7.05606749252451     -3.11276787951340      6.24320813034900
  C   -8.83450803831932     -3.81319932998864      8.44386583099462
  H   -10.21983228104064     -3.39256070462533      6.79308632760635
  H   -9.47412730847118     -1.96280191792736      7.50370322378005
  C   -9.88931945320497     -3.82381246610764      9.55490417768198
  H   -7.89060145325621     -3.38771307127612      8.82425890585559
  H   -8.59856165168735     -4.84956935499283      8.14078672614598
  C   -9.45401997046329     -4.61858453905680     10.78741369564153
  H   -10.83067480368429     -4.24797370020846      9.15820065042391
  H   -10.11977293494824     -2.78350190851458      9.84216503876438
  H   -9.24432784542509     -5.67285278333593     10.53736881178904
  H   -10.23208277028361     -4.61106166251996     11.56798620694415
  H   -8.53484878924978     -4.19797237474901     11.23006523338275
  H   -5.94920235697399     -1.79797864985419      0.58744984656529
