107
Coordinates from ORCA-job 793_0.0
  C   -0.95693252810358      1.24366268007581      1.69229576340865
  C   -1.60337177533529      0.04766457890314      2.06271592265346
  C   -1.14827192134180     -1.18283493892890      1.54404623656106
  C   -0.07875220914998     -1.19547012554472      0.63903440863304
  H   0.27245724800772     -2.14532889928113      0.23224120067083
  C   0.54415241038721     -0.00142345828461      0.25431635627382
  C   0.09895190007697      1.21954474013453      0.79483028420998
  H   0.58976442571063      2.14975866922372      0.50475504502631
  H   -2.74496956489501      0.53913227073045      7.43742984572765
  C   -3.64157998946626      0.64488263619650      6.82476286874775
  C   -4.68430556741257      1.49116620813988      7.23516235764161
  H   -4.58854440917467      2.03019880698908      8.18182651676389
  C   -5.83010052607775      1.66185879794353      6.45444548735633
  C   -5.95489366374762      0.97603677249491      5.23220466199734
  H   -6.84949682991671      1.10988359454963      4.61712312655243
  C   -4.93167952878802      0.13460470943615      4.81769214804669
  C   -3.78079567176364     -0.03235856901280      5.61014634390513
  C   -1.83520076449591     -2.37638975869507      2.01565529419949
  C   -2.79654571095729     -2.31001238235263      2.95500545766681
  C   -3.24600897293955     -1.01964962354474      3.58377229592095
  O   -2.66306277377812      0.13366405121232      2.87656620638614
  C   -4.81218410357086     -0.76267261815616      3.59295501805279
  N   -2.88890026147072     -0.91213837240901      4.98450651437633
  C   -5.58313384202324     -2.07415153892541      3.86917634552318
  H   -5.19391093373135     -2.59179554259753      4.75907820516904
  H   -5.53749734130236     -2.76246123497027      3.00988503199256
  H   -6.64186664429719     -1.83955721043302      4.05620536515072
  C   -5.31586174212790     -0.13380647252926      2.28928911641054
  H   -4.85194572362354      0.84294629774235      2.10114691500046
  H   -6.40787452207644      0.00350434552002      2.33834386375707
  H   -5.10433664609695     -0.79015316840711      1.42924492633632
  C   -1.52191492405145     -1.09802188499271      5.44885474937192
  O   -1.42261662109458      2.45195062888073      2.18072203849331
  C   -1.28754432232862      2.71084169151951      3.52182645360204
  C   -2.00569832254899      3.98200352275431      3.88428179323498
  H   -3.08595766705140      3.76898507790619      3.93886741783878
  H   -1.85415275884430      4.75320194192291      3.11570814450865
  H   -1.66089859603014      4.33147486609890      4.86514987942103
  O   -0.68390074666232      1.99382761665998      4.27127783784791
  C   -1.43546391847263     -2.07560242374874      6.62642271733982
  H   -1.06905194499902     -0.12579180273467      5.70929916081688
  H   -0.92040812972637     -1.49700545692912      4.62163990082259
  C   -0.00688560965907     -2.40372861539316      7.00214649585017
  H   -1.93146220883956     -3.02705046822616      6.36355245221773
  H   -1.96123055294104     -1.70621687712285      7.52013365907092
  O   0.03304956127502     -2.98922916092678      8.23284857185605
  C   1.23023720721530     -3.44040881670153      8.78131960836258
  H   -6.62766198379900      2.32911917848559      6.79025315625228
  C   1.67653170149805      0.03652658704490     -0.70685235287111
  O   2.23734649827746      1.04347634128291     -1.07622214171158
  O   2.03913665415213     -1.18946738619078     -1.14924430940989
  H   2.77938110454314     -1.04737355879779     -1.76273599935960
  H   -1.53284164691756     -3.34428798513141      1.60538218519892
  H   -3.26869258436317     -3.21858463221475      3.32970232116520
  O   0.95893564637603     -2.20833887511492      6.31390911364161
  C   1.23663481835751     -4.73379469441618      9.30791046033672
  C   2.39066971024926     -5.22803452200983      9.91580580948545
  C   3.55684706102945     -4.44519088554375     10.00948751466113
  C   3.50793950773589     -3.13388621875002      9.49706546214838
  C   2.36388309359418     -2.62946373590651      8.87812936599387
  H   2.35604283126691     -1.61929550386150      8.46880369149397
  H   0.33070459122727     -5.33999419993934      9.23909732280703
  H   2.38935841147059     -6.23978772665014     10.32569971869504
  H   4.39157805957379     -2.49594688222600      9.57547343065336
  C   4.62138963026257     -8.35933448050369      9.31238290123605
  C   4.20820771232295     -9.12777250795182      8.22701003390750
  C   4.89745394147419     -6.98229814697982      9.18397893395953
  C   4.37355013715351     -7.17660692138260      6.80457424158278
  C   4.07865809716911     -8.53867800331923      6.96001272655238
  C   4.77395554336256     -6.41481142429470      7.90302073180470
  H   3.98283826272134    -10.19079573296669      8.33804724528170
  H   4.72555116032748     -8.83567853880107     10.29059930939821
  H   4.29124525347982     -6.70966400036036      5.81724604999746
  H   5.00056489281959     -5.35634947196456      7.76046542307532
  C   5.34692078969253     -6.17709938668076     10.36063251153476
  C   4.79932583128578     -4.95749084697777     10.66667761047787
  C   8.59223492935187     -7.97173488427200     11.26376384279689
  C   7.55351378763531     -7.38180678226759     10.53769986621354
  H   9.43538586860272     -8.40301611959128     10.72315320395781
  C   8.53334323509888     -8.00576035651823     12.66651532106148
  H   7.61661717665328     -7.37256967347913      9.44671270478632
  C   6.44189303697976     -6.79553880873347     11.16689456532498
  C   7.41311718468206     -7.44993416589270     13.31144612974709
  C   6.39396132068588     -6.85689526322979     12.57576288568054
  H   7.36899991213288     -7.49672304776547     14.40179945892322
  H   5.53552365947210     -6.43419685536472     13.10170783549725
  C   5.14420466019878     -2.53681826322489     13.59022195878296
  C   6.50402953685869     -2.21308265488119     13.54015825478060
  H   4.50251433353801     -2.09244513191692     14.35626869590673
  H   6.93119456116800     -1.51324170180417     14.26345375578738
  C   4.59852410443078     -3.42449085811756     12.66022832635894
  C   7.31056902089784     -2.78505310428798     12.55087453293557
  H   3.53260585699398     -3.66317923051870     12.70114832814239
  H   8.37219363110198     -2.52884372075365     12.49435455712581
  C   6.76646304143159     -3.68177121863137     11.62861134369178
  C   5.40182651819914     -4.02614316523873     11.67138698288073
  H   7.40334876595726     -4.12208465627194     10.85847102669693
  O   3.67690223092744     -9.32671709981634      5.92908149522141
  H   3.63116204795888     -8.79863519104832      5.12088621965768
  O   9.48486583197079     -8.53498264384615     13.47826696184451
  C   10.65305541722008     -9.14248997319621     12.94229855787525
  C   10.42757853742213    -10.58733261318000     12.51288457205851
  H   11.38935588225910     -9.10389469766086     13.76037283990175
  H   11.05884961124023     -8.53418100500711     12.11388511635151
  H   10.04001982594383    -11.18097448164778     13.35561135118380
  H   11.37851618924481    -11.03653724390172     12.18247381273379
  H   9.70813329563913    -10.66332630999740     11.68309301732896
