62
Coordinates from ORCA-job 794_0.0
  C   -3.22551952368919     -2.39475543620740      0.65877468077417
  C   -2.47403701869275     -1.49123381320476      1.41289902575001
  C   -1.20635762064007     -1.06042664278705      0.96626300609321
  C   -0.72380095178067     -1.54775175324514     -0.26019435144797
  H   0.25880904914018     -1.21760215275336     -0.60986905508924
  C   -1.46894322078486     -2.43698539041642     -1.02712398978412
  C   -2.73401914295434     -2.87501887822111     -0.57153516826333
  H   -3.89996347116531     -1.34946624948924      7.08265482836829
  C   -4.36820788644544     -0.58697589378482      6.45703849683639
  C   -5.63054567304827     -0.08114962791059      6.79084851250254
  H   -6.13844538366782     -0.45192602174673      7.68421303231603
  C   -6.27487040299389      0.88948130599782      5.99749522753577
  C   -5.61401918283508      1.36201859582861      4.83255663292130
  H   -6.10687352131264      2.11281669530628      4.21012907457048
  C   -4.36518749491581      0.86947813654106      4.50056540104756
  C   -3.73950865387543     -0.09999404383753      5.30719826047777
  C   -0.46631508590478     -0.16184785154780      1.83690983052123
  C   -1.00910723068213      0.31180735015457      2.97273751139732
  C   -2.41986409014058      0.00144341038461      3.39908205741182
  O   -2.99378661599911     -1.07156471485732      2.59179597132738
  C   -3.42081364170132      1.24079184449456      3.36556034930323
  N   -2.49430508799498     -0.43816871549730      4.78135495950181
  C   -4.10417254532851      1.39831481835429      2.00272437424553
  H   -4.70873732688588      0.51872259507494      1.74587246690906
  H   -3.36173199409996      1.55792996926429      1.20378076368750
  H   -4.76726614007400      2.27814643956460      2.01560847166892
  C   -2.68915664226778      2.55055794723174      3.73628397004443
  H   -2.15285575351465      2.45802479593738      4.69305011975363
  H   -3.42491083088229      3.36211657770863      3.84470506141057
  H   -1.96933937548495      2.84549022543930      2.95626833215956
  C   -1.77856476288049     -1.61471439342247      5.22446249735812
  H   0.55576536495868      0.11161294261959      1.55759997701743
  H   -0.44260216134585      0.96433856452957      3.63860516007133
  H   -4.19758713172686     -2.71711101457399      1.03463469433290
  H   -0.82014967245936     -1.68069193554841      4.69015208162853
  H   -2.34261438918000     -2.54975346469817      5.04441021275005
  H   -1.56025196059271     -1.54313229179487      6.30236236655007
  C   -3.50948069220727     -3.79168513391242     -1.35188739088784
  C   -4.15831839848982     -4.56859344499509     -2.02787327247189
  C   -7.56901533326937      1.39253626315421      6.34987717901404
  C   -8.66524927190526      1.83975195779401      6.63324787584593
  C   -9.97941771564558      2.37444181277309      6.99030572321286
  C   -10.34185809490929      2.21136956671181      8.48008508930987
  H   -10.75768811835998      1.88731813055618      6.37271114918114
  H   -10.01757160256567      3.44716729476914      6.72293643904954
  C   -11.71213327193942      2.79913130070097      8.81913007957031
  H   -9.55986013308066      2.69282452599792      9.09172919228382
  H   -10.31493989545678      1.13911507124139      8.73930999166900
  H   -11.75172732551295      3.87928212574414      8.59746842275330
  H   -11.95281684365314      2.66939603156952      9.88690316100570
  H   -12.51416221256986      2.31478988565024      8.23647769440100
  H   -1.08514323113834     -2.80555935620075     -1.97995802019278
  C   -4.93397115061006     -5.51963588222546     -2.82485675505439
  C   -5.61090236340782     -6.63645555549712     -2.00130508743252
  H   -4.26818381597753     -5.97484150088397     -3.57978487233751
  H   -5.70555898237398     -4.96927476994870     -3.39595172481620
  C   -6.68218905720525     -6.13147928482965     -1.03447805210899
  H   -4.83334891638825     -7.18900654131257     -1.44655091464000
  H   -6.05737429953793     -7.35505924953890     -2.71037810854578
  H   -6.26187982343083     -5.41453754312570     -0.31115608959931
  H   -7.12796131260720     -6.96298158899646     -0.46509718582083
  H   -7.49891096390846     -5.62236604408316     -1.57338936704799
