62
Coordinates from ORCA-job 795_0.0
  C   -5.51395243046820     -0.47926634566334      1.73446712266110
  C   -6.11290452791290     -0.65867073279503      2.99705660463319
  C   -6.59956855652384     -1.93023914060698      3.37012212777370
  C   -6.50762143675532     -2.99308574239302      2.46410143385085
  C   -5.93097484727076     -2.78089277662655      1.21359778192308
  C   -5.42671808177293     -1.53266339658031      0.83529418413750
  H   -4.33605828897426      1.20524046888085      8.58075258960750
  C   -5.32145302273778      1.61973974079889      8.36113189400536
  C   -5.98395238212685      2.38922191443724      9.33038039098500
  H   -5.51446564992917      2.56447885325149     10.29771018459897
  C   -7.25445918331459      2.90205878128239      9.06901698942922
  C   -7.88859106249889      2.67469252739875      7.83625041466111
  H   -8.88099288012675      3.09821265044184      7.66575218400031
  C   -7.23274502115579      1.91940138920549      6.87670865067230
  C   -5.94899772058016      1.39610507542471      7.13255935898144
  C   -7.17138558814523     -2.04479871129531      4.70490233414101
  C   -7.20768115170559     -0.98133553755302      5.52372007850481
  C   -6.63174583897851      0.36955957889175      5.16663586174018
  O   -6.20401410306621      0.41887822527063      3.79356007981698
  C   -7.62480659728646      1.57650191393908      5.44551741986552
  N   -5.48904789895785      0.68158544009567      6.02963690183699
  C   -9.09955484785910      1.20346620695870      5.25359625310400
  H   -9.43448777107761      0.42341142753343      5.95220038506845
  H   -9.28289334848307      0.84797913389869      4.22677716280545
  H   -9.73541296194330      2.08869281727934      5.41362321119115
  C   -7.27201492665090      2.77331801888776      4.53237195500739
  H   -6.20704370415631      3.03525709668346      4.60996635186491
  H   -7.86506523771468      3.64828789456188      4.83956646866491
  H   -7.49267862397443      2.55031793990674      3.47824473365702
  C   -4.31410817751988     -0.16183256221900      6.06439995189576
  H   -7.55737542844029     -3.01641144130938      5.02581872669220
  H   -7.61155983731698     -1.06117457812208      6.53574984422495
  H   -4.97207853954728     -1.39187888209771     -0.14420947892322
  O   -5.06365321607450      0.77217545691564      1.36373532865176
  C   -3.98145267985389      1.26534627770926      2.02140320958439
  O   -3.80160144115818      2.51478399891409      1.61726013682883
  H   -4.01591169725933     -0.41874881012841      5.03837622474184
  H   -4.45228507528526     -1.08975084908874      6.65394359441926
  H   -3.47812376796105      0.40349091514630      6.50375786290128
  O   -7.94630951951260      3.71548606144535      9.96512442786707
  C   -8.02702663883639      3.40316478216789     11.27363868353510
  O   -8.76810535667349      4.34460011148629     11.86031518817437
  N   -5.84245291108805     -3.90074569055420      0.26312786294604
  O   -5.34090021189758     -3.67823289279684     -0.82842853392824
  O   -6.27551777418323     -4.98473518635821      0.62462278575219
  O   -7.52591241507471      2.45639921061318     11.82137618085699
  O   -3.30836583971406      0.65644620022972      2.80954691414971
  C   -2.68056291836056      3.21583392100016      2.19364323287905
  C   -2.61745909164803      4.58901696567335      1.55997467873041
  H   -1.76449668735850      2.63131020146013      2.01094247682832
  H   -2.82338588781622      3.26981583930455      3.28527393689283
  H   -6.87949179503394     -3.98522047871605      2.72081857120124
  H   -1.77393612429010      5.15581369443799      1.98422888758039
  H   -3.54376831860291      5.15345073275969      1.74805976929809
  H   -2.47267252163106      4.51487525485454      0.47110786961796
  C   -8.97387970983766      4.19502392871712     13.27628178748989
  C   -9.83810208477051      5.34701358662971     13.74432217650152
  H   -7.99358984048357      4.18251767854998     13.78079073176957
  H   -9.44888373456630      3.21875197050955     13.46766499934446
  H   -9.34789134516026      6.31322350400126     13.54824456946061
  H   -10.01805049963191      5.26295050281775     14.82761625257923
  H   -10.81175122126382      5.34361586453184     13.23011004026635
