54
Coordinates from ORCA-job 796_0.0
  O   2.15003258486101     -1.42132596274815      0.13626644528633
  C   3.32743116672638     -0.56411905434338      0.05711897448412
  C   2.95860458524780      0.87299007449363      0.30990781825665
  C   1.67631531076737      1.31719039629358      0.27517468111966
  C   0.56697474387551      0.37568241406151      0.01868298243077
  C   0.90712317395885     -0.94466906040366      0.01433000630941
  C   -0.80756883714328      0.88847176899648     -0.12106245270106
  C   -1.05100739765915      2.26853380425440      0.16164868303352
  C   0.06375672934049      3.13973839270283      0.51244450790342
  C   1.34337346146421      2.70602605311741      0.54622098319957
  C   -1.92408120473091      0.13294310234921     -0.53972470855099
  C   -3.20639660740009      0.67248110548304     -0.63017622429606
  C   -3.42742593846898      2.01342679501420     -0.31419577323124
  C   -2.34766965918282      2.80360345411710      0.07038357861084
  H   -0.16627494027033      4.18778658014086      0.72402498184263
  H   -4.02308680079730      0.02416388578217     -0.95393150292226
  H   -4.43258644248941      2.43593527848437     -0.38102356795022
  H   -2.49605407856410      3.86185426648393      0.30170628731479
  H   0.18202190365746     -1.75519271800884     -0.01892608247965
  C   4.34042941402874     -1.10069420912737      1.07301724960115
  C   4.21701526918596     -1.14342321373595      2.45694081370860
  H   3.31682178046422     -0.76407916357427      2.94775048740693
  C   5.27112689173823     -1.68265517476929      3.20921664013653
  H   5.19451754072572     -1.72683426721836      4.29879059110601
  C   6.42347073196436     -2.16308445312233      2.57352746012541
  H   7.23842648649244     -2.57711641956709      3.17345854755093
  C   6.54510723494556     -2.11907407227016      1.17873036630077
  C   5.49220531054981     -1.58736331688402      0.42907756029470
  C   4.07058321056689     -0.81636343857851     -1.26546739432631
  C   5.32528056929335     -1.41669312642255     -1.02581391707402
  C   6.17827536387636     -1.74325105147327     -2.08076496684576
  H   7.15181832406440     -2.20383009896985     -1.89667693016561
  C   5.75679165220097     -1.47117726853813     -3.38833204598050
  C   4.51813573728925     -0.87593297163853     -3.64067720844952
  C   3.67178247639718     -0.53934237536398     -2.57160083981979
  H   2.16025452159031      3.39366044164418      0.78163082367629
  H   7.44822922674240     -2.49640935232195      0.69203305290366
  O   -1.78293806946711     -1.22130598163840     -0.85844813986271
  C   -1.68752686632565     -1.57965771208695     -2.17713358636088
  O   -1.69564437165311     -0.78699324427735     -3.07928846295080
  C   -1.54421443243580     -3.07353670470245     -2.31093433233180
  H   -0.50446601061576     -3.35605195472929     -2.07491911809489
  H   -1.76261605969398     -3.37036035330719     -3.34426617121911
  H   -2.20233183072803     -3.59854239206921     -1.60421617879005
  H   6.40537028065383     -1.72346507040185     -4.23133122623704
  H   0.55754110706326      2.00670591768334     -2.64913094394907
  O   3.14688081893998      1.63173918676696     -4.17486730586432
  C   0.80088194418735      1.52333219027297     -3.60900409444321
  C   2.24245394412202      1.10161791097511     -3.59134020018548
  H   0.64773932130026      2.24330404556797     -4.42243746015552
  O   2.41583955535107      0.00511294230400     -2.77198745438703
  H   0.12498780968293      0.66257458571391     -3.71012613433709
  H   4.20697342607793     -0.66241777521374     -4.66263355120922
  H   3.78128593823178      1.55501736480291      0.53642445256860
