54
Coordinates from ORCA-job 797_0.0
  O   1.83886161385238     -1.38850804476393     -0.34753181510489
  C   2.92663235744954     -0.41979700428514     -0.24011338851550
  C   2.34055068368109      0.96323450487263     -0.10475481495460
  C   1.16505519448937      1.26626894727472     -0.71436914067997
  C   0.41118863291654      0.20378761084942     -1.41000699038893
  C   0.76705790632361     -1.07356155364864     -1.08866467977737
  C   -0.73891865904698      0.56725860750241     -2.25172753745843
  C   -1.26983303784244      1.88706948424904     -2.14236318419831
  C   -0.60363997037955      2.85722868259273     -1.28187294606599
  C   0.55234259080305      2.58214964508328     -0.63549489319573
  C   -1.34078288124084     -0.28378167077478     -3.20098083420560
  C   -2.45192762979670      0.10274369187924     -3.94838467050052
  C   -2.99683714256708      1.37825374304545     -3.78322997472283
  C   -2.39639978635946      2.26571953681442     -2.89395956181670
  H   -1.04744092244557      3.85436162595360     -1.21135956386058
  H   -2.87535693083849     -0.60945639264701     -4.65961135635439
  H   -3.87321881827934      1.67933455061619     -4.36203876755486
  H   -2.79037434107878      3.27918141586159     -2.77922438039633
  C   3.79717405817492     -0.84271712087720      0.93965510977555
  C   3.44033000913147     -0.92696064602333      2.28019085461067
  H   2.42594373320622     -0.67777410132752      2.60221740593854
  C   4.40576164782411     -1.34379695671149      3.20919402776668
  H   4.14456044043023     -1.41914036823020      4.26799434073022
  C   5.70255264638979     -1.66465171235287      2.78855131972271
  H   6.44511775253979     -1.98586177617941      3.52404135451094
  C   6.05995494223020     -1.58143537780525      1.43651164834307
  C   5.09740019012714     -1.17254513711919      0.50952186029959
  C   3.90158434279201     -0.58465696250876     -1.41821439768067
  C   5.16217208401111     -1.01521640375249     -0.95498083010114
  C   6.20845411016868     -1.22698411052540     -1.85727131114501
  H   7.19311489803160     -1.55133273173021     -1.51109202636313
  C   5.98010380571473     -1.03015515094269     -3.22422108027183
  C   4.72220522948862     -0.61237144554693     -3.66555247192707
  C   3.67328745271376     -0.36664829333965     -2.77217441042059
  H   2.71280862919440     -0.02498895853245     -3.16017355520879
  H   1.05772904380879      3.34991578792721     -0.04325996004840
  H   7.07379477669991     -1.83774818496155      1.11787767628225
  O   -0.85029854489461     -1.57407479798353     -3.41713186273363
  C   0.19276844526561     -1.73973461219231     -4.29285266937425
  O   0.71905624869474     -0.81820652742101     -4.86033705034326
  C   0.54990867639392     -3.19504841337089     -4.42472766531858
  H   0.69277092610319     -3.64049170432212     -3.42852749173913
  H   1.46932114139681     -3.29616522127416     -5.01346512828664
  H   -0.28286120803215     -3.73388964279576     -4.90486538443190
  O   3.69026216349674     -2.46073079973903     -5.34597198989585
  H   3.45531672951752     -1.64434197864736     -7.83544677251528
  C   3.89587150678275     -1.35124504563920     -5.76176750235830
  C   3.49395819485693     -0.82116870699184     -7.11015998456895
  O   4.50802489484127     -0.37820010543795     -5.02009248655519
  H   2.47963781734807     -0.40265473793727     -6.99858617851555
  H   4.16744684279907     -0.02350966210232     -7.45093746714879
  H   6.77191515354140     -1.19832567996470     -3.95716110905805
  H   2.88839159153821      1.70360965025445      0.48188829645544
  H   0.16873076803235     -1.95181974437076     -1.33212460867381
