54
Coordinates from ORCA-job 798_0.0
  O   2.16042931808350     -1.03141882729196      0.50989808844001
  C   3.37923898441765     -0.25739204797412      0.30617451450145
  C   3.13111621065922      1.19186116706635      0.63087640970003
  C   1.88480329076785      1.72985626089531      0.59170140873441
  C   0.71271957379563      0.87005872838818      0.31948407842023
  C   0.95160753309203     -0.47322695369153      0.36012259215813
  C   -0.62020285312304      1.48447252733024      0.16693746135966
  C   -0.76405217180746      2.87594326412333      0.45862226170031
  C   0.40509580277200      3.65966383729545      0.83563069059163
  C   1.64874363775045      3.13382739187695      0.88369340456534
  C   -1.78369745367370      0.80954367785973     -0.26322272914189
  C   -3.02431348370626      1.44157770278494     -0.35826544982626
  C   -3.14676569689284      2.79376791850681     -0.03842958154925
  C   -2.01707640534994      3.50392634697489      0.35864542746720
  H   -3.88773172669753      0.86383016505782     -0.69075603839505
  H   -4.11857394948600      3.28764392199423     -0.11054067325973
  H   -2.09196662105751      4.56887278724461      0.59476588340187
  C   4.46891673089720     -0.89754813753257      1.16735141310707
  C   4.50700396072518     -1.01145740096692      2.55206177376599
  H   3.69188879247217     -0.61733986839709      3.16465842230766
  C   5.61026717895702     -1.64334215887077      3.14516806089908
  H   5.65908692705288     -1.74457947169689      4.23256786546089
  C   6.65130430757609     -2.14549197031039      2.35350480331003
  H   7.50592444784939     -2.63295631867143      2.83045833369282
  C   6.61057802255955     -2.03138833944971      0.95791740707655
  C   5.50917408399973     -1.40682804988957      0.36664237929872
  C   3.93347055651837     -0.48967433177255     -1.10699139197743
  C   5.17650136670811     -1.15240167979820     -1.04716284366795
  C   5.87507373502777     -1.45207823202471     -2.21513688126000
  H   6.84520167476070     -1.95317529358138     -2.20450583201508
  C   5.31178568764190     -1.09088979697278     -3.44749559679285
  C   4.07702003936086     -0.42889446564301     -3.51952690242859
  H   3.65386851305449     -0.16315338512559     -4.48504002031107
  C   3.39280487949943     -0.12130430263016     -2.33403913585132
  H   2.43886041855716      0.40905048139024     -2.38904115831475
  O   6.10589822985021     -1.38873704657530     -4.54571211239284
  C   5.64076243421360     -1.61255963051952     -5.81000522747521
  C   6.79968614433119     -1.91980150356433     -6.72555194693317
  H   7.51971356864211     -1.08673629655197     -6.71265195954954
  H   6.42744710367664     -2.08236461069058     -7.74415181959852
  H   7.33245724820344     -2.81563686241571     -6.37011505893301
  H   7.42652923811078     -2.42854310514007      0.34823509604568
  O   4.48421212977026     -1.57073494364692     -6.13076074928946
  O   -1.70431170771858     -0.54785435736086     -0.57092732055366
  C   -1.99137508450634     -0.98218245832708     -1.84349864823677
  O   -2.32263096395793     -0.25314723688236     -2.73483289493121
  C   -1.81221197571211     -2.47643064071020     -1.93050626947789
  H   -0.74518496882987     -2.72853576532990     -1.81786787109572
  H   -2.16903702397025     -2.83105536413153     -2.90500683967828
  H   -2.35612074446720     -2.97626854409120     -1.11490724106708
  H   0.16694783975369     -1.22683651036567      0.35254272269141
  H   0.24808786104913      4.71932471327797      1.05629340505974
  H   2.51018437758070      3.75646715342115      1.14022826836774
  H   4.00068098121839      1.80414786310630      0.87970802188001
