63
Coordinates from ORCA-job 799_0.0
  C   2.85671192308135      0.38504204190006      0.89714716575086
  C   3.25390857068653     -0.94959092155099      0.28324503191807
  O   2.08927042398559     -1.79882278153630      0.26952444364503
  C   0.90171023486303     -1.27772611920318     -0.13058710927907
  C   0.59298864649993      0.06459767907012      0.04877553187301
  C   1.60632047713582      0.85331039450832      0.74448768225553
  C   -0.69074768833367      0.56528787620975     -0.36107701479857
  C   -1.64038981635086     -0.35582793150167     -0.91476697164049
  C   -1.29477700288937     -1.73254492208615     -1.05203472606308
  C   -0.05248305392608     -2.19781314096119     -0.66848779869639
  C   -1.06273694286955      1.93206176615095     -0.24560513557565
  C   -2.31098152949504      2.37034789376783     -0.64611432759207
  C   -3.24875033154064      1.45943380254862     -1.18629908717996
  C   -2.91563490631129      0.12608039553823     -1.31851706825751
  H   -2.03608543819007     -2.40916233260455     -1.47800746787801
  H   -0.34700430846943      2.65340055074808      0.15304819189522
  H   -2.57272571653410      3.42736776119253     -0.55008402469273
  H   -4.23356229862305      1.81349410267221     -1.50227426949825
  H   -3.63468536202014     -0.58255902636774     -1.73992324453931
  O   0.36922900336748     -3.48563825168132     -0.76196877644965
  C   -0.51950077727437     -4.45979229669807     -1.26789611529029
  C   0.20284478789134     -5.79410985941704     -1.21469246248996
  H   -0.81219118765221     -4.22802006306807     -2.30908327472498
  H   -1.44320018620533     -4.50625687155311     -0.66180034020228
  O   -0.70813880007290     -6.76571008769118     -1.73474987077069
  H   0.48911582275676     -6.04881899570367     -0.18172063431967
  H   1.12534456277723     -5.77286031598515     -1.81667658154041
  C   -0.26272703292063     -8.04243508250430     -1.79629528659945
  C   -1.31827081733870     -8.95737578059262     -2.36685026472683
  H   -2.22978678437722     -8.91240506425403     -1.75063672231965
  H   -0.93534823508211     -9.98443343267577     -2.39881663085415
  H   -1.59465029146717     -8.62628385802319     -3.38019670101395
  O   0.83820709138874     -8.37073027123125     -1.43536583887842
  H   1.32253834603437      1.80655858237198      1.19567619511430
  H   3.60505813195318      0.92517803220298      1.47648150065631
  C   4.29186726133267     -1.66651558919281      1.16600472589156
  C   3.97733174649873     -2.85394265414604      1.84038160094201
  H   2.98278182748426     -3.28457373790545      1.72608748354007
  C   4.93100181362632     -3.48285883700679      2.64869702369663
  H   4.67011929989529     -4.41094810899969      3.16497070418001
  C   6.20612684488719     -2.93325740801087      2.79883299088879
  H   6.94917842341810     -3.42597080756060      3.43165596014664
  C   6.52449112155739     -1.74670174849677      2.13017478529472
  H   7.51992710365479     -1.30661862067369      2.23610587367771
  C   5.57634892924534     -1.11879204380544      1.31931006975226
  H   5.84115151380156     -0.19621824685254      0.79870260983279
  C   3.77793645609265     -0.85253150772517     -1.17735502416228
  C   4.51123683415825      0.22871308383602     -1.69191368630994
  C   4.98124891755283      0.23418393331101     -3.00945319847299
  H   5.54570651449322      1.09535407947294     -3.36938699654238
  C   4.72594841170875     -0.85154171436590     -3.84423906655143
  C   4.00486909270929     -1.94378977210014     -3.35402090631590
  H   3.80149093876806     -2.80362377826501     -3.99738862928015
  C   3.54329548762644     -1.93930930303340     -2.03820546166482
  H   2.97363530346119     -2.78809685460515     -1.65714585402415
  O   3.84562810097980      2.86395608707922     -2.12530246540100
  H   4.42115553330466      3.36257396895426      0.83537977620916
  H   4.84124681008993      4.55303949943143     -0.43731899820446
  C   4.98595568559753      3.52026621069359     -0.09770317020134
  C   4.48430468608679      2.56980782082313     -1.15490760453687
  O   4.85462068608490      1.28467390842176     -0.84678221827758
  H   6.04653400103743      3.32983273797208      0.12350296270846
  H   5.09288114036914     -0.84308406924100     -4.87370128405236
