55
Coordinates from ORCA-job 79_0.0
  C   -0.58907681731569      1.13557385817199      1.93899864780744
  C   -1.69303383623123      0.26898560954618      2.01999992014292
  C   -1.73020074466929     -0.88177578590260      1.20971626027136
  C   -0.68384919008324     -1.13414366548224      0.30598990162578
  H   -0.71696303971349     -2.02540607375830     -0.32375995735597
  C   0.38875128383078     -0.24928746860702      0.22383531051874
  C   0.44686610576882      0.88574250977332      1.04221668232674
  H   1.28694901854249      1.57956535165826      0.99606941358579
  H   -3.06201769326761     -0.12387835540143      7.39898241132570
  C   -3.77097853097060      0.49293787025136      6.84233917776561
  C   -4.43715261228548      1.55853196825530      7.46894137046000
  H   -4.23694532497678      1.75837243675381      8.52533094848069
  C   -5.33866155171756      2.36673974123197      6.77032367632716
  C   -5.60038821459898      2.11630298966992      5.41132754051391
  H   -6.30563707575936      2.74823574237930      4.86347836798808
  C   -4.95213474866356      1.06296797635985      4.77899453526226
  C   -4.04310163975950      0.26107063180065      5.49071683459978
  C   -2.87382326467229     -1.76386612158738      1.39115636392598
  C   -3.80007149530599     -1.52396812760932      2.33755224957729
  C   -3.74634283950505     -0.34136454460868      3.26692913656904
  O   -2.69378107442818      0.59654877781526      2.85607268954954
  C   -5.07696251940238      0.52092661449546      3.36128310620231
  N   -3.50263638354810     -0.72136623344923      4.64500219107814
  C   -6.32875513823660     -0.38412965739845      3.29086428712389
  H   -6.27182220812414     -1.21131332059717      4.01476909418687
  H   -6.47304151009007     -0.80369400815218      2.28212909888391
  H   -7.22001913687694      0.21245023558194      3.53723443518873
  C   -5.15838429873070      1.59511852696633      2.27106382375019
  H   -4.33412026390632      2.31591988319242      2.34593738900156
  H   -6.11002705072712      2.14334863527234      2.35795989159281
  H   -5.12976240013017      1.13851842312940      1.26804459786284
  C   -2.32953374983614     -1.48835536407374      5.03105826034367
  O   -0.55838083940720      2.27828371669687      2.71736944426138
  C   -0.43371543203024      2.13472594673715      4.07866554060169
  C   -0.64335977302428      3.45428129253834      4.76830671603708
  H   -1.72782833108652      3.64321101538569      4.83035434335311
  H   -0.19011412273706      4.27682332619671      4.19738159787059
  H   -0.23368386795602      3.40621820141287      5.78471797858787
  O   -0.20228901863702      1.08228766604563      4.60641078526300
  C   -2.71931060750459     -2.71658159375706      5.85983975948802
  H   -1.62632984523333     -0.85382071840285      5.59549739514962
  H   -1.79956004290914     -1.81763296582457      4.12623250763433
  O   -1.55403849998610     -3.38660279628416      6.36001346823359
  H   -3.24379325788940     -3.45500755159551      5.23656663757552
  H   -3.36889874516096     -2.42894806026225      6.69879958110202
  C   -1.02312627254260     -2.92326871202422      7.51258734773249
  C   0.20892724556240     -3.70567175714967      7.89348204984460
  H   -0.01294943525506     -4.78354912171446      7.90729257205879
  H   0.56661365729040     -3.37468971651849      8.87591594849911
  H   0.99425657778184     -3.54404344662982      7.13790124908899
  O   -1.48670937910630     -2.00092412526542      8.13897255575121
  H   -5.84063730749900      3.19374628244074      7.27877142939958
  Br  1.80771853438921     -0.59186406718308     -1.00631126411772
  H   -2.95310229775617     -2.65041530362531      0.75520669914164
  H   -4.62624099391226     -2.21842656689443      2.49172800096048
