44
Coordinates from ORCA-job 7_0.0
  C   1.72571963652483      0.24267035281951      2.07081937625387
  C   0.37141644111659     -0.13485879039755      2.01527174787889
  H   -0.22671189203772     -0.11961975009718      2.92983899024417
  C   -0.24109695917905     -0.50059817017361      0.81659440086388
  H   -1.29473240434857     -0.79266500716643      0.81263841560984
  C   0.49073439549330     -0.47557619090002     -0.37416265268485
  H   0.02032330929258     -0.74995068484828     -1.32182989053960
  C   1.82925926367140     -0.09545812350335     -0.34112967273162
  H   2.42122961001726     -0.05969647244928     -1.25768158654662
  C   2.46722562175284      0.24054496933092      0.86984815145579
  H   7.67251402844092     -1.83636388003566      3.82298827003424
  C   6.91008173675932     -1.33706921547366      3.21872618648825
  C   5.80993881414377     -0.74719895514820      3.84122051348803
  H   5.75064405537068     -0.75514933388505      4.93132076457129
  C   4.79964280736694     -0.10139008117675      3.10555516947609
  C   4.92770731225977     -0.05164230435293      1.70050096999266
  C   6.06248252503044     -0.61754912010247      1.08515787353218
  H   6.14801452445110     -0.53997551424196     -0.00036799829728
  C   7.04177166359844     -1.26939744618896      1.82890830212292
  H   7.90389899995130     -1.71835298111495      1.32900129715365
  C   3.93580504133138      0.54837907781303      0.73696774365106
  O   4.34232650528191      1.10660453480042     -0.26747924802048
  C   2.25138521950689      0.80224253065646      3.36962566654095
  C   3.73127960317046      0.64709984950252      3.86823238226315
  C   1.72143485205405      0.16016663336872      4.68753369159885
  H   2.00048987685255      1.87523776818596      3.38628029527036
  C   3.19608983007418     -0.00008684998376      5.17626878634244
  H   4.13863937357708      1.64711936916765      4.08703880448124
  C   0.84249321328017      1.07123078319185      5.51842898516391
  H   1.22779643409804     -0.80955570404405      4.55421926864399
  C   3.54813609517183      0.59609551204869      6.52270649957537
  H   3.45584187431556     -1.06936667828268      5.24027265134744
  O   1.00409967675367      2.26490103474908      5.61562984005057
  O   -0.15168382152124      0.39935304132635      6.11616936032409
  O   2.82755957977891      0.56133623999104      7.49030822458719
  O   4.78194865323911      1.13002108448790      6.53297639054516
  C   -0.98051977008005      1.15520274713662      7.00212496158809
  H   -1.45473774351551      1.99661157236828      6.47428087858260
  H   -0.38141429417937      1.55264082686285      7.83526782129458
  H   -1.74156410666567      0.45953941285794      7.37719063712393
  C   5.22039915467006      1.69700775902211      7.77149959304920
  H   6.23038780252094      2.08422023302750      7.58895086420517
  H   5.23809043095178      0.93373711041121      8.56426021622189
  H   4.54751302965684      2.51000881044018      8.08283705720314
