63
Coordinates from ORCA-job 800_0.0
  C   2.77161672690884      0.38355482532094      0.90114150164941
  C   3.17826032926378     -0.93300691138201      0.25786890848064
  O   2.03845477555509     -1.81569967660007      0.23124280375164
  C   0.82574295117713     -1.31205701540987     -0.10358442100183
  C   0.48682513367389      0.01557734017201      0.13151112376500
  C   1.50474131261009      0.82092570238341      0.80101122458965
  C   -0.82666250180820      0.49116382131689     -0.21230670207882
  C   -1.77056163664017     -0.43824724823762     -0.76159164442557
  C   -1.39291463357117     -1.79977242577135     -0.95548721990001
  C   -0.12517194134260     -2.24174123539644     -0.63336804596450
  C   -1.23429730592365      1.84134288983636     -0.03522814509585
  C   -2.50850230312255      2.25575201054684     -0.37542774529843
  C   -3.43897334072905      1.33658219837912     -0.91384672152741
  C   -3.07278670359317      0.01876980547403     -1.10286184652943
  H   -2.13166008092990     -2.48390410205566     -1.37392274033797
  H   -0.52778554863598      2.56964300416829      0.36705531288113
  H   -2.79746767555081      3.30010110171485     -0.23066797377897
  H   -4.44449853031576      1.67156500403782     -1.18169087956463
  H   -3.78634171045864     -0.69705912345336     -1.52148763449746
  O   0.32519419054897     -3.51363414672944     -0.77949365454929
  C   -0.55781167612447     -4.49779222565641     -1.27489683972826
  C   0.20409565923908     -5.81089341636339     -1.29538212837513
  H   -0.90433922160338     -4.24488676118489     -2.29449395703823
  H   -1.45117509208160     -4.58958361434806     -0.62956466687099
  O   -0.70205839220476     -6.79301657153207     -1.80409953065691
  H   0.54535375844975     -6.08744461906042     -0.28515018170439
  H   1.09626296600755     -5.74263480994357     -1.93829327213047
  C   -0.23785191111206     -8.06165358217983     -1.88788039185585
  C   -1.29266479197239     -8.98868143550672     -2.44017211353820
  H   -2.18465024922835     -8.97178925849072     -1.79455256572719
  H   -0.89098981417180    -10.00732800758032     -2.49986538990914
  H   -1.60784112445829     -8.64793156821457     -3.43881720743668
  O   0.87649699498166     -8.37541565189988     -1.55650140092441
  H   1.21754047044067      1.76671700276289      1.26499098680973
  H   3.53155979826061      0.94611557332893      1.44685491839246
  C   4.24844753979860     -1.63118493508895      1.11691666120229
  C   3.93542081888853     -2.75602901453256      1.89172147314494
  H   2.92502376880704     -3.16337844946802      1.85537425510038
  C   4.91082053194664     -3.35423656826382      2.69693981684130
  H   4.65203735679952     -4.23483755486027      3.29153623426183
  C   6.20581345431516     -2.83283763689955      2.74504504882908
  H   6.96601322688630     -3.30060114842002      3.37651328568048
  C   6.52317962746484     -1.70928922073327      1.97479875022606
  H   7.53442018773741     -1.29418633577001      1.99700654160180
  C   5.55384661231157     -1.11413940793219      1.16378050060380
  H   5.82971053326641     -0.24965168485805      0.55412923374148
  C   3.69414948664242     -0.76075724745607     -1.18737298071918
  C   4.26599108688950      0.44475846009260     -1.60645976263718
  C   4.82198050945296      0.54016696328336     -2.88498997997032
  C   4.77767145971763     -0.53518499583927     -3.77176477232959
  C   4.17509175356538     -1.72759853256675     -3.35989802375057
  H   4.12668018123484     -2.57392861844957     -4.05021417586248
  C   3.64654376647802     -1.84814552623115     -2.07348866337688
  H   3.18339567532391     -2.78161747385040     -1.74902608786631
  H   5.20829747212744     -0.42360987968777     -4.76894907640926
  H   7.17736178004349      3.34363418769124     -4.34396784489808
  O   6.66984062441811      2.09445718860721     -1.51903031628758
  H   7.48998132220143      4.18951355439050     -2.78298183848216
  C   6.74754279651408      3.64102327938512     -3.37497438781108
  C   6.29663164568880      2.42013590553661     -2.61387298840939
  O   5.38815666866194      1.72012408928310     -3.35586764455600
  H   5.88159848776754      4.28706420655093     -3.58889916668543
  H   4.29054274351202      1.30695952364137     -0.94242585105552
