79
Coordinates from ORCA-job 801_0.0
  C   -3.40035147437220     -0.32958226279265      2.87143109143950
  C   -4.21008667365856     -0.54194840244123      4.00515394663022
  C   -4.68004870084313     -1.84136194882198      4.29709048853615
  C   -4.35919771584215     -2.89902112317848      3.43870724631594
  C   -3.57821284851550     -2.65476310068141      2.31149177414849
  C   -3.08785291171388     -1.37893579855052      2.01810716582392
  H   -3.95215576401279      1.65785595309073      9.81978122051021
  C   -4.89944959474459      1.92997520765618      9.35049553296746
  C   -5.87132154749592      2.62204500832042     10.10003763723905
  H   -5.64900928311719      2.86815175266693     11.13867527351649
  C   -7.09719152859440      2.98024962849842      9.52685774397455
  C   -7.36257888205663      2.65012964590135      8.17823682974537
  H   -8.32647207100714      2.94155667711641      7.75443002555348
  C   -6.40784506181703      1.97056311727496      7.44382512099469
  C   -5.17311577149888      1.61042951655474      8.02301663681280
  C   -5.47338889102382     -1.99392755270794      5.50880069946554
  C   -5.75040866630905     -0.93051922524457      6.27995545995456
  C   -5.24711159689568      0.46529452037865      5.99919564641507
  O   -4.50097968874117      0.52691795142917      4.76702148535289
  C   -6.39930448262532      1.55825323021489      5.97704658694399
  N   -4.38591928568634      0.92327134856749      7.09214963146696
  C   -7.73614740411456      1.01809653573846      5.45624811146700
  H   -8.14107222347244      0.21453607146942      6.08792518445107
  H   -7.63183125605925      0.63038921681572      4.42994502143338
  H   -8.48266627665104      1.82750709132607      5.42825544383633
  C   -5.96103938976967      2.77099584124669      5.12395930861528
  H   -4.98463555591364      3.15650023731759      5.45159734012483
  H   -6.70276030690493      3.57651548617724      5.23554828196642
  H   -5.88671495165777      2.50484358977590      4.05914907832128
  C   -3.15218502057852      0.24288033897140      7.42953367686446
  H   -5.82726263826984     -2.99298722529544      5.77804911908283
  H   -6.33147963842297     -1.03396892133798      7.19945196755718
  H   -2.46911144869176     -1.21487355297191      1.13700635292231
  O   -2.94664269010206      0.94433838812701      2.58253880599333
  C   -1.92915117908113      1.45159943833085      3.35199802316362
  O   -8.09609271328783      3.64133054695695     10.17820046974751
  N   -3.25021787714072     -3.76847866934558      1.40766271788501
  O   -2.57742341229522     -3.51613658073377      0.41954334426907
  O   -3.67098550562585     -4.87751179535255      1.70125752637164
  O   -1.38608514323787      0.81219249771372      4.21168690484139
  C   -1.62590330569736      2.86987343186650      2.95883659223654
  H   -4.71010139324665     -3.91170856061091      3.63815290638359
  C   -7.91197397304257      4.00228093048988     11.52582909964645
  H   -1.42950765393810      2.93073944697748      1.87756428429099
  H   -0.76164938698204      3.23122766530553      3.52871086912093
  H   -2.50449519744399      3.50078460507199      3.16713853376663
  C   -1.96168776046196      1.19942012509198      7.41580431241609
  H   -2.96142576024339     -0.53944728145881      6.68080093894446
  H   -3.22556906816008     -0.26363759622780      8.41103928270818
  O   -0.78414694941781      0.39841545915377      7.54469423038715
  H   -2.00517157814386      1.93671701723784      8.23410207252206
  H   -1.92869628666431      1.74942209461326      6.46570814661272
  O   0.49208611097425      2.23452529538832      7.31535706496880
  C   0.40005005670518      1.03305305627634      7.41729038604931
  C   1.53948641486936      0.03860401176007      7.35525550469723
  C   2.90227767302165      0.59822294371637      7.85369713566172
  C   3.83769685015466      0.42987138827350      6.60843816828554
  H   3.27502369792299      0.05924404674060      8.73627624807377
  H   2.80381282371070      1.66250679870813      8.11387697628281
  C   1.86318970452121     -0.32850506383668      5.84211424980687
  H   1.22231454740851     -0.86661733810706      7.89002715609723
  C   2.81255958159279     -1.51328480438428      5.90475045510104
  C   4.00121958417197     -1.07190970911106      6.35946007742457
  C   5.24056520984713     -1.85851871891666      6.66999039652394
  C   5.63068635648712     -1.87080336486943      8.15720068250178
  H   6.08434865703502     -1.43885789570858      6.08906898397228
  H   5.10670027788106     -2.89443857080804      6.31436452266798
  H   5.81144623168896     -0.85267191254785      8.53906353416617
  H   6.55384922575424     -2.45157030492439      8.31556180573907
  H   4.83658954252755     -2.32327869336176      8.77348717165549
  H   2.53157993922579     -2.55042237557545      5.70381367182153
  C   2.85233482435377      0.80180648607407      5.47881721639084
  H   4.77228619359933      1.00681118604738      6.67295836159603
  H   0.96610520905205     -0.44095906967522      5.21881386661791
  H   3.28195387841124      0.67290485017823      4.47367669213070
  H   2.42538071189017      1.81139890386292      5.58079391806862
  H   -8.83014557520760      4.51574861120202     11.84356471289255
  H   -7.05546864213957      4.69000385582471     11.65659789143849
  H   -7.75493370016878      3.11918637208173     12.17334795761016
