114
Coordinates from ORCA-job 803_0.0
  C   -3.73031231420210      1.21293958607061      1.17462340636575
  C   -4.00960923937875      0.77535250874313      2.50800547361849
  C   -3.39605658233665     -0.34510515026671      3.05018918996966
  C   -2.43365265769706     -1.08872147312750      2.28484498607816
  C   -2.13393143835088     -0.63214345796520      0.95978223780863
  C   -2.80618975594557      0.50841880878973      0.42740287224841
  H   -3.32798838873601      4.04323532937571      7.47420800184098
  C   -4.35575845176708      3.67354885642323      7.47166148440451
  C   -5.22535880143141      3.98254713242105      8.53005908444641
  H   -4.85955518600114      4.60358937892957      9.35237472098779
  C   -6.53600676294589      3.50070188002930      8.55666792016073
  C   -7.01311418412144      2.70554504086230      7.49793141485700
  H   -8.04511753013185      2.34285789823712      7.50777050067363
  C   -6.16726498463880      2.39475709842981      6.44244211353919
  C   -4.84034424221233      2.87253091943189      6.43328236372936
  N   -3.69809777776159     -0.74366515865082      4.35565188008434
  C   -4.44440461124458      0.01356931977238      5.06551848588008
  C   -4.97687162406191      1.37387172116046      4.63209216384722
  O   -4.91388728017263      1.50217836390292      3.22098467729471
  C   -6.44707726834902      1.67339179629368      5.12767178109736
  N   -4.17551847428882      2.42070559538541      5.29703072929151
  C   -7.30928049133853      0.41002555316680      5.25234404823714
  H   -6.94571152614001     -0.28277154879913      6.02492607286396
  H   -7.35006637167348     -0.13073076125697      4.29285401921163
  H   -8.34231444153442      0.68456453892874      5.51795465325459
  C   -7.12996097369891      2.66560390016636      4.15748453885612
  H   -6.51567713906094      3.56490715038609      4.00567227217570
  H   -8.09643704834880      2.97710056382666      4.58242986132848
  H   -7.30365675249711      2.20496596619516      3.17411341398128
  C   -2.90313485287186      2.89289352405863      4.81238463707169
  H   -4.66117033582684     -0.28404987355224      6.10005882415781
  H   -2.59629880962241      0.80162769861034     -0.60013078771813
  O   -4.40816660920723      2.32628794843878      0.78859989998835
  C   -1.15857809245207     -1.34396757349502      0.20973703008061
  C   -0.52379726401778     -2.45006032564265      0.73701756964674
  C   -1.66290013034352      2.10269516493473      5.29650738511015
  H   -2.78571983697842      3.95111944657628      5.09845978289854
  H   -2.92460054189445      2.87413543434368      3.71140111611392
  N   -0.49121193018909      2.44188992190968      4.50741642436089
  H   -1.83318117214487      1.02141085309516      5.20841123705813
  H   -1.42659214624807      2.33134686083010      6.34492573884548
  N   0.34565710450843      3.42353776684361      4.89398306343461
  N   1.23387809348058      3.57553367247456      3.96370347999883
  C   -0.13669707838004      1.96264734677198      3.28795007567126
  C   0.98435327336656      2.70254931463093      2.93943015817871
  H   -0.67379954481089      1.15553732658536      2.79762311389222
  C   1.81420367564133      2.63128269820052      1.72725903945442
  C   3.04233329635833      3.30439917617313      1.68392589912193
  C   1.38077383027999      1.89698986378533      0.61173001103831
  C   2.17490544755839      1.83577728009953     -0.53781928846246
  C   3.41715630481406      2.49259982111806     -0.58742553756235
  C   3.83796647771230      3.22992926273795      0.53464837003924
  H   3.38564198077026      3.87988674279482      2.54330821766896
  H   0.42492149006041      1.37205320436766      0.60653511260217
  H   4.04114209579066      2.43391190918135     -1.47517471617395
  O   1.65929393110581      1.11451881790805     -1.57590761444738
  C   2.38801976035389      1.00316543171574     -2.78677375265021
  C   1.54297220701072      0.28768518336773     -3.81346796840577
  H   3.33585495565378      0.45777049080064     -2.62112218278221
  H   2.64954001063544      2.01312155046434     -3.15927150224885
  C   0.25603619028019      0.75924539489969     -4.12144350456494
  C   2.03500686285250     -0.83098867779128     -4.49860217580411
  C   1.26525806027354     -1.46290220143080     -5.48200767497537
  C   -0.01191678961785     -0.98493201818834     -5.78455609912885
  C   -0.51547319921739      0.12791919214371     -5.09936355711526
  H   -1.51160432939609      0.51155014232416     -5.33765656427155
  H   -0.13822137535828      1.62755668018246     -3.58699943763232
  H   3.03238317901416     -1.21376275658245     -4.26213272773311
  H   1.66494777719328     -2.33335865675486     -6.00914925000135
  H   -0.61504701206524     -1.47579506177725     -6.55298368826621
  O   5.01875232371730      3.90156369111443      0.58913998153462
  C   5.89407515548424      3.90006900260749     -0.51742776029581
  C   7.12487836760875      4.72516457189683     -0.20752605443709
  H   5.37971295298995      4.31869998467626     -1.40651825363565
  H   6.19306768525113      2.86540691896639     -0.77381448759506
  C   8.26961886358598      4.54828938256206     -0.99291745364698
  C   9.40659117082786      5.33691024989020     -0.75376401083565
  C   7.10803200756031      5.67642044094441      0.81877938367748
  C   8.25426123165527      6.45615385774866      1.05609916118330
  C   9.40170761901199      6.28898627937022      0.26750722720830
  H   6.20924114455373      5.78059454876389      1.42147447022301
  H   8.28688942675327      3.79485718662791     -1.78809470245432
  H   10.28722530008530      6.89630213674310      0.45831140320236
  O   8.33823564076680      7.39573380238413      2.02956501138691
  C   7.22699188477682      7.63117280213143      2.88342995408330
  C   7.60747597754369      8.72970873847508      3.85780150113418
  H   6.96101783030869      6.70238493060384      3.42212070118621
  H   6.34542496342291      7.92770764620144      2.28429172083275
  H   8.48107660636304      8.43289700372274      4.45882029384800
  H   6.76923140168414      8.93884728745992      4.54087725077927
  H   7.85943327130520      9.65720650894667      3.32042091800308
  O   10.54476675577235      5.20613534205561     -1.48607773875028
  H   10.41978358257324      4.51764511848112     -2.15199998520601
  H   -7.19150186592398      3.74143219488151      9.39691284816477
  H   -0.89581270306033     -0.99389636733417     -0.79224544679244
  C   -0.83713387735001     -2.90284056731418      2.04596689244045
  H   0.23139196852139     -2.98146267443044      0.14832410496111
  C   -1.77839552258974     -2.22808991883046      2.80759361698491
  H   -2.01651406294533     -2.57206913674337      3.81412142681076
  O   -0.22845765737138     -3.99133532935276      2.58513370079019
  H   0.40793618245742     -4.35191649177704      1.95405249359790
  C   -4.04427557321303      3.05453627456505     -0.37309577342066
  C   -4.86939400080140      2.69493813580934     -1.59335132006801
  H   -2.96449426599812      2.96188260816515     -0.58166764073498
  H   -4.24990365404113      4.11129444712371     -0.13640941206315
  O   -4.46720117951652      1.41441471080397     -2.08895326323995
  H   -4.72488861473940      3.45840705429148     -2.37756044739325
  H   -5.94173514189922      2.67688061229589     -1.34230403501284
  C   -5.19834096518068      0.89385931925171     -3.10474455015530
  C   -4.69681648700112     -0.47630934334387     -3.48626380664509
  H   -3.62246529557093     -0.43837891320847     -3.72432193899137
  H   -5.26443211006552     -0.84747035703567     -4.34810762813266
  H   -4.81514260201205     -1.16529499475772     -2.63498265105375
  O   -6.12407638930538      1.47654197055041     -3.60875822609441
