81
Coordinates from ORCA-job 804_0.0
  C   -1.81559877270238      0.62864101350707      2.77286352076539
  C   -2.84298942117815      0.27882458829241      3.67758429679372
  C   -3.42505864897808     -1.00879337874471      3.67404501047991
  C   -2.97785663479713     -1.95917575101270      2.75146559081667
  C   -1.97188057606591     -1.61158684331192      1.85420178492843
  C   -1.39395732687764     -0.33906162928179      1.85772799509100
  H   -2.80925385089509      1.42852227215654      9.67978989580128
  C   -3.67475456842660      1.92780606427651      9.23983285393921
  C   -4.50864243023840      2.72913425607291     10.03587914999994
  H   -4.27920748075628      2.83958603270103     11.09936205826235
  C   -5.62301239689153      3.37582306792121      9.49710921871765
  C   -5.91418981112349      3.24336725953737      8.12698872181512
  H   -6.77600077402310      3.76382479298414      7.69879062435288
  C   -5.10000346217504      2.45275828599570      7.32762303618609
  C   -3.98689010938065      1.79134156104351      7.88214635513730
  C   -4.46766265054741     -1.27278012666822      4.65376937255953
  C   -4.81453132614097     -0.33999019735663      5.55507287127303
  C   -4.12034655444067      0.99554399492170      5.67114115051155
  O   -3.25360281927795      1.23417336424697      4.54490781954961
  C   -5.11428623489066      2.23393218530897      5.82043294507803
  N   -3.32626134923924      1.05281585948731      6.90609643454951
  C   -6.50670944166743      1.96213223287766      5.23369494563792
  H   -7.04481050341202      1.16581304348003      5.76712401475073
  H   -6.43707752399328      1.67988831154395      4.17104966169313
  H   -7.12233020390047      2.87351657161246      5.29309385449126
  C   -4.51804667787353      3.49020410595225      5.14452099100352
  H   -3.49506145814663      3.69049175525122      5.49317317793386
  H   -5.14181245604743      4.36112920049033      5.39701178086166
  H   -4.49718987477072      3.38593638416305      4.04990496651296
  C   -2.20394425790532      0.17815654435150      7.16260041336571
  H   -4.94844329279360     -2.25459681619417      4.64725045678503
  H   -5.57890441322760     -0.53851292515314      6.30940631654939
  H   -0.60300494253299     -0.12071539809562      1.13937759822554
  C   -1.20811550215504      2.01258836392131      2.77530924026044
  N   -1.50142909996303     -2.60867346977850      0.87987655714394
  O   -0.62478715648326     -2.26896933304601      0.09837074064167
  O   -2.01667356167368     -3.71640891663186      0.90788350025203
  C   -1.97893232426027      2.98485364399525      1.88550696128560
  H   -3.39900560222181     -2.96425005494246      2.72882553653232
  C   -2.54347609220050     -1.11122443276650      7.93001622486428
  H   -1.43642085085563      0.73494229648254      7.72859140875174
  H   -1.74695285757762     -0.09376817530670      6.19991862897719
  O   -1.34943573248167     -1.86987881318681      8.16555378546500
  H   -3.26253856131403     -1.71809317087665      7.36501046116965
  H   -2.95370109117240     -0.88608200514442      8.92395956296466
  O   -1.59795491487710     -2.92557442732335      6.18949653063045
  C   -0.97141248149012     -2.74610403281233      7.20663534530959
  C   0.33077779267973     -3.42832933739031      7.57444452065198
  C   0.68165211754827     -4.62304539016174      6.68586312867993
  C   -0.20257997869548     -5.85518491267251      6.91158704724491
  H   1.73679798980990     -4.89339897738656      6.86671118944910
  H   0.61421390098768     -4.31263450446057      5.62933216197302
  O   -1.32452406526246      4.25832569164924      1.96698428214114
  H   -3.02660518659299      3.08909416662313      2.20780201924268
  H   -1.99482262710575      2.64671000754777      0.83601464262237
  C   -1.90334622940721      5.28304157165130      1.30684312072239
  O   -2.92972012374611      5.16706274640842      0.68202753697170
  C   -1.08317299840594      6.55288973214424      1.43473216887147
  C   -1.83972901147350      7.81882205054421      1.02789169739879
  C   -2.93543747761815      8.23687050571119      2.01534792758825
  H   -2.28696200740382      7.65847509532823      0.03226214623657
  H   -1.11280903579521      8.64280991596382      0.91868464050494
  H   0.28215894632070     -3.70621943875244      8.64100783460481
  H   1.11300615962073     -2.65007102916816      7.51276842694934
  C   0.17319856626610     -7.03723856982715      6.01649531222525
  H   -1.25609108303467     -5.57974012652605      6.73338398191523
  H   -0.13579253844876     -6.15897692608919      7.97313069158387
  H   0.07603923199106     -6.77693489116070      4.94917648968104
  H   -0.47462959238736     -7.90824772446349      6.20603927159732
  H   1.21625406297856     -7.35565900125674      6.18532304094657
  H   -0.19212090060151      6.40893461917320      0.79697315658971
  H   -0.69835389428591      6.61496085330320      2.46645421543596
  C   -3.68144619438971      9.50193511920130      1.58815531859525
  H   -2.48407418216647      8.39263559229851      3.01312929279280
  H   -3.65497968951248      7.40748629040178      2.12618903938923
  H   -2.99606220353523     10.36132594065905      1.48993113006067
  H   -4.45832363212023      9.77880907773974      2.31913412881159
  H   -4.17747867798958      9.36227861668922      0.61289101351755
  H   -1.18696858370032      2.41584353063868      3.79867782478562
  H   -0.16763218959893      1.95978165166390      2.41824012446185
  H   -6.26600859088107      3.98559089903493     10.13611810708899
