133
	Energy:      81.9444999
C         -1.67811        0.64393        2.34901
C         -2.75585        0.17818        3.12631
C         -3.40798       -1.01700        2.80155
C         -2.96066       -1.78372        1.71992
C         -1.86675       -1.34229        0.96440
C         -1.22944       -0.13186        1.26797
H         -1.94859        1.06310        8.61565
C         -2.64369        1.77060        8.17855
C         -2.73274        3.05507        8.73538
H         -2.09716        3.27923        9.58585
C         -3.62251        4.00022        8.21180
C         -4.42096        3.66000        7.11565
H         -5.11576        4.38735        6.70813
C         -4.31699        2.38434        6.56783
C         -3.43546        1.43318        7.09112
C         -4.54942       -1.45162        3.59061
C         -4.88113       -0.72975        4.66628
C         -4.14426        0.51572        5.11339
O         -3.11713        0.95146        4.19191
C         -5.08813        1.77000        5.41531
N         -3.51745        0.19995        6.42101
C         -6.48766        1.39307        5.94185
H         -6.43524        0.69729        6.78793
H         -7.09547        0.92989        5.15697
H         -7.03197        2.27827        6.29261
C         -5.23462        2.71969        4.21958
H         -4.27884        3.16468        3.92278
H         -5.90951        3.55178        4.45242
H         -5.64902        2.19180        3.35379
C         -2.40793       -0.74038        6.50809
H         -5.08773       -2.35297        3.31982
H         -5.69623       -1.07609        5.29345
H         -0.39108        0.21768        0.66669
O         -3.81017        5.27098        8.68513
C         -1.04250        1.98717        2.63027
H         -3.46190       -2.71816        1.47438
C         -3.01607        5.67901        9.79846
C         -3.39078        7.11019       10.14337
H         -1.95133        5.64084        9.54082
H         -3.21666        5.03987       10.66628
H         -3.22376        7.77025        9.28573
H         -2.80215        7.47575       10.98974
H         -4.45382        7.18026       10.39711
C         -2.60222       -1.68974        7.69615
H         -1.44308       -0.22711        6.54943
H         -2.34263       -1.36551        5.61034
O         -1.47255       -2.56631        7.84607
H         -3.47872       -2.32369        7.51912
H         -2.80058       -1.15781        8.63423
O         -0.36956       -0.88793        8.94572
C         -0.42282       -2.02776        8.51077
N          0.56643       -2.95110        8.60737
C          1.79302       -2.69599        9.31582
O         -0.38875        1.96399        3.90171
C         -0.72682        2.97079        4.74459
O         -1.51981        3.86982        4.49825
H         -0.27127        2.20495        1.88260
H         -1.80799        2.76549        2.52836
H          0.38608       -3.86486        8.21782
C          3.02391       -2.87467        8.46357
H          1.80996       -3.40822       10.14864
H          1.79886       -1.68407        9.73512
C          4.22466       -3.25872        9.08043
C          5.42044       -3.34509        8.35327
C          5.40428       -3.06052        6.98231
C          4.21875       -2.67630        6.35734
C          3.03925       -2.56977        7.09555
H          4.23150       -3.47806       10.14711
H          6.31811       -3.12500        6.39509
H          4.21696       -2.44255        5.29542
H          2.13501       -2.23437        6.59281
C          6.70469       -3.72798        9.04767
C          7.70201       -2.59794        9.22826
H          7.15835       -4.54258        8.46596
H          6.49493       -4.16149       10.03399
C          7.34878       -1.36553        9.82976
C          8.30163       -0.34487       10.02237
C          9.03131       -2.81044        8.83014
C          9.98916       -1.82024        9.00541
C          9.61730       -0.62257        9.60882
H          6.31546       -1.21858       10.14059
H          9.32795       -3.75265        8.37208
H         11.01139       -1.97867        8.67372
N          8.08310        0.91238       10.62773
O         10.61749        0.37086        9.72105
C         11.21832        0.67335       10.93852
C         10.97337       -0.28416       12.06977
H          9.94173       -0.22119       12.41985
H         11.62494       -0.00826       12.90552
H         11.23503       -1.30331       11.77670
O         11.93504        1.66280       11.06053
C          6.97852        1.24368       10.83571
O          5.88964        1.60757       11.08468
H         10.02218        2.97001        8.58754
N          7.80053        0.90224        6.40768
H         11.75711        3.10680        8.83187
C         10.93654        3.39626        8.16970
C          7.77216        2.31311        6.40249
C         11.22141        2.85554        6.79903
C          6.50481        2.86989        6.63934
O         12.35070        2.54498        6.43247
O         10.13351        2.74934        5.93295
H          5.67033        2.17936        6.76138
C          8.83450        3.21920        6.23369
H          4.53448        5.26409        6.04361
C          8.77047        0.35524        6.04504
C          6.28191        4.25685        6.73224
C          8.63767        4.60585        6.26472
C          0.85681        1.88802        6.34265
C          3.95843        3.45861        8.88571
C          3.04969        2.52619        9.38702
C          3.87330        3.89143        7.55577
C          2.03986        2.02007        8.57002
C          2.85138        3.37970        6.74250
C          1.92973        2.44354        7.24050
C          7.36757        5.11879        6.52870
C          4.90416        4.84431        6.98828
H          4.75217        3.82411        9.53405
H          3.14166        2.18259       10.41471
H          1.34534        1.28665        8.97634
H          2.77413        3.69898        5.70395
H          9.46568        5.28748        6.08531
H         10.88557        4.48668        8.13976
O          9.72196       -0.24605        5.70564
H          7.22702        6.19819        6.56651
H          4.99632        5.68768        7.68576
N         -0.05507        2.92390        5.92612
H          0.26952        1.13064        6.86779
H          1.32114        1.40032        5.47888
H         -0.39657        3.57822        6.61719
N         -1.38987       -2.15087       -0.16578
O         -0.41694       -1.72867       -0.80642
O         -1.98718       -3.20865       -0.40989
