59
Coordinates from ORCA-job 808_0.0
  C   2.95984632656146      0.14305642245565      0.75345350842499
  C   3.34945362700186     -1.15073878947351      0.05844693870214
  O   2.19672299712256     -2.02877648785253     -0.04852805944275
  C   0.95644643360065     -1.51679744596154     -0.25866712408164
  C   0.63412501075712     -0.21702277717918      0.12980071423466
  C   1.68643220078357      0.57019536179149      0.76030046477894
  C   -0.69633169429170      0.25035100656123     -0.04962346002484
  C   -1.66861530896523     -0.55807159614382     -0.59421614120647
  C   -1.36026568967746     -1.89223420495536     -0.98442368330110
  C   -0.02470322317774     -2.38905321858865     -0.81743817146626
  C   0.27899188557712     -3.72346165829665     -1.20581856431321
  C   -0.68737361883352     -4.54929134335790     -1.74852966239910
  C   -0.34559256269036     -5.94205527605189     -2.20514400906181
  O   -1.28032727777349     -6.86904625929945     -1.62240919903399
  H   0.67987917907870     -6.22187806935883     -1.91756525802086
  H   -0.40599012129282     -6.03403756936683     -3.30391129926289
  C   -1.12578565904273     -8.16850071468164     -1.95365025460704
  C   -2.17384715467217     -9.02682934707832     -1.28636068683404
  H   -2.13607302753572     -8.88806091327458     -0.19479561136617
  H   -2.00292611332749    -10.07987889665939     -1.54065871830649
  H   -3.17794041166784     -8.71804201351336     -1.61741992530851
  O   -0.25621900745763     -8.56439117694719     -2.68973968693294
  H   1.41450138767000      1.50748609013055      1.25503049390232
  H   3.75873226305849      0.70764231069696      1.23881415751416
  C   4.37535515621534     -1.89222859877314      0.93228112541633
  C   3.98157198860839     -2.91567081489225      1.80453432791384
  H   2.93642763616175     -3.22568453560598      1.82829955885210
  C   4.91964648990414     -3.53880706970922      2.63484069075984
  H   4.59765104675049     -4.34102579502886      3.30454247869698
  C   6.25834974184827     -3.13961576948323      2.61392357868078
  H   6.98941505167789     -3.62695192126215      3.26459194884428
  C   6.65646338006571     -2.11296632154027      1.75148642207530
  H   7.70159985796592     -1.79307058188111      1.72216705289846
  C   5.72239441810785     -1.49644410295692      0.91556050810098
  H   6.04903277934713     -0.70544090581056      0.23553547370344
  C   3.88941663859037     -0.93126662325711     -1.37068502946189
  C   3.97960115628050      0.33308221476204     -1.96467309858064
  C   4.45593614473102      0.45869795415195     -3.27418243677363
  H   4.52542519921865      1.44955399461306     -3.73098534647857
  C   4.84101617938738     -0.65734989014681     -4.01980983787220
  C   4.74246519889379     -1.92179633445044     -3.42060793839802
  C   4.27556396272435     -2.05589164648200     -2.11178296505281
  H   4.21606014802857     -3.05651988130033     -1.67999441207442
  H   5.21799498302915     -0.55246014279102     -5.03361607139630
  C   -2.01331233177078     -4.05461155970860     -1.90840009245344
  C   -2.33629250789796     -2.76838844246860     -1.53749088134804
  H   1.30066182028267     -4.08282573219032     -1.06993020375763
  H   -2.78005292039911     -4.71265348473792     -2.32478909137083
  H   -3.35772374526995     -2.39936032693167     -1.66693344793086
  H   -0.93683219418439      1.27137401434058      0.26042046517059
  H   -2.68806265501164     -0.18812630256958     -0.72955597137882
  H   3.67212811748085      1.22141370714046     -1.41041574888770
  O   5.04331342639055     -3.12597962869568     -4.04206015438825
  C   5.84645735265103     -3.27407369572945     -5.13310503624235
  C   5.94780822995647     -4.73652812169916     -5.48959530116854
  H   6.36934810979241     -5.30172465511817     -4.64369338636011
  H   6.58272941618419     -4.85326990719679     -6.37602057054469
  H   4.94451405787524     -5.14634281289692     -5.68481337076717
  O   6.38784822557789     -2.37221971328885     -5.71492000101298
