54
Coordinates from ORCA-job 80_0.0
  C   -1.08046519821691      1.62089691782273      1.49868475561252
  C   -1.90237910373705      0.55131384673058      1.87325702833433
  C   -1.82429103982057     -0.67463248330719      1.18194919208280
  C   -0.92419082673385     -0.79559644054494      0.11084827013603
  H   -0.85979632541738     -1.75663445030930     -0.41057031222028
  C   -0.11552064968249      0.27175828222947     -0.28941575345601
  C   -0.20284498845505      1.47963142266685      0.42347174880038
  H   0.44089135650770      2.31144865314784      0.13140712222630
  H   -3.61467978684178      0.69361567957489      7.46147637352692
  C   -4.33493391433337      1.08753296662546      6.74180290909268
  C   -5.24000708040284      2.09149752551999      7.12229376741156
  H   -5.21298620893309      2.47005558250072      8.14802846556767
  C   -6.16396671236266      2.61588448007331      6.21554391578098
  C   -6.20154792273463      2.13270630967389      4.89489380032883
  H   -6.92463601314249      2.54228102079167      4.18333210940931
  C   -5.31346225225590      1.13903996853114      4.50662635085339
  C   -4.38103532019040      0.62118411665144      5.42452071434570
  C   -2.66370169474114     -1.75973211928661      1.66585048128318
  C   -3.52650412702382     -1.57654743819388      2.68080098381903
  C   -3.72296093701778     -0.25057171015878      3.36680862836030
  O   -2.73837337783986      0.72964455454927      2.92465572582124
  C   -5.16880173607454      0.39443775027625      3.18753629237800
  N   -3.58862322919620     -0.35398007080526      4.81202868806654
  C   -6.25867644695318     -0.69824237776584      3.10772668168005
  H   -6.20310502737313     -1.39341403098285      3.95959453368375
  H   -6.17920125642602     -1.27844619504718      2.17443589824115
  H   -7.25201557359050     -0.22428514595951      3.12949553538785
  C   -5.25017569151593      1.29051589298870      1.94579166681867
  H   -4.55132270119149      2.13452542188450      2.00895614789695
  H   -6.27000316622589      1.69362929452383      1.83925689111928
  H   -5.02540281584781      0.71776046121217      1.03109190481819
  C   -2.36718501322990     -0.85447709742682      5.41422378461702
  C   -2.60610207589791     -2.07400425312536      6.30355003851084
  H   -1.87381796026232     -0.06749722892620      6.01222989819921
  H   -1.65967344638267     -1.13294426768708      4.61934354356165
  O   -1.37426569534060     -2.44963242246978      6.86410424784440
  H   -3.04072256066151     -2.89931380904961      5.70004490134349
  H   -3.34750647215502     -1.83424783565066      7.09526989914571
  H   -6.85623769788407      3.40068891127412      6.53011374729197
  C   0.80262729899839      0.14054884163443     -1.48242102869758
  O   1.93524667910102      0.95878201275915     -1.32121606391926
  H   0.25998551297399      0.42779387138885     -2.41210635463004
  H   1.09835772056985     -0.92226331054523     -1.61534348884795
  C   2.79994571840651      0.95392142193470     -2.42409933426215
  H   3.63876478871065      1.62872121039587     -2.19757335928887
  H   2.29894745542998      1.30993185518687     -3.34854582547879
  H   3.20797069390951     -0.05749549298733     -2.62952793716042
  C   -1.44881944295572     -3.55624487275997      7.72091087944279
  H   -0.43615669933111     -3.75952090954619      8.10023697125422
  H   -1.81818250674365     -4.46358903567446      7.19910616754639
  H   -2.11822207814035     -3.36882282033772      8.58624827676607
  H   -1.14523378832462      2.55492183714001      2.06101621703385
  H   -2.56780671753283     -2.74345326050007      1.19594278098364
  H   -4.13371394548746     -2.40084103064087      3.05679152153640
