69
Coordinates from ORCA-job 1021_0.0
  C   -2.82777384050357      0.56419231578109      3.15122275329396
  C   -3.55872591768620      0.12770989552316      4.27165909646637
  C   -3.80828483522422     -1.25081168939137      4.45106927902453
  C   -3.36537189687859     -2.16065071541520      3.48321136209191
  C   -2.67885965817637     -1.69245984705160      2.36452676253341
  C   -2.39513590231954     -0.33670678758112      2.18644233121915
  H   -4.30796318859425      2.45155723185402     10.11064438950180
  C   -5.24501475222536      2.42164077740667      9.55211335284161
  C   -6.44182907171700      2.82827805405266     10.15079338232367
  H   -6.42757316361695      3.18975660972611     11.18393446544569
  C   -7.66576735454286      2.76758012149124      9.46726373275230
  C   -7.69635484664857      2.30073117214291      8.13055918151132
  H   -8.65965941609795      2.28190171762727      7.61399417207093
  C   -6.52387988954382      1.89939956712955      7.52498471839151
  C   -5.29672103690001      1.95276961493225      8.23143160799907
  C   -4.48832647667873     -1.63789678398312      5.68169456952083
  C   -4.92993520357445     -0.70093494844911      6.53482555570426
  C   -4.82074880362769      0.78482202114844      6.27334864193899
  O   -3.96564935512422      1.06403245840280      5.15005572349826
  C   -6.24546631869134      1.47133042220975      6.08922859419256
  N   -4.26432839236612      1.48740078669468      7.43920284535914
  C   -7.30727174564546      0.54137214102263      5.49015103492046
  H   -7.51219127425327     -0.33130582953301      6.12609530041744
  H   -7.00596950594521      0.18020304149741      4.49356083166439
  H   -8.25382039365628      1.09055876210625      5.36755580213371
  C   -6.10994203671674      2.73553262981370      5.21060653228661
  H   -5.32610142461299      3.40937764467540      5.58747275179227
  H   -7.06319200369141      3.28504488396320      5.22211056205502
  H   -5.86936954361835      2.47649385370225      4.16834314770150
  C   -2.85192841627438      1.65760679069819      7.74250569798888
  H   -4.60344818758478     -2.70223501107714      5.90335947817014
  H   -5.42509693045716     -0.97200055048384      7.47026709785713
  H   -1.84910379660827      0.00259896750406      1.30706717265556
  O   -2.58684893364392      1.91823563603137      2.96897017465760
  C   -1.72814453930104      2.55451944062668      3.80465647513603
  N   -2.22807416514811     -2.65230453014181      1.33866399418316
  O   -1.62822409640398     -2.20259677877685      0.37530242510582
  O   -2.48479736425817     -3.83061643015077      1.52159697361840
  C   -1.66990984958312      4.02377171334724      3.50602381572966
  H   -3.54639416456891     -3.23045588935911      3.59158408358073
  C   -2.12521951662184      0.50154733879446      8.46912929519027
  H   -2.78847539594231      2.56305864507493      8.36569298277762
  H   -2.33725245240337      1.91553736899731      6.80390109232215
  C   -1.41431269640496     -0.53879424447627      7.61181220167024
  H   -2.85232477347223     -0.05362785509771      9.08418574537086
  H   -1.40747301296523      0.91600004842166      9.19460633316202
  C   0.71674132862567      0.79886897259347      7.46598790581824
  N   -0.30090170116604     -0.01091992035597      6.72004790616571
  C   0.33406592964855     -1.19250974974306      6.00650260084612
  O   -1.10678134548565      1.98421786533811      4.67164205323677
  C   -8.91539186172155      3.19010837891357     10.12846589586213
  H   -1.52756550587833      4.18908701124512      2.42782076950774
  H   -0.85959585165627      4.48811885497274      4.08008863883601
  H   -2.63294315270045      4.48284183547747      3.78249055852206
  H   -2.11383533310899     -1.04737685981880      6.93470255843236
  H   -0.91415943276027     -1.28306735515307      8.26621949148999
  H   0.22708645400265      1.67821325461699      7.90067841567278
  H   1.48185398794741      1.13474805802729      6.75661648150002
  H   1.14702139164430      0.14398114951242      8.24934218706513
  H   -0.70586391817483      0.60084246816249      5.99443301169207
  Br  1.12457578308133     -2.11746063323646      9.36651961449315
  O   -10.01375060851919      3.16832270073256      9.61455134392508
  H   -8.78165799216497      3.55172076457478     11.18276965458502
  C   1.33487570418708     -0.79839004876922      4.93281639874615
  H   -0.50516058189807     -1.75080757679064      5.56579760496292
  H   0.78377137978484     -1.80507368060781      6.81219208194563
  H   0.91420175811170     -0.08643860001030      4.20329634194114
  H   1.62412350129424     -1.70785026264073      4.38406071932487
  H   2.25824560742654     -0.37341040847239      5.35315024559900
