74
Coordinates from ORCA-job 813-2_0.0
  C   -3.58356472463990      1.56468861904357      2.19416845453726
  C   -3.71942459142641      0.63677457565875      3.22779123743998
  C   -4.03054069400887     -0.70849149734292      2.95059860734623
  C   -4.23522250593987     -1.09108259232482      1.61751412666388
  C   -4.12549656367780     -0.16435549884461      0.58491212004530
  C   -3.78727436860318      1.18034507521566      0.85533517067416
  H   -1.12294396274044      1.76934288044805      8.46315928388212
  C   -2.17132012620528      2.05144164826620      8.36446817287872
  C   -2.71153295971091      3.08775889510907      9.14221535424604
  H   -2.05847996498191      3.62547140456520      9.83547687554597
  C   -4.05974146337873      3.44234195648608      9.04624669238505
  C   -4.90436072115584      2.74839175492047      8.16243169665218
  H   -5.96185391228948      3.01847962332710      8.08969068446150
  C   -4.38156670902690      1.72255196458826      7.38559192355631
  C   -3.02041629926398      1.38247876476792      7.47796912827443
  N   -4.07950678082595     -1.65598039058743      3.97890936256306
  C   -3.95882466134774     -1.25098664071475      5.18391235268434
  C   -3.80548990061679      0.19259562169362      5.63650640863522
  O   -3.50171772099832      1.04877824089680      4.50363485122752
  C   -5.06537549275136      0.77088623633218      6.41504768079548
  N   -2.71991382944632      0.34234309479692      6.58701645849448
  C   -5.77647958804883     -0.34124966155354      7.22068430085376
  H   -5.07875222247016     -0.87378532715978      7.88466759995291
  H   -6.26174211111126     -1.07611790654275      6.55807164909498
  H   -6.55635113102507      0.11102180980843      7.85210537039665
  C   -6.06867902118378      1.44681975842759      5.47253926292665
  H   -5.61637321818755      2.29199274897011      4.93734904485952
  H   -6.92535609292505      1.82532785877556      6.05243693145549
  H   -6.46500559377017      0.73383653214403      4.73121762474729
  C   -1.36055586369901     -0.00397566305275      6.20386299023278
  H   -3.95935037315286     -1.99749296897469      5.98869182403680
  H   -4.48368345659463     -2.13641075450754      1.41971631301270
  H   -4.45869933225236      4.25441734493704      9.65893246044823
  C   -0.77021483144108     -1.17829025023312      6.97244677744282
  H   -0.70474781613618      0.87771431371695      6.31222176476385
  H   -1.34887394475611     -0.26233677541257      5.13307154715078
  O   -0.58466507929779     -0.79696860596290      8.34072069290951
  H   0.20928494090209     -1.45425486268154      6.54285784246067
  H   -1.42010949420007     -2.06406781885982      6.92498762118454
  C   -0.61890385063766     -1.76992714816633      9.28210890467793
  C   -0.43643909791888     -1.18578344369854     10.66135610523776
  H   0.52517031189357     -0.65217817833461     10.71950199217274
  H   -0.46543587941507     -1.98913676169484     11.40734551926068
  H   -1.23018859931066     -0.44992974234870     10.86410269719836
  O   -0.77671873906981     -2.93672360158563      9.02617742242512
  C   -3.71438743119871      7.87869809032548     -4.03354309639255
  H   -2.95084523391522      7.15309246237536     -5.93987663165704
  C   -3.21544789273454      6.89213675110840     -4.91567037078823
  H   -4.44243841885289      8.31419922762142     -2.03385436867871
  C   -4.05767138967769      7.54969819039346     -2.70926078124454
  C   -3.05341458772426      5.57083610843597     -4.49040827254494
  C   -3.88551430375030      6.23093654701720     -2.32005354862002
  H   -2.66674589220606      4.82234839331946     -5.18658188132767
  C   -3.38875769977044      5.22169988242545     -3.17805421411962
  C   -3.85896298358863      4.39774541686769     -1.10806623976572
  C   -3.37307165001296      4.01117453021814     -2.37593615433354
  C   -4.00734766715480      3.51951511167382     -0.04429461920479
  H   -4.41377063958671      3.87073736178941      0.90511987351670
  C   -3.01720467318758      2.66966921858911     -2.57101576598410
  H   -2.62525776999184      2.32749955679838     -3.53214481684844
  C   -3.65221459523221      2.17061492825512     -0.24596040196353
  C   -3.15978666123364      1.77182865921611     -1.51355240294140
  H   -2.85664877739002      0.73330005950553     -1.65951762718284
  H   -4.32139163059291     -0.47847831987857     -0.44170714599962
  O   -3.89629507994161      9.17727691404325     -4.37888596391632
  C   -3.60936238969544      9.61444684695886     -5.69911278486509
  C   -3.93566046414503     11.09366039231089     -5.78450913298543
  H   -4.99861467820414     11.27096792679537     -5.55908010840573
  H   -3.72557447787397     11.47162974689111     -6.79739568575092
  H   -3.33104125625140     11.66765384473146     -5.06536638493156
  H   -3.29580145020967      2.58500511796321      2.45402519881430
  H   -2.54301807976959      9.43433399020208     -5.93465361845445
  H   -4.21124987036457      9.03798743247224     -6.42727678598467
  O   -4.16895431889865      5.73438097926311     -1.07587716933146
