80
Coordinates from ORCA-job 814-2_0.0
  C   -3.89171438002164      1.50863224601768      2.35206974827856
  C   -3.99649837751521      0.54055955530514      3.35012698867927
  C   -4.33621233420292     -0.78809786586999      3.03635519206742
  C   -4.55713981327907     -1.12249190004989      1.69240834055320
  C   -4.44593043925893     -0.16322854697890      0.68951126565641
  C   -4.11554307143894      1.17322670484874      1.00365494083153
  H   -6.27559005222499      0.70987810372886      9.12559931281269
  C   -5.21452217096356      0.45385185028955      9.14779822329147
  C   -4.56216127113345      0.23958232588650     10.37244028739215
  H   -5.13298940704015      0.33454242777437     11.30033704148896
  C   -3.20905472103367     -0.10199488747394     10.42430261996242
  C   -2.47037150745618     -0.21858369413382      9.23227154728583
  H   -1.40640601421840     -0.47015732650758      9.27057099831826
  C   -3.10070912714555     -0.00970418472627      8.01364938013733
  C   -4.47054045500513      0.32007237856450      7.97009049283023
  N   -4.46233901154920     -1.75266533941661      4.04257532345021
  C   -4.21971743099606     -1.39439074956997      5.24415129550411
  C   -3.85441680788193      0.00579139984870      5.72409645392976
  O   -3.75132437197779      0.92004792310645      4.63678762717166
  C   -2.52777997393778      0.03850891594416      6.60265572371928
  N   -4.88890780862766      0.47481850624993      6.65355996683715
  C   -1.80274511467886      1.38923342658516      6.40661191745107
  H   -2.48028105277478      2.23834668435442      6.57611960927562
  H   -1.39048757949959      1.47867387287975      5.39054078974296
  H   -0.97489054538534      1.46094072875477      7.12903217546656
  C   -1.56323223335164     -1.10955230657983      6.26969559012891
  H   -1.98331349849400     -2.09782199250571      6.50549190878557
  H   -0.63249953150925     -0.99975303094459      6.84856097113597
  H   -1.28845412329662     -1.09667113787741      5.20231655759743
  C   -6.23097368914795      0.81796656038280      6.24464425374208
  H   -4.33215089037641     -2.13740703095293      6.04666399108121
  H   -4.82943298805763     -2.15579541178766      1.46509433818301
  H   -2.72392079267035     -0.27826477291591     11.38723372335096
  C   -7.24282195785141     -0.32947972127000      6.31708022991761
  H   -6.19481572986033      1.21065890319929      5.21687157709846
  H   -6.59495024108568      1.64624181328831      6.87716202307065
  O   -8.51307031359011      0.23007574761614      5.96016878358509
  H   -7.29671737229079     -0.76390012980069      7.32804720013667
  H   -6.98973538427031     -1.14587522626260      5.62248650830043
  C   -9.58376105359930     -0.59275696673135      6.02772987327794
  C   -10.84598551442942      0.12723020901738      5.61857065853716
  H   -11.02204641286127      0.98471859755374      6.28697203822255
  H   -11.69558386416927     -0.56462068081199      5.66473887400968
  H   -10.73805556121508      0.52743271011024      4.59844563039699
  O   -9.50887607521590     -1.74363016770320      6.37628554771316
  C   -4.22543542195712      7.98406940095863     -3.80976917504606
  H   -3.35931525674896      7.27594130283789     -5.66545371287360
  C   -3.65639916580866      7.00617858569289     -4.64890630216509
  H   -5.04018584016990      8.45640738257647     -1.85382018393232
  C   -4.61823575753116      7.68576768113705     -2.50338519886673
  C   -3.46419908621099      5.70167591479966     -4.19396276415314
  C   -4.43027646342930      6.37088786585932     -2.05576021718098
  H   -3.01876254682436      4.94684501228145     -4.84745823357726
  C   -3.84978904361954      5.37143028790080     -2.88601503234346
  C   -4.35306871995996      4.47586091287184     -0.82220312017014
  C   -3.80214389439861      4.15678468534415     -2.09570051838172
  C   -4.45632657711517      3.52039471221162      0.19265568288910
  H   -4.89734774889130      3.77129661957463      1.15908287493193
  C   -3.36200742077378      2.84734233105413     -2.33461841804200
  H   -2.92780011910165      2.57647962823444     -3.30068416505230
  C   -4.01476537217564      2.20955498624060     -0.05751392859985
  C   -3.47242665309922      1.89095212116224     -1.32801222001584
  H   -3.10526059499617      0.87881458477683     -1.50970892975738
  H   -4.64814124592884     -0.44003124045094     -0.34689350923578
  H   -3.60122807305022      2.51986420387484      2.64259175201924
  N   -4.74031624377494      5.81211997312688     -0.81741053930457
  H   -4.35961837809645      9.00201606202066     -4.18534284593083
  C   -5.36884081992869      6.52049173625246      0.27401997761696
  C   -4.36008957533674      7.30283919491906      1.12561154730202
  H   -5.91329556832780      5.80308374192696      0.90669372723182
  H   -6.11241005440974      7.21973117222861     -0.13777480434377
  O   -5.02607209260859      8.03246294978947      2.16346559002512
  H   -3.78576223428861      7.99527560218453      0.49281900023433
  H   -3.66775720117898      6.61920439210900      1.63691433410526
  C   -5.56077761281960      9.22993229796691      1.82809416584681
  C   -6.17813581134988      9.90207314479384      3.02813983529570
  H   -6.90475013242299      9.22875203561392      3.50793111520111
  H   -6.66720784697951     10.83319858426601      2.71793160635872
  H   -5.39662040695681     10.11940968624362      3.77344242213694
  O   -5.52836095314031      9.68090392718364      0.70908264737191
