75
Coordinates from ORCA-job 816_0.0
  C   -3.16479962891000      2.04432598541383      2.01530353095197
  C   -3.53378497659738      1.46293594323031      3.23158034850895
  C   -4.41714745364987      0.36464432699178      3.27092764691050
  C   -4.93094983187835     -0.12075200075550      2.05776375944160
  C   -4.59150505834351      0.46460520376544      0.83970911762670
  C   -3.69957125582705      1.55132053727055      0.81662088193479
  H   -0.04968642733771      0.39017366427962      8.27582807771594
  C   -0.86122042510770      1.07740791879848      8.52274522154458
  C   -0.97691306011334      1.59896106436025      9.82115799754352
  H   -0.24346778701983      1.30505194062132     10.57723405655009
  C   -2.01178664143781      2.47184975141907     10.16363842967186
  C   -2.95249780467442      2.85738547445386      9.19059760093074
  H   -3.75419951048652      3.55457964490217      9.45153437865896
  C   -2.85155224898899      2.35063444592770      7.90242264356407
  C   -1.81272607257363      1.45794540815528      7.56904846425028
  C   -4.72307284520963     -0.19606031474972      4.57736585428435
  C   -4.18043994063379      0.32742536503069      5.68970841902650
  C   -3.21053808169009      1.48699669516156      5.68030092109416
  O   -2.99367994706230      1.99553770160845      4.35797082730222
  C   -3.64483330476275      2.68126443953233      6.64493022754363
  N   -1.91264596855415      1.07539992935234      6.23740212442803
  C   -5.16199169376044      2.76625350674840      6.85755633193890
  H   -5.56890953126907      1.88090167285087      7.36644510908435
  H   -5.68970006591945      2.88373744308871      5.89743862550606
  H   -5.40433105588258      3.64475214642645      7.47663150938110
  C   -3.13223538279245      4.02681019692562      6.08209708863170
  H   -2.05612544342567      3.98670630811226      5.86107871802463
  H   -3.30044163280513      4.81696039243971      6.83007969227329
  H   -3.66134972713679      4.30070438999385      5.15721315062462
  C   -1.02976679537100      0.13467577835749      5.58840127922562
  H   -4.39050902522473     -0.09365848535514      6.67573283650442
  H   -5.62164958841147     -0.96845568034937      2.07891665119794
  H   -2.09079572844994      2.85635498290563     11.18325651676374
  C   -1.25285867698350     -1.33196182928855      5.96909357039915
  H   -1.13101100712000      0.25113901895250      4.49858980599676
  H   0.01334017113046      0.40337803447277      5.82962412129170
  O   -0.19999953272462     -2.08036441851749      5.34762408726772
  H   -2.22823995717928     -1.70433117418582      5.62398653296182
  H   -1.21440673680032     -1.47698073981324      7.06117412624796
  C   -0.27675956409085     -3.42666981214173      5.43530382919044
  C   0.89197873697296     -4.08342765174876      4.74182477840994
  H   0.89785959669726     -3.80890533222211      3.67523301763764
  H   0.81816442675423     -5.17243027921686      4.84822781191393
  H   1.83843650447348     -3.72347885620878      5.17434038915525
  O   -1.17465180865680     -3.99977196739162      5.99965618527973
  H   -5.02014414742949      0.09524130370962     -0.09312828685270
  H   -2.45477904438002      2.87218848155027      2.01634591918829
  H   -5.39329836094271     -1.05897640848752      4.63464854283602
  H   -3.59862246870252      7.06293298815239     -2.28891140489376
  C   -3.55884578672382      6.05591024032831     -1.86642688877209
  C   -3.04630763421134      5.00383432046037     -2.62422376444533
  H   -2.68788671975529      5.17665269347785     -3.64256053379632
  C   -4.03239612308722      5.83053225309560     -0.55968157633379
  H   -4.43904692436402      6.66624876443600      0.01610078234345
  C   -3.00078281828488      3.71806282556076     -2.06587284321628
  C   -2.00203328099469      2.00160474162634     -3.77041923233326
  H   -1.81417004633211      2.69405505414178     -4.59331689897796
  C   -3.99796433244589      4.56115853544035      0.01951592764049
  C   -2.56361158170292      2.42758231700150     -2.56219786729405
  C   -3.47004508644328      3.50827940847594     -0.73991847042460
  C   -1.66552845860130      0.65551722716253     -3.92496141669815
  C   -2.78761019587301      1.48901870418380     -1.51918299050804
  N   -3.33856944773810      2.15310926487341     -0.41675510783996
  H   -4.37531811282083      4.39782029110777      1.03016009747525
  C   -1.87316387922202     -0.27298755168898     -2.88432313288809
  C   -2.43410060787996      0.14480395385979     -1.67507719943402
  H   -2.58630546410631     -0.57846263815400     -0.87244791640413
  H   -1.60030038120104     -1.31435531731601     -3.02975915954838
  O   -1.10155419976499      0.35796878611507     -5.16319679814060
  C   -0.81967372052393     -0.87807226372780     -5.64690876564538
  C   -0.23965637705170     -0.75680640191430     -7.03615009929150
  H   -0.95042392277487     -0.23907145560961     -7.69890029578872
  H   -0.01919870464090     -1.75728396545665     -7.42747169725396
  H   0.67990446593051     -0.15128475687118     -7.00886475712753
  O   -1.00105484909655     -1.91287216513818     -5.05907045996699
