75
Coordinates from ORCA-job 817_0.0
  C   -3.59303407344963      1.32257629825159      1.77877077848606
  C   -3.96270453065186      0.57289686213105      2.89884195956803
  C   -4.82128406929698     -0.53880808739127      2.77497752283328
  C   -5.29858836324447     -0.87388199912372      1.49774248153394
  C   -4.95107299270381     -0.12626888664073      0.37449625423298
  C   -4.09287409918803      0.97836217118411      0.51493908906308
  H   -5.45745505574143      2.56415758720486      8.56905788017484
  C   -4.57975969212092      1.91773606081191      8.63034092400178
  C   -3.96343432988986      1.67533326054954      9.86840511202537
  H   -4.37610774966610      2.14349543207802     10.76645390582152
  C   -2.84705973891193      0.84297555443962      9.97324414189796
  C   -2.30931077381932      0.24453108669126      8.81855220286982
  H   -1.42381996743104     -0.39333116494651      8.89557336827738
  C   -2.90676456877780      0.47454288213996      7.58723557265433
  C   -4.04271818624812      1.30455442053754      7.49246823642942
  C   -5.16781418846708     -1.25089392339461      3.99460938487165
  C   -4.68859564022275     -0.84410674425798      5.18236463118061
  C   -3.79830754593116      0.36587740177883      5.35233688529419
  O   -3.44344267089034      0.95277892816742      4.09521462622747
  C   -2.47392154629231      0.06290655994987      6.18581225488217
  N   -4.47344168245942      1.38387783412179      6.17447350984134
  C   -1.33455763415740      1.00332708301740      5.72979760086475
  H   -1.65022939192836      2.05635659710566      5.74431333918896
  H   -0.99938381823442      0.76079583570800      4.71042713273062
  H   -0.48098899707295      0.89151987697900      6.41604703546984
  C   -2.00526192191403     -1.39321165585256      6.06613061495050
  H   -2.72941292481118     -2.10770348311039      6.48259994618108
  H   -1.05661665863978     -1.52776939486735      6.60987862941586
  H   -1.82247365119755     -1.66237021125665      5.01343287506251
  C   -5.61391816905218      2.14660588525794      5.72523212169795
  H   -4.96185852762136     -1.35366554989555      6.10929395579634
  H   -5.97127180293020     -1.73001330683678      1.39425272012615
  H   -2.39042329094496      0.65763984046771     10.94833621561068
  C   -6.97885531234661      1.52043820531025      6.02579773525680
  H   -5.57675660890064      3.14644525476504      6.19142049271224
  H   -5.52158850582867      2.31168534053260      4.64079367818572
  O   -7.96387285117734      2.46606229420344      5.58786939471423
  H   -7.10895244920287      1.32202534734269      7.10235292701708
  H   -7.11837644881622      0.56618566135811      5.49768822525814
  C   -9.25470434278496      2.06960343183122      5.63968366826773
  C   -10.17749894543024      3.15857203921183      5.14865851997027
  H   -10.04972247664465      4.06478755785600      5.76113416593134
  H   -11.21651405474496      2.81187672460496      5.20218231890351
  H   -9.92250250261597      3.42896614865210      4.11203737827233
  O   -9.59452283603212      0.98153190605899      6.03153776439471
  H   -5.35062301654342     -0.37932942450539     -0.60870305993452
  H   -2.91055679796211      2.16427126479802      1.90258948105033
  H   -5.84077394977953     -2.11092712132338      3.92736936334041
  H   -4.27511699432951      6.84309905743722     -1.83117599144905
  C   -4.17830802759170      5.79288913569911     -1.54441874464088
  C   -3.60217119530066      4.88363831619596     -2.43066244807735
  H   -3.24972654912193      5.20283400273784     -3.41190570805118
  C   -4.64313808596927      5.37192045508093     -0.28447769747052
  H   -5.09889386391390      6.09962341592795      0.39234380917082
  C   -3.48232846529443      3.53766990397733     -2.04779684579415
  C   -2.37120624532408      2.09833668298075     -3.94522804150594
  C   -4.53680463295095      4.04081680393648      0.12101880588167
  C   -2.96956987675974      2.34654688873526     -2.69493493189444
  C   -3.94594480762574      3.13102059893815     -0.76545386988289
  C   -1.95318440453384      0.80671043224429     -4.27368454312607
  C   -3.14397450140121      1.26919695183127     -1.78751629081677
  N   -3.73740648258571      1.75540323780564     -0.61892512344161
  H   -4.90658451153842      3.72178184122202      1.09665988885080
  C   -2.13238282265957     -0.23366179985129     -3.34187930663151
  C   -2.72074797703431     -0.03078244945830     -2.09555778440927
  H   -2.84094733285609     -0.85195784829233     -1.38799613245268
  H   -1.79239401573103     -1.23663499006210     -3.61306340458494
  H   -2.84172760746100      4.98441626830363     -6.59340946740544
  C   -1.78469839981573      4.68275192756552     -6.52713997127297
  O   -2.26269318055770      3.21980497013717     -4.75454581465517
  C   -1.68024050384251      3.27765751019886     -5.98518583721975
  O   -1.16351603945032      2.35128579067474     -6.55024800536303
  H   -1.31909116602562      4.72497995498784     -7.51910312272400
  H   -1.28392747988421      5.38849147727485     -5.84603484698267
  H   -1.48891547772110      0.61289378207548     -5.23566353665416
