68
Coordinates from ORCA-job 818-2_0.0
  C   -3.07548006325580      1.84675453056897      3.53320039327942
  C   -3.44661070552021      0.52165499259918      3.85322882321762
  C   -3.79424682062050     -0.37627220772506      2.82144281319820
  C   -3.75393794781845      0.05085513502877      1.48958896811662
  C   -3.37719635754433      1.36542893980564      1.17527695114714
  C   -3.03712241486362      2.26618558208895      2.20663930707899
  H   -6.48642825817925      0.49943597761617      8.58076509941161
  C   -5.47878458882971      0.12329361975929      8.76258434915052
  C   -4.88089004871702      0.27140931227662     10.01547233253561
  H   -5.41614209604670      0.77022893613333     10.82573511396927
  C   -3.59048480585781     -0.21060350180127     10.29504628274384
  C   -2.85186871070745     -0.82523920948366      9.24523765329234
  C   -3.42647141483332     -0.96091869397726      7.98458373074469
  C   -4.73948213263303     -0.51837239847442      7.76207708635501
  C   -4.19502955381939     -1.71499463468715      3.22944595823872
  C   -4.27207102950479     -2.05820694314564      4.52678531636325
  C   -3.96419720001137     -1.11169773755918      5.65490114794412
  O   -3.44037707647888      0.16591130421579      5.14322123505203
  C   -2.90513923741743     -1.63632222600292      6.72268564102294
  N   -5.13181065363668     -0.81209719493849      6.45513665572277
  C   -1.46929309290929     -1.26393592265799      6.32558930418295
  H   -1.33090036986798     -0.17622222607339      6.28079080707775
  H   -1.22194361241634     -1.68620220783684      5.33749884676076
  H   -0.76527872707952     -1.67141813309421      7.06362391982490
  C   -3.00459015449064     -3.16783620590258      6.90767052665396
  H   -4.03676680099762     -3.48722480753522      7.11924524330248
  H   -2.37975541029321     -3.46186854872903      7.76390799417322
  H   -2.64032135467782     -3.70975828127595      6.01991694623888
  C   -6.30905847361552     -0.21023865949389      5.86640945802078
  H   -4.60910116924563     -3.05307405504501      4.81870292066951
  H   -4.44995348118857     -2.43947844140508      2.45048673493891
  H   -2.73742665299395      3.28388151322582      1.96627733963558
  H   -6.46792114878905     -0.62201898035455      4.85984442761714
  H   -6.22929038426027      0.89106066993302      5.78903945916221
  H   -7.19861545859822     -0.45065099609131      6.46958698067540
  C   -3.34583107874235      1.80068252051695     -0.19186645898159
  N   -3.32477694235165      2.15066814205113     -1.29953399296056
  C   -3.03871591031136     -0.05926932143207     11.65021311215954
  N   -3.47529639258362      0.93204521399418     12.48552665425053
  C   -2.81449992836579      0.78090831916667     13.62554585339559
  N   -1.92927531206174     -0.31448233410914     13.55342115552273
  C   -2.07232807169838     -0.84958266946106     12.28326151685695
  H   -1.60246119000599     -1.79092684325380     12.01021790931125
  C   -2.86778734073914      1.52237002861278     14.82691949067433
  C   -2.07090101422524      1.16101106889776     15.90070505501611
  C   -1.19579518786272      0.03326883442682     15.78338522373838
  C   -1.14573778379634     -0.67705824185532     14.60979046738489
  H   -3.54291937939370      2.37482999528205     14.89622626063797
  H   -0.55808780073056     -0.28311587912985     16.60686583213919
  H   -0.49551095889416     -1.54196813326088     14.46699290068353
  O   -2.16830273205485      1.91094260697538     17.02314653447900
  C   -1.38767057479945      1.60192245428318     18.17041104653267
  C   -1.72057008937062      2.61523184581830     19.24897584778074
  H   -0.31088601125550      1.64049257491300     17.91782545380787
  H   -1.61294729863024      0.57515646276838     18.51651418366245
  H   -1.48847727609411      3.63600582270042     18.90832138116434
  H   -1.13451255264314      2.40853541851684     20.15811453131643
  H   -2.79029158701383      2.57275726229950     19.50541984071228
  O   -1.58104192789130     -1.28253545490318      9.43464975823704
  H   -1.22879120767959     -0.89102378289435     10.25144720940810
  O   -1.07448777339709      3.78868451691624      3.69206037760482
  H   -0.97513505118573      5.03867634818662      5.95639873191840
  C   -1.80788446797708      3.59052695756244      4.62070118199108
  C   -1.77520367994173      4.28884242602705      5.95445003345200
  H   -2.74731531412479      4.76763923758975      6.14980458823020
  H   -1.61151144731202      3.55335614807928      6.75740599536179
  O   -2.82276694144084      2.66892062933117      4.61092303849808
  H   -4.02061236770572     -0.64541047457774      0.69146351849383
