68
Coordinates from ORCA-job 818_0.0
  C   -2.56015694304258      1.61513829563867      3.53394545116283
  C   -3.17886948279885      0.39375643146335      3.87381341926060
  C   -3.60869294406959     -0.47388834134596      2.84654528760366
  C   -3.39253591078356     -0.12461383026174      1.50859567215606
  C   -2.76022525416651      1.08421242787271      1.17612006506443
  C   -2.34565851677957      1.95475974079711      2.20590006350499
  H   -6.42231597863050      1.19572248284176      8.39650721964767
  C   -5.51410432964373      0.64458051508352      8.64322904519654
  C   -4.94959582238462      0.73462372867913      9.91561555528642
  H   -5.43830990128439      1.37227318409099     10.65698231089811
  C   -3.78313585640168      0.03915467849728     10.28433635350193
  C   -3.14165951018197     -0.79523681982837      9.30910744472088
  C   -3.68578848863868     -0.86136195463826      8.02279062078730
  C   -4.86667382016374     -0.17718963254550      7.70996564143071
  C   -4.30264839850122     -1.68373290112938      3.26438150035737
  C   -4.55430252436257     -1.93381836675536      4.56083334063696
  C   -4.13428737577814     -1.02541670223959      5.68291518004053
  O   -3.33605184209114      0.11030726668993      5.17061950355344
  C   -3.27564196180269     -1.71439907130765      6.82921463726084
  N   -5.25575187874353     -0.45885344263141      6.39820516486398
  C   -1.77671606210059     -1.72906770659318      6.50058993012747
  H   -1.35969392766418     -0.72164276136804      6.38575816503954
  H   -1.59647225937836     -2.28068971858856      5.56268805193582
  H   -1.23397217219271     -2.23446116740924      7.31061678191901
  C   -3.75347943732844     -3.16300202290183      7.08654534387163
  H   -4.84222589964569     -3.21415012975652      7.24356603754692
  H   -3.26263755438213     -3.53513666548314      7.99761670004925
  H   -3.48158385855860     -3.83502566682544      6.25648014544953
  C   -6.25852661375380      0.33139037570754      5.71729288750868
  H   -5.11101540130502     -2.82359795222727      4.85557605396008
  H   -4.63933455139650     -2.38147209186773      2.49221045369403
  H   -1.86000577164137      2.90398325345090      1.97530413374617
  H   -6.45416169250707     -0.10078212080248      4.72568163669563
  H   -5.95358378900707      1.38768754483086      5.58696342311258
  H   -7.20361225772232      0.31163848312786      6.28254554731657
  C   -2.54534138784320      1.43737931201903     -0.19769804598581
  N   -2.37259482396905      1.72161923902852     -1.31110539588631
  C   -3.23062514409365      0.14729739289576     11.63656499172904
  N   -2.10672353811989     -0.56495879449206     11.99497972239021
  C   -1.84642950121456     -0.27794087463577     13.26656642356694
  N   -2.80118011335786      0.63114685416163     13.75590006359688
  C   -3.67751722454121      0.89925836176522     12.71796391564040
  H   -4.51425095890542      1.57956818435430     12.84143323577134
  C   -0.82697210611878     -0.72634566529598     14.13004906020854
  C   -0.78120379536625     -0.26940461667213     15.43897755999859
  C   -1.77110140640780      0.65539440341660     15.89657023050409
  C   -2.75789793623013      1.08412422049025     15.04266602708429
  H   -0.08201464185229     -1.43146757998180     13.76236637417849
  H   -1.76812982419081      1.03737308656373     16.91586240785267
  H   -3.53666245808708      1.78776892930026     15.34081399005539
  O   0.21916960326933     -0.73632238087878     16.21984650856222
  C   0.32573651194440     -0.33161485178506     17.57898690276139
  C   1.53082821812515     -1.02875224310571     18.18069778896422
  H   -0.59675333927999     -0.60232323476691     18.12690869697439
  H   0.44006269450807      0.76746370636027     17.63867652079155
  H   1.41469895283198     -2.12208517546795     18.12590164061906
  H   1.64707324627858     -0.74193212979992     19.23751002737020
  H   2.44933898125812     -0.75238734019504     17.64052105800503
  O   -2.04885151736286     -1.51816830714279      9.59166719171357
  H   -1.80017351121456     -1.34535289536279     10.54467714229049
  O   -0.43307761914453      1.29252223882437      5.16601431230788
  H   -0.16473936874917      3.09559668223385      7.02549861015754
  C   -1.17801921336250      2.21057699949766      5.36460439233137
  C   -1.13554494516418      3.17070130048071      6.52078888241707
  H   -1.32642621614451      4.20029391283640      6.18551313928219
  O   -2.23116902004371      2.51130514106339      4.53285224087412
  H   -1.93473591090458      2.89429924984116      7.22820314594922
  H   -3.72670469771371     -0.79829246781531      0.71645246901466
