96
Coordinates from ORCA-job 819_0.0
  C   -2.87406896392998     -0.64998954517509      2.85271799405007
  C   -3.15735293564840     -0.84433757037997      4.22025160577995
  C   -3.24436370546039     -2.15526096430298      4.73936361156540
  C   -3.04955286684326     -3.24820724789480      3.88732411476745
  C   -2.77465515012105     -3.02644268456825      2.53971735396634
  C   -2.68394411338536     -1.73602854398882      2.00915238512188
  H   -1.25430630709300      2.01823311192686      9.38699872833618
  C   -2.33547729931367      2.13008457965635      9.27759876970961
  C   -3.08827880554085      2.79880804372015     10.25623696818441
  H   -2.57263648221961      3.20505619920500     11.13080858352889
  C   -4.47300723577039      2.94713804049017     10.13902813988846
  C   -5.14289241546497      2.42314746773611      9.01909980548397
  H   -6.22697949281915      2.53656301501908      8.92572782432494
  C   -4.41421784630188      1.75578841312036      8.04305303013492
  C   -3.01911448889258      1.61669247257280      8.16982731237924
  C   -3.55016996849207     -2.27799889217096      6.15822713313959
  C   -3.74352423538596     -1.18372414163618      6.91166635894903
  C   -3.60100262577863      0.22726500691240      6.39393292700355
  O   -3.35375505162961      0.25002317637208      4.97219765240984
  C   -4.85160142701771      1.15356903903447      6.71501476028906
  N   -2.49878051005438      0.90584283608480      7.08134181807234
  C   -6.17491377932768      0.37905804516033      6.76680692193599
  H   -6.19444373800625     -0.36938425346885      7.57179450415224
  H   -6.36810674415584     -0.13590956647424      5.81167588469010
  H   -7.01112915970781      1.07481305473994      6.93993756017095
  C   -4.96090033818035      2.28326451044457      5.66522193220414
  H   -4.01232198519226      2.83129614213610      5.56817362695868
  H   -5.73627804256057      2.99557609903059      5.98625578095699
  H   -5.23516441742931      1.88724344140957      4.67599815710916
  C   -1.15040875755151      0.36610225654392      7.09277998440343
  H   -3.61727170045249     -3.27934803344885      6.59262707887271
  H   -3.96247045898011     -1.26369881766094      7.97921483967379
  H   -2.47299657225077     -1.58760604502425      0.95110652898825
  O   -2.86007355826165      0.62731258596987      2.32454400829637
  C   -1.84602758212064      1.48017744774374      2.67835430005843
  N   -2.57839564707641     -4.17827537417395      1.64591744210666
  O   -2.34864035602415     -3.94800314665081      0.46804010105644
  O   -2.65719287197898     -5.29487399077233      2.13608676515068
  C   -2.08890642091313      2.84807730426878      2.10232879664133
  H   -3.11387541035230     -4.27054252837712      4.26031695037941
  C   -0.12433958893061      1.41264329149251      6.63858537501348
  H   -1.10168977841331     -0.50005376400091      6.41664436563557
  H   -0.88431160691999      0.00974839641943      8.10424307336272
  O   1.21283320216521      0.93091642058859      6.82669487728294
  H   -0.25946806873279      2.35042262190113      7.19619500769277
  H   -0.22206483832221      1.60114331697087      5.56248597065841
  O   1.15030623635279      1.51591110657618      9.02601111150264
  C   1.73680981253329      1.04873637602571      8.06996012982069
  N   3.01630716007839      0.57581603803786      8.08408936511117
  O   -0.91705329192822      1.14232072559226      3.35907361300648
  H   -5.03684320516494      3.46483885875532     10.91891301367360
  C   3.81801578336030      0.51972362821892      9.28765429455363
  H   -2.38621331744333      2.77670222608854      1.04591914155196
  H   -1.18523277579791      3.45956599781687      2.21199098619240
  H   -2.92127245057838      3.32198927204392      2.64758530870035
  H   3.38097549185730      0.21178189059764      7.21124532430304
  C   3.93026714291882     -0.90237864219383      9.83132096472893
  H   3.34301370416992      1.17010594444257     10.03528011478068
  H   4.82783149179074      0.91817562663008      9.09035060930494
  O   4.77186746451922     -0.85460876305739     10.98821761498265
  H   4.36425104169886     -1.58962930657670      9.08583909403584
  H   2.93965676552010     -1.29970596111815     10.10744163795023
  C   5.11098262522779     -2.03184005253680     11.53924438451807
  C   5.94485902762950     -1.85272082361104     12.83959093749522
  O   4.76068956971546     -3.09716708627996     11.09140381638757
  C   6.55991149027161     -3.21286184454594     13.19230697109506
  H   7.08837712714007     -3.65103391153547     12.33384527645899
  H   5.77273075656615     -3.92409053436766     13.47415505097827
  H   7.26841856710856     -3.11565544844346     14.02587594280610
  C   4.91673099262146     -1.31220850925623     13.86973647365607
  O   6.91317955028751     -0.81907650695747     12.68325737757929
  C   5.27539963275339     -1.14181683814803     15.37220824531953
  H   4.01553625944251     -1.94406876526374     13.81033364104632
  H   4.61276695761841     -0.32977988084711     13.48390314174971
  C   8.11933201831337     -1.06058481948045     11.97756263065153
  C   7.97186926906318     -1.22154976657570     10.46657233712591
  H   8.65847587292944     -1.92960854533188     12.39892805132500
  H   8.73860597729917     -0.17421924945916     12.19088311260930
  H   7.44176908128654     -2.14738980664258     10.19182562119722
  H   8.97058188493995     -1.26636735735094     10.00143388816299
  H   7.42535828519596     -0.36853124191117     10.03696108180588
  C   4.10993085054865     -0.33238737137378     15.98388005266909
  O   4.33730629659733     -0.02723702594513     17.27786896757156
  C   3.30524194204161      0.69299131271744     17.95091158441635
  H   3.11917065939997      1.66130546043884     17.46134934372018
  H   3.65938985238154      0.84768812662941     18.97812530294546
  H   2.36466986347257      0.12066586750678     17.95318283299312
  O   3.09437395524101     -0.01280919989011     15.41483276204124
  C   5.31644269546385     -2.48449822423327     16.14363755115296
  H   5.39624705162894     -2.30063877352473     17.22483141178222
  H   6.17940510194173     -3.09340694052769     15.84438962931410
  H   4.40372964998472     -3.07588112672564     15.96375867994365
  C   6.58889243784090     -0.36383399520908     15.60451478467466
  H   6.58270521421062      0.59912398623529     15.07240206811401
  H   7.44842842706514     -0.93564487544539     15.22947252778132
  H   6.73313414972310     -0.17410247648914     16.67772548417505
