55
Coordinates from ORCA-job 81_0.0
  C   -0.90259264486321      1.84334406394198      1.73040597979959
  C   -1.75723355570201      0.75798358886219      1.96013885716636
  C   -1.52230961457463     -0.47648496892094      1.32105969928248
  C   -0.42741913592734     -0.59606072406108      0.45055298030702
  H   -0.22455686683781     -1.54473019156336     -0.05211033096739
  C   0.41660824827940      0.48823691758338      0.22530300933917
  C   0.18373222606998      1.71295648542085      0.86487835892724
  H   0.84152339817231      2.56213107432680      0.68227801236027
  H   -3.54484196171325      0.64945877716842      7.37574248657811
  C   -4.29735355924364      1.04024101054626      6.68791632539911
  C   -5.23984351914411      1.98210972137849      7.13110721526034
  H   -5.20805363395530      2.31661541401223      8.17178516532006
  C   -6.20760847013012      2.49929676209307      6.26704874262562
  C   -6.25422632002208      2.07081716925301      4.92813387975747
  H   -7.01297823619209      2.47413086908404      4.25118044808275
  C   -5.32954855094400      1.13825057592269      4.47825622482783
  C   -4.35189643166609      0.63061717561895      5.35268716836804
  C   -2.43865013701588     -1.56381888380780      1.62440459833065
  C   -3.44554761082595     -1.40382811598482      2.50194073239614
  C   -3.70213580659286     -0.11669106906630      3.23928218831048
  O   -2.80975162440849      0.94418843019793      2.79125946074461
  C   -5.18302510631726      0.45614920248555      3.12541814499540
  N   -3.52330342906829     -0.27306803938809      4.67814634370658
  C   -6.21932977868421     -0.68656370334898      3.03258866673561
  H   -6.10019743269677     -1.41629731451381      3.84836714663547
  H   -6.14942573150352     -1.21802741356920      2.06993654670876
  H   -7.23246136889090     -0.26389165112068      3.11166763104181
  C   -5.34932371935480      1.39528136250039      1.92454895930877
  H   -4.69972847479338      2.27598592805776      2.00507301201848
  H   -6.39411830005917      1.73885423033090      1.86022851466937
  H   -5.11420229036706      0.87419775419321      0.98206170509053
  C   -2.26342107244059     -0.72988934383278      5.23217431077799
  C   -2.43072871569284     -2.00157037282552      6.05885064828762
  H   -1.80477041363675      0.05698499605375      5.85774305074826
  H   -1.55738536811169     -0.92987163365006      4.41283953723731
  O   -1.13915786076594     -2.33689794635058      6.58036400462290
  H   -2.81267639170428     -2.82997737462039      5.44062851209817
  H   -3.14301633129191     -1.86027863791896      6.88783696874018
  H   -6.92863643680345      3.23572260793070      6.63005494038669
  C   -1.06162163558433     -3.44701257740963      7.34664749213937
  H   -1.10540093307888      2.78848349528484      2.23797249245124
  O   1.51911795538077      0.26311093065638     -0.59399256172309
  C   1.85180177008034      1.12967154272672     -1.59664721624068
  C   3.06581602408531      0.61928665119968     -2.33180933617568
  H   3.90071893179056      0.47978728623527     -1.62766069150886
  H   3.34622524877684      1.33199344847835     -3.11666326985343
  H   2.84837003905298     -0.36496252197226     -2.77550204235586
  O   1.25151697406479      2.14077024516913     -1.83919302749747
  C   0.35347057219411     -3.68504194720704      7.81561609819798
  H   1.01331834398104     -3.84012018497313      6.94734047260948
  H   0.38160381146532     -4.56581672805697      8.46834187858114
  H   0.72837433130874     -2.80057852876769      8.35352145015361
  O   -2.01497342934406     -4.13921751983449      7.60130034452246
  H   -2.28545996870483     -2.52890763107408      1.13216280465598
  H   -4.10738600604857     -2.23512269287432      2.74564526601776
