92
Coordinates from ORCA-job 821_0.0
  C   -0.43897664659289      1.44875896077847      2.60299204333111
  C   -1.44669715289585      0.49021531591282      2.35973637117337
  C   -1.17772906149524     -0.61445417600449      1.52116849951092
  C   0.08248032400017     -0.73801675697443      0.92513114439092
  H   0.31802140678450     -1.57859689510082      0.27212083160899
  C   1.05347055718012      0.23026414127817      1.17201877807399
  C   0.80828282211898      1.32573080068246      2.00902413609351
  H   1.58595295871601      2.06667466708837      2.18901877323911
  H   -4.05627341046720     -0.08388320329708      7.14731369221229
  C   -4.64098838266571      0.48071071649613      6.42254181853344
  C   -5.47949879049029      1.52089232395454      6.85377955806835
  H   -5.53874298806360      1.74363868204650      7.92283661450213
  C   -6.22892275202251      2.27471554894663      5.94762923324130
  C   -6.14487736442643      1.99600003721146      4.57213734306369
  H   -6.72122553228952      2.58857882455528      3.85574387722370
  C   -5.31914517380008      0.96858889708206      4.13604384793271
  C   -4.57338852398473      0.20517959516526      5.05367584243863
  C   -2.26012996498320     -1.57146252789838      1.34515455531899
  C   -3.41665523123002     -1.45543352643004      2.02183901894033
  C   -3.70580283214375     -0.34199817402057      2.98766587489278
  O   -2.64310977178293      0.68975512270362      2.91503617286711
  C   -5.05859463932125      0.44012151427383      2.73450159047943
  N   -3.80802633472396     -0.76145098682255      4.37401709429910
  C   -6.19691521950928     -0.53064916477975      2.34438964687117
  H   -6.27779265526368     -1.37146529510792      3.05001253539599
  H   -6.05863969286554     -0.93259422021745      1.32786610544916
  H   -7.15450534391046      0.01135466872372      2.36204174154533
  C   -4.92017153706878      1.52556098151622      1.66042100042616
  H   -4.19173876276601      2.29393966031603      1.94960338988256
  H   -5.89319469477426      2.01460746625688      1.49494811293866
  H   -4.60320383016055      1.08778166362360      0.69958837207211
  C   -2.71345538544518     -1.49310369873121      5.01358872403721
  O   -0.72378646068051      2.54990483800951      3.38615729691526
  C   -0.94081922735239      2.36013848729894      4.73113085261323
  C   -1.42989114630631      3.63204052974139      5.36577961079916
  H   -2.49763104876647      3.75474411280495      5.12027966275502
  H   -0.89125040342809      4.50360761717772      4.96762891656716
  H   -1.31938796972071      3.56505858951637      6.45491364513244
  O   -0.76234957950479      1.30780503827153      5.27849848633534
  C   -3.02152879122900     -2.92092723109790      5.56242133392967
  H   -2.29633002122684     -0.87128824362186      5.82354587008714
  H   -1.90180800401783     -1.58829790832943      4.27718439783016
  C   -1.64877808724094     -3.46664538151359      6.05178931312287
  C   -1.65746161980912     -4.83632155031306      6.73930699790485
  C   -0.26003221061557     -5.43442974064821      7.06347951961948
  H   -6.87394691509201      3.08126978780849      6.30463773128945
  N   2.37443176991854      0.10003351728751      0.54126911728246
  O   3.19387971067612      0.98184881875978      0.75357112621976
  O   2.57461352388133     -0.88321348158838     -0.15724848370922
  H   -4.19842831844497     -2.20473507117120      1.90490276686218
  C   -3.59161279257433     -3.81432670038828      4.44766815657651
  H   -2.88602289833340     -3.91543821002886      3.60783254648609
  H   -4.53255286492460     -3.39662482562162      4.05745096655622
  H   -3.81452194749841     -4.82511286794061      4.82285499673760
  C   -4.03343860563470     -2.86457912819547      6.72129090098852
  H   -3.63035599319287     -2.31163806017898      7.58577560569925
  H   -4.29159793146264     -3.87635614523201      7.07067376708422
  H   -4.97072665461361     -2.37832351070644      6.40981203403848
  H   -1.21459703189805     -2.71933624008387      6.73922541327748
  H   -0.97046789010609     -3.50471324522590      5.18146564894794
  H   -2.18571291697473     -5.56729211792744      6.10504996791841
  H   -2.22490428425941     -4.78083241981318      7.68288469177107
  C   0.52822116282508     -5.76687006521373      5.79947319079874
  C   0.54989134121519     -4.59856807572543      8.08774412893092
  H   -0.46833617478325     -6.40226996019035      7.55224183069949
  C   -0.10265118561979     -4.48338271045425      9.45046979672917
  H   0.73865999949227     -3.58669364115671      7.69663220261617
  H   1.54039393570202     -5.07215639025563      8.19917162922887
  C   -0.20565887988420     -5.59962590097330     10.29948150294721
  C   -0.80644837525403     -5.50181234446547     11.55482730632194
  C   -0.61701793997554     -3.26603736955080      9.91915271200475
  C   -1.21865904087973     -3.16729630429846     11.17844667800986
  C   -1.33032862129833     -4.28300185793681     12.01966825559647
  C   0.27985108921137     -6.98164378353610      5.13499749148419
  C   0.95486792906983     -7.32068851384714      3.95988393074297
  C   1.90370180658017     -6.44679542444127      3.41888574073511
  C   2.16685367699297     -5.23757923284335      4.06676810405693
  C   1.48653071182796     -4.90274830791055      5.24336810598527
  H   -0.45458137070126     -7.67787015548866      5.55292696176682
  H   0.74469758824884     -8.27480987963506      3.46827351714950
  H   2.43767166366612     -6.70937445793745      2.50168958472968
  H   2.90918494139181     -4.54697471047393      3.65702405573382
  H   1.71515276637544     -3.95180511063495      5.72969439122213
  H   0.20348753345152     -6.56244617842926      9.97698530223898
  H   -0.86354128126218     -6.38951579453677     12.19286753389926
  H   -0.53666435479563     -2.37187601654378      9.29352489169054
  H   -1.60415993355046     -2.19955896885481     11.51403115971464
  C   -1.99992917419440     -4.19014092366400     13.37003262808379
  H   -2.10091140611724     -3.14531709562738     13.70118355259019
  H   -1.43382170643392     -4.73792391402010     14.14088873980538
  H   -3.01389768256276     -4.62744955851909     13.34448040738449
  H   -2.10369880196193     -2.41127757311224      0.66234546940909
