74
Coordinates from ORCA-job 823-2_0.0
  C   -4.09940947903941     -2.60977120379416      4.45291933055486
  C   -4.27680200522797     -1.21344754136282      4.53137409699570
  C   -4.03641615858433     -0.41125884497772      3.39315256402314
  C   -3.63058276458896     -1.01471886228885      2.19731128708136
  C   -3.46674601452778     -2.39715261008754      2.14807719170780
  C   -3.69809698017696     -3.20545540998899      3.26487796384965
  H   -2.69115268425434      2.81286385323329      8.97350416340878
  C   -3.76925135101689      2.84351338730707      8.81029227776720
  C   -4.56325684792444      3.72792290752045      9.56654372103116
  H   -4.07245341758262      4.37512063300901     10.29392293674122
  C   -5.95092642891441      3.77664301278159      9.38737641095440
  C   -6.56547496460585      2.92185837829057      8.44469574448777
  H   -7.65045377240880      2.97387923480989      8.32739263817774
  C   -5.78416332733449      2.05505292397947      7.70187543994580
  C   -4.38733082118361      2.01151069249848      7.88025424891467
  C   -4.21494762162240      1.02503888331049      3.55490229879090
  C   -4.58536261119312      1.53771437230426      4.73946989111619
  C   -4.79351947438339      0.71164539180634      5.98514939988698
  O   -4.66445379799361     -0.70326049392926      5.71201156517618
  C   -6.18901865223127      0.98391568523699      6.69903117084944
  N   -3.81309468458138      1.07388405207071      7.01075614001226
  C   -6.65064894186573     -0.26910985925150      7.47797714554843
  H   -5.86049978008490     -0.63471298992369      8.14998566784408
  H   -6.93804690341228     -1.08138965475063      6.79545738046609
  H   -7.52315278850565     -0.00244691102625      8.09395563277152
  C   -7.29308432327347      1.40443549154974      5.72057931749305
  H   -7.07803585229057      2.35998845144938      5.22100024614415
  H   -8.24677150133421      1.51959160219668      6.25944793697657
  H   -7.44398946312913      0.63451612733307      4.94710437176745
  C   -2.38475147181365      1.03281991106200      6.74994511764536
  H   -4.03332319832869      1.67329256841189      2.69313439452761
  H   -4.70686478878446      2.61505871378871      4.87535117668826
  H   -3.56176934536703     -4.28410103165508      3.20258547643530
  O   -4.26918872146685     -3.39115721244743      5.58079678250272
  C   -5.54952148780104     -3.64058985638657      6.01711430857770
  N   -3.03777885898890     -3.02841012714784      0.89022058668407
  O   -2.89498391359067     -4.24191215293918      0.88639193219014
  O   -2.85039373391522     -2.30072816373917     -0.07341826064047
  C   -5.52057383708623     -4.43151469040478      7.29640160165099
  H   -3.43664594979114     -0.41964374540443      1.30465673225934
  C   -1.59066936057022      0.25931744987155      7.79058389332549
  H   -1.97133589656437      2.05577042828896      6.65934688678214
  H   -2.23882349822654      0.55602018099393      5.76706608807138
  C   -0.46501008049405      0.80247499886655      8.37902459266602
  C   -0.09467278034500     -1.25743164619358      9.67379107998455
  C   0.30989128386483      0.07299918623337      9.32471863984043
  O   -6.52315107674784     -3.25103468350480      5.43568427920796
  O   -6.79313349868633      4.60626827406072     10.06654968130067
  C   -6.26087340090783      5.48348642843605     11.02958881096710
  H   -7.10790708725139      6.04556689863719     11.44716220756032
  H   -5.54237316126133      6.19884955470814     10.58707619753495
  H   -5.75474948491714      4.94053490503275     11.84975323677489
  H   -4.76481602061541     -5.22835108234936      7.24744848397759
  H   -6.51630108016000     -4.84791691280378      7.49158454206853
  H   -5.24270647929132     -3.75855784768313      8.12416743919306
  C   -1.98288938395225     -1.06475663245250      8.14127612978932
  C   -1.25666482666092     -1.79911849333918      9.05198442810549
  H   -0.14825082519476      1.81806650571854      8.11915775139027
  H   -2.87006912052202     -1.49341297693960      7.66879467902365
  H   -1.56509481536919     -2.81658404211177      9.30923631040436
  C   1.47339806609776      0.61430326383765      9.93917512472911
  C   2.20742494133515     -0.10883217119041     10.85504663683263
  C   1.79120817393570     -1.42096853359290     11.19641552395427
  C   0.67217277933937     -1.98557139375376     10.62214842369763
  H   1.78904817727568      1.62710782562517      9.67323935818397
  H   0.38421224136671     -3.00210025869466     10.89981295688205
  H   3.07144810521460     -3.71538737607777     14.15191136768805
  H   4.56740995650089     -3.20428246173614     13.35243080130433
  C   3.73346210302376     -2.85233716055246     13.97938050136455
  C   2.97592367013595     -1.76184239295204     13.26516589698923
  O   2.52872513240575     -2.22349881059028     12.05782785964164
  O   2.77649020668065     -0.65148808419995     13.67569581320044
  H   4.11123320457099     -2.47110346568252     14.93563889006820
  H   3.09374255619642      0.31969561364582     11.32150745848888
