70
Coordinates from ORCA-job 823_0.0
  C   -4.00817581637611     -2.56574714308043      4.51582434088269
  C   -4.20804394858902     -1.17119802436704      4.56593438534745
  C   -3.88044114676659     -0.37450688795363      3.44601289402021
  C   -3.35907979575237     -0.98107695342917      2.29753160199180
  C   -3.16950206476086     -2.36083515056680      2.27720744003879
  C   -3.49093845966989     -3.16429803241154      3.37498072375444
  H   -2.94925226545883      2.86345711354073      9.06619866539446
  C   -4.01681560281247      2.89400523985689      8.84451742969797
  C   -4.86571286708151      3.76604234129663      9.54496228571284
  H   -4.43777074751088      4.42311943983967     10.30712223909723
  C   -6.23738084715833      3.80972616017398      9.28470078431164
  C   -6.79357550996590      2.96120881749401      8.31008930495886
  H   -7.86845979063236      2.98831908303701      8.10895112497039
  C   -5.96588537152544      2.09673073539268      7.60672329826452
  C   -4.58341287891028      2.06297755555301      7.87318043731698
  C   -4.09731596286808      1.05977056241536      3.57696629073931
  C   -4.57147016437855      1.57715517026005      4.72174419851250
  C   -4.85946046265081      0.75825667529727      5.95645654716891
  O   -4.70462180917147     -0.65624097953036      5.70319097097656
  C   -6.29915218368869      1.02539097513106      6.57759136495007
  N   -3.94896982394690      1.13987880029521      7.04050086793453
  C   -6.80772950183813     -0.23121739088165      7.32104967963730
  H   -6.06592703236209     -0.59307775646897      8.04826127066526
  H   -7.04132968178603     -1.04522482906175      6.62034956756543
  H   -7.72324821415768      0.03000954109629      7.87379730024125
  C   -7.33795444771162      1.44401270500172      5.52896952327843
  H   -7.09384319580904      2.40086777050543      5.04548141996887
  H   -8.32483773910653      1.55639823728874      6.00509501702739
  H   -7.43775752262279      0.67518334002865      4.74612047272659
  C   -2.50512851787646      1.08209163975198      6.88659811058322
  H   -3.85849387934129      1.70292654990241      2.72542613621304
  H   -4.72182685203214      2.65326906798341      4.83595621920320
  H   -3.33361456273068     -4.24113761921561      3.33503024158401
  O   -4.27146910341077     -3.34180644824418      5.62910389431340
  C   -5.58352593238701     -3.59711998319401      5.95385297160786
  N   -2.61398370313789     -2.99461825137155      1.07103203177862
  O   -2.44862194093824     -4.20496732451144      1.09329063404144
  O   -2.35210509377519     -2.27138177533500      0.12162841353136
  C   -5.66093960211769     -4.38199907165294      7.23477736620975
  H   -3.09419037662426     -0.39035315616013      1.42036779113988
  C   -1.79717281426622      0.29593859000986      7.97874411054919
  H   -2.07631107121789      2.10048545609163      6.83189503781944
  H   -2.29363893772692      0.60954279328454      5.91379101457902
  C   -0.70505263507198      0.82579542040263      8.63878629832362
  C   -0.45586972964443     -1.23049929884964      9.96055297788184
  C   -0.00503622969540      0.09013744821617      9.63753268654447
  O   -6.50488861277330     -3.21683326486756      5.28749885065352
  H   -4.90311927565836     -5.17825926854277      7.25291460400942
  H   -6.66906030154920     -4.79899982415698      7.34778023208670
  H   -5.45377696534040     -3.70521258059554      8.07989578806039
  C   -2.23336023150690     -1.02047277059248      8.30358794985189
  C   -1.57999882797265     -1.75868959849778      9.26590894689240
  H   -0.35679580878869      1.83549219973314      8.39840944693210
  H   -3.09081509965617     -1.43999926155359      7.77235072557706
  H   -1.91801933352805     -2.77089456650596      9.50668723538101
  C   1.11989835382889      0.64511716610580     10.31184366818869
  C   1.76814556570809     -0.09996860259921     11.27855276203696
  C   1.32779056074252     -1.41027018077417     11.60806343218222
  C   0.24342973458716     -1.95896033393981     10.96322054601768
  H   1.46223587379510      1.64587525586148     10.06262913710871
  H   1.87261005403518     -1.95896669728402     12.37911625620930
  H   -0.09179359797470     -2.96806165336370     11.21881037758602
  O   2.87000773161027      0.30201833904894     12.01916293691556
  C   3.52125248655881      1.49246312730056     11.90989016990535
  O   3.22646000550681      2.37257170541408     11.14501756855487
  C   4.66517451054859      1.53468717806444     12.89270038135157
  H   4.28678563204642      1.39755075660640     13.91774269379063
  H   5.18274488275686      2.49769642220754     12.80752424895855
  H   5.36629888895409      0.70987408935503     12.69054333609575
  H   -6.87875038886644      4.50082121071498      9.83688132259708
