63
Coordinates from ORCA-job 83_0.0
  C   2.95599852992510      0.23826165361530      0.88200853367236
  C   3.31121042659515     -1.10118780149153      0.25781000736716
  O   2.12829010374614     -1.92998595470719      0.21943487094074
  C   0.94802080555612     -1.37255937833100     -0.14217298942570
  C   0.66970205623316     -0.02767058700542      0.07386958384949
  C   1.71289632526201      0.73399169565826      0.75542470894079
  C   -0.61252554475107      0.50758836672230     -0.29931567761876
  C   -1.58969904450944     -0.38099270586158     -0.85783146699736
  C   -1.27535889593483     -1.76144808604868     -1.03069820826992
  C   -0.03726376150719     -2.26161876911451     -0.67958521917334
  C   -0.95725048160662      1.87759214355836     -0.14329681442650
  C   -2.20343312224654      2.34958662011892     -0.51170521762311
  C   -3.16706354939036      1.47078984137635     -1.05884444074069
  C   -2.86153693601501      0.13492065443310     -1.22842882036542
  H   -2.03866078487237     -2.41325234026973     -1.45661954650663
  H   -0.22387795584596      2.57538257236794      0.26513124835595
  H   -2.44370480575680      3.40824385018147     -0.38275773161975
  H   -4.15004363810508      1.85091030678870     -1.34914449633496
  H   -3.60093041111675     -0.54983220408500     -1.65406503495467
  O   0.35218313763441     -3.55495797657354     -0.79901405129064
  C   -0.56722504336430     -4.50275900830627     -1.29982041177165
  C   0.12767270799727     -5.85232554715051     -1.27325745440929
  H   -0.87313871062350     -4.25216592412760     -2.33274505185183
  H   -1.48060452949428     -4.53702939876476     -0.67705255341552
  O   -0.81668251268557     -6.80247549072810     -1.77332861769606
  H   0.43584286872046     -6.11837379575934     -0.24965336496745
  H   1.03348464926272     -5.84544469950519     -1.90041044037506
  C   -0.41769347305454     -8.09507226705144     -1.80550070596573
  C   -1.50644857993134     -8.98395241037035     -2.35482680388790
  H   -2.41708766376030     -8.88715490039920     -1.74335907388548
  H   -1.16335997544285    -10.02549291864045     -2.35791197596279
  H   -1.76696710178406     -8.67010380003174     -3.37780867002909
  O   0.67097018373627     -8.45507419947297     -1.43739579277175
  H   1.46267638350239      1.69632240289726      1.20687646823906
  H   3.73197021997523      0.77079815756859      1.43563324335287
  C   4.32356758296814     -1.84217465840247      1.14816643890266
  C   3.94093242230857     -2.93488464572552      1.93721584651820
  H   2.91127769469480     -3.28974546925792      1.89150257656186
  C   4.87235175797194     -3.56809885169781      2.76786181398045
  H   4.55955683551559     -4.42371843247911      3.37279130515309
  C   6.19181942473459     -3.11372154742736      2.82827445363641
  H   6.91708601741933     -3.60925756505848      3.47925042945476
  C   6.57906516752788     -2.02146525681093      2.04472977056888
  H   7.61032413086329     -1.65946623930319      2.07726861973700
  C   5.65270717584622     -1.39387026028148      1.20908833205205
  H   5.97371813253936     -0.55326865662925      0.58825620156126
  C   3.85280834889840     -0.97381467430246     -1.18171688871655
  C   4.30844059515060      0.23905032227232     -1.71156446325622
  H   4.24878504976250      1.15349725874118     -1.11774405778227
  C   4.83175637873544      0.30080198293549     -3.00527918281695
  H   5.19489816697460      1.24191400356402     -3.42368202882826
  C   4.89430371652431     -0.85420394630926     -3.78759091581785
  C   4.43201573345959     -2.07691032936616     -3.28294823158051
  H   4.46300396078864     -2.97541716245212     -3.89556331486494
  C   3.92029887904721     -2.12237673111846     -1.98569567954163
  H   3.55157620541376     -3.07111878124116     -1.58960137485986
  O   5.48975322454268     -0.69667437630710     -5.03164753806768
  C   5.14491940295594     -1.41435469687538     -6.14014253298093
  C   5.99494204126445     -0.98032757234478     -7.30854618600550
  H   5.88657874335084      0.10248558763522     -7.47498509869445
  H   5.69390646918002     -1.53465321962299     -8.20558205510141
  H   7.05714169833985     -1.17019733714564     -7.08717795780590
  O   4.29344316687353     -2.26102684647944     -6.16637631378698
