63
Coordinates from ORCA-job 84_0.0
  C   2.97468911050216      0.27111942988533      0.82801459234054
  C   3.34281523694352     -1.09636949440909      0.26727661948889
  O   2.16658315641251     -1.93924857185323      0.24045100260426
  C   0.98099778286121     -1.39817465368021     -0.13455222090393
  C   0.69086763822340     -0.04938885542452      0.03668386258705
  C   1.73060886329815      0.75206661287397      0.67673973666329
  C   -0.59715595594065      0.46162278936633     -0.35065881096976
  C   -1.56556662089085     -0.45114623534551     -0.88503862264526
  C   -1.23458056554503     -1.83065147494317     -1.02673443801947
  C   0.00874860403199     -2.30732453482138     -0.66236678579232
  C   -0.95711194104390      1.83182034658899     -0.23264462997111
  C   -2.20794000068663      2.28040898140748     -0.61386994367468
  C   -3.16251331557202      1.37732117826872     -1.13694081331199
  C   -2.84278933261047      0.04077348228367     -1.26960051022385
  H   -1.98743286920483     -2.50026939808342     -1.44338709430954
  H   -0.23257249136271      2.54888797101692      0.15734219930243
  H   -2.45911485932758      3.33967177296556     -0.51366366024728
  H   -4.14919170860828      1.73920548658731     -1.43786012985785
  H   -3.57432549956988     -0.66334639223184     -1.67689186275186
  O   0.41925378386569     -3.59600736581962     -0.77454069385670
  C   -0.48177988759505     -4.55891835086215     -1.27913106456863
  C   0.23778828659338     -5.89562131143293     -1.25952498328215
  H   -0.79313501013183     -4.31064475180894     -2.31111839878120
  H   -1.39387783585188     -4.61246900167386     -0.65613740179427
  O   -0.68718064314942     -6.85791253905341     -1.77310009605018
  H   0.54575802301725     -6.16455458110583     -0.23655186284109
  H   1.14641985647714     -5.86834656009041     -1.88193470546598
  C   -0.24945556708038     -8.13520377562465     -1.85927468116972
  C   -1.32039130224335     -9.03763467449449     -2.42159423220849
  H   -2.21951265155103     -8.99707145607345     -1.78712950378932
  H   -0.94310224726757    -10.06593110475322     -2.47483991918663
  H   -1.61472751560161     -8.69155806438583     -3.42482185002797
  O   0.85630812613279     -8.47429050537313     -1.52362883117980
  H   1.47836236902174      1.73738274794120      1.07326261588803
  H   3.74820947022291      0.83606116112382      1.35211449451646
  C   4.31877691216047     -1.82367969845657      1.20567468845146
  C   3.94863965033425     -2.07718185469067      2.53774275245871
  F   2.75555676820874     -1.66082107097076      2.98626620356087
  C   4.78315113107654     -2.74094025534608      3.43309702499085
  H   4.42991364527910     -2.90661730290377      4.45310240408538
  C   6.04139104913782     -3.17167850504328      3.00498265639857
  H   6.70283745612828     -3.69271130231316      3.70189160102111
  C   6.44405463826157     -2.93233284435840      1.68966921907137
  H   7.42506129457719     -3.26650748926100      1.34364830559292
  C   5.58673566621998     -2.26899383172301      0.80541331465918
  H   5.90831451536528     -2.09402163732968     -0.22190800919141
  C   3.89125736953641     -0.98498622340568     -1.16925800467168
  C   4.66186106438170      0.11356794577903     -1.57693017733235
  H   4.86643675133363      0.93071617761747     -0.88205618665329
  C   5.17201205840582      0.18635746459421     -2.87323393755214
  H   5.77407856697610      1.03795804477109     -3.19703009820417
  C   4.90999029491995     -0.84163106850157     -3.78379653694463
  C   4.14475054888587     -1.94714332771065     -3.39966290894126
  H   3.92844316849044     -2.74335030792518     -4.10935200195027
  C   3.64534307033001     -2.00853553688122     -2.09566487003780
  H   3.04014288685069     -2.86473878824761     -1.79249588791727
  O   5.50290489092074     -0.70350153243575     -5.03103987292292
  C   4.90483140757328     -1.09700997009185     -6.19514609030139
  C   5.80194181530990     -0.76746811693754     -7.36187046402815
  H   5.97624752345409      0.31910076650187     -7.40492347491036
  H   5.33335474857644     -1.11001600181215     -8.29226886492078
  H   6.78358242880571     -1.24849851558699     -7.22982184204149
  O   3.82576619173083     -1.61916352429588     -6.26119631827885
