75
Coordinates from ORCA-job 86_0.0
  C   2.86378486771211      0.34683892947077      0.99616745616766
  C   3.25207545508440     -1.01885054881502      0.45308553842819
  O   2.06760853055646     -1.84969632690183      0.38214894114255
  C   0.90660850383721     -1.30755253586634     -0.05359770416431
  C   0.61578523269846      0.04336585348487      0.10024727466668
  C   1.62702739443694      0.83444878933494      0.79686816439302
  C   -0.64899713665931      0.55977810103185     -0.35074171006581
  C   -1.59908832982251     -0.35167926766490     -0.91975702015395
  C   -1.27431113194423     -1.73616011885417     -1.02859772168058
  C   -0.05200795259427     -2.21774536983672     -0.60440766401386
  C   -1.00306256560597      1.93353805033010     -0.26180410407856
  C   -2.23208854062159      2.38778778029837     -0.70306924822586
  C   -3.16910486425190      1.48638254828024     -1.25961605682327
  C   -2.85381628190612      0.14617050844856     -1.36559066330702
  H   -2.01584603945600     -2.40614370977455     -1.46474375055160
  H   -0.28989843985699      2.64840324293527      0.15283464812845
  H   -2.47921531973823      3.44988384224710     -0.62472574383194
  H   -4.13871281687056      1.85227325708137     -1.60762240939214
  H   -3.57220289422751     -0.55636906482469     -1.79833636877255
  O   0.34656410733371     -3.51274670869782     -0.66187411053415
  C   -0.54165595987728     -4.48155771908944     -1.17618239292533
  C   0.16380886882284     -5.82245781761398     -1.07768318319134
  H   -0.80194014284665     -4.26464469457505     -2.22913619143689
  H   -1.48295700239125     -4.50625242801669     -0.59569425682484
  O   -0.74712390104982     -6.79893677964800     -1.58989133675594
  H   0.42821740498241     -6.05352658534956     -0.03350156412997
  H   1.09715596987163     -5.82397106131755     -1.66278613888388
  C   -0.32144879665564     -8.08289783347391     -1.59314388450267
  C   -1.37724333015582     -9.00145483960285     -2.15817311665513
  H   -2.30354260012523     -8.91904891724293     -1.56840256198757
  H   -1.01121975312089    -10.03505122573775     -2.14228429767868
  H   -1.62144745375633     -8.70360984846935     -3.18988061726776
  O   0.76350857956667     -8.41661905857010     -1.19037888519959
  H   1.35662429389944      1.81364952532729      1.19769759529195
  H   3.61590873017266      0.90458961455948      1.55815784459442
  C   4.20381206056235     -1.72315324937511      1.43102297185683
  C   3.74762984404244     -2.69076697636487      2.33591483698556
  H   2.69794063475650     -2.98598519562222      2.31427173886432
  C   4.60639332143198     -3.28877530978676      3.25710177408962
  H   4.20161891653747     -4.03552831628556      3.94135324653234
  C   5.97585872486418     -2.93469479534099      3.31987335648948
  C   6.43100146031505     -1.95145842914198      2.40659266021803
  H   7.47964885414013     -1.65171403365798      2.39954356241385
  C   5.55987276370836     -1.36912917698863      1.48863456995217
  H   5.95922230310245     -0.62848974030247      0.79027433045644
  C   3.86629045005107     -0.95138907488844     -0.96055066606047
  C   4.33887758545335      0.23932502163732     -1.52427571316256
  H   4.24676882516842      1.17905621216381     -0.97585130903581
  C   4.92081855467173      0.24696790164211     -2.79478810193965
  H   5.29709907386870      1.17116386397549     -3.23870824382606
  C   5.02556112960807     -0.94136595111010     -3.51973899263907
  C   4.54997235830976     -2.14400937743794     -2.98043255296552
  H   4.61539647552790     -3.06918183203565     -3.54931113454069
  C   3.98019382466333     -2.13490511741231     -1.70706121600982
  H   3.60063743440923     -3.06736476334966     -1.28354671799944
  O   5.67436241962784     -0.83716207753939     -4.74390861848086
  C   5.36684425068447     -1.59524434682509     -5.83541298520002
  C   6.25644130285303     -1.20461576388762     -6.99004625272927
  H   6.11971435763601     -0.13793169671856     -7.22672721098933
  H   6.01189853955121     -1.81952967727784     -7.86450140811842
  H   7.31325332709888     -1.34255771106175     -6.71283350661941
  O   4.51416911307001     -2.44092530305358     -5.86094310825965
  N   6.83024537488729     -3.52258542327539      4.22662965546573
  C   6.44457353447600     -4.62019151068412      5.10600620722354
  C   7.77919099397456     -5.11046351659005      5.68438078324861
  H   5.91675071688270     -5.41457189473720      4.54951022189737
  H   5.75707819817464     -4.27775260406403      5.90698156659305
  C   8.64404371657223     -3.84241520562943      5.69324328311159
  H   8.22269193868127     -5.86710456221741      5.01525794618781
  H   7.66620896470990     -5.57064675082024      6.67765068411778
  C   8.22028029310666     -3.12130203984270      4.40630055345247
  H   9.72451013034020     -4.04903740270492      5.72634983572078
  H   8.39629015217708     -3.22082815240510      6.57034137825276
  H   8.84823553576390     -3.42916635312728      3.54446417208400
  H   8.31430585909825     -2.02446725074295      4.49482364358420
