75
Coordinates from ORCA-job 87_0.0
  C   2.85558179919682      0.38166220386997      0.99805518090498
  C   3.20784481439232     -1.00635663738118      0.48625369936215
  O   2.00516330749167     -1.80793089289714      0.44355709319459
  C   0.85079881122039     -1.25165530937173      0.01469054362074
  C   0.58324221608673      0.10504166774784      0.15315711937060
  C   1.62300881706873      0.88795472694302      0.81599015188676
  C   -0.68001603547461      0.63393919697862     -0.28839689342670
  C   -1.64793442943675     -0.27073420250912     -0.83914244310314
  C   -1.34270191997224     -1.66090180349520     -0.94038023896483
  C   -0.12333864102907     -2.15431503036171     -0.52205883514767
  C   -1.01558423624636      2.01259986022253     -0.20739510508842
  C   -2.24375722026232      2.47900042966104     -0.63878704255177
  C   -3.19781667418717      1.58507609578542     -1.17767403690027
  C   -2.90067166353114      0.23993067694066     -1.27565140771110
  H   -2.09648392313597     -2.32587751663370     -1.36363813711007
  H   -0.28958213056910      2.72150138385361      0.19521961626874
  H   -2.47694644229484      3.54460107202597     -0.56552056547748
  H   -4.16667641755251      1.96023026525779     -1.51780998415974
  H   -3.63292926096634     -0.45689858808267     -1.69417052362110
  O   0.26626676843163     -3.44929240386729     -0.57326577938611
  C   -0.59526412076374     -4.41521272473141     -1.13381111374049
  C   0.14419885550330     -5.74025434444119     -1.07070581394627
  H   -0.84175551180206     -4.16733804234326     -2.18346034512711
  H   -1.54573877418751     -4.47873685996012     -0.57108798772289
  O   -0.71380256777629     -6.71458759256615     -1.67116302719025
  H   0.37134673256359     -6.01782827999428     -0.02912541826277
  H   1.10201299387070     -5.68002636073800     -1.61127575201059
  C   -0.24838673225871     -7.98335852476606     -1.72744264134148
  C   -1.25206974487571     -8.89800625851607     -2.38695631153562
  H   -2.19503910370105     -8.89419303240574     -1.81793980236769
  H   -0.84611146162368     -9.91565999368707     -2.43364845438992
  H   -1.48290026380758     -8.53590289329177     -3.40092476140052
  O   0.82851708939223     -8.30919012810161     -1.29805736760254
  H   1.38115572508065      1.88010610448727      1.20322628574692
  H   3.62970874851246      0.93878105620069      1.52978571129138
  C   4.16188092787517     -1.69806137643424      1.46992220139058
  C   3.74741892640603     -2.75265490607662      2.29175674490460
  H   2.72310186291762     -3.11749082319001      2.21133553473295
  C   4.62053519528346     -3.35240077680727      3.19750860193300
  H   4.25020793913243     -4.16936354622540      3.81811956932786
  C   5.96269124859870     -2.91809268021358      3.32138444524064
  C   6.37411987454964     -1.84545066398584      2.49202309217511
  H   7.39972673020284     -1.47727311376652      2.53705131391823
  C   5.48747120473964     -1.25841017129264      1.59143555781731
  H   5.85308291830520     -0.44542726545644      0.95680469907172
  C   3.80601241442150     -0.98204942085185     -0.93486515434860
  C   4.06231661935141      0.19924158212631     -1.64369518088658
  H   3.82719046625792      1.15701148324382     -1.17584837475447
  C   4.60275849152907      0.18568924486597     -2.92958354831010
  H   4.80134814228979      1.11268727698040     -3.47024663654295
  C   4.88888856237531     -1.03537058418725     -3.54970469538132
  C   4.63894535179517     -2.24067906363339     -2.88285692010377
  H   4.84529809954687     -3.20530914477241     -3.33706027045261
  C   4.10757102746557     -2.18279102084449     -1.59608030271077
  F   3.88626773519267     -3.34775575344453     -0.97730196129329
  O   5.42478110450154     -0.91851490880948     -4.82095486982743
  C   5.72848108131340     -1.94246680973298     -5.66799864132723
  C   6.29318335182593     -1.38227713530233     -6.94996115121236
  H   5.56128660778244     -0.70722588626422     -7.42039745285923
  H   6.53893309385794     -2.20595176578646     -7.63088841839871
  H   7.19409893566801     -0.78647125681357     -6.73542307092926
  O   5.56884339675707     -3.10899836529719     -5.42630950893819
  N   6.83310447196346     -3.51609684730919      4.20654125786232
  C   6.50843579537367     -4.71201638904635      4.97566425001758
  C   7.86673222440557     -5.17664988653517      5.51948147315102
  H   6.03118495324908     -5.47975117877514      4.34159342837076
  H   5.79810324315135     -4.48751100964544      5.79818231263357
  C   8.65853848645175     -3.86836101771703      5.65124405147747
  H   8.35508515433951     -5.84276176472324      4.78821844096909
  H   7.77664224602599     -5.73156326562601      6.46562093380416
  C   8.19771926422160     -3.05663414302737      4.43274876667375
  H   9.74886849406498     -4.01643558581202      5.67268450805873
  H   8.37503424894911     -3.34487956915098      6.58001100486580
  H   8.84394174291422     -3.24849909869088      3.55079945220247
  H   8.23026896159045     -1.96894071180054      4.62201890531790
