71
Coordinates from ORCA-job 88_0.0
  C   2.88966095227072      0.21626125166178      0.96686126126685
  C   3.34230673265492     -1.13611523918763      0.44587760899220
  O   2.19165567105322     -2.02360060981501      0.35465443113100
  C   0.98409045516739     -1.54004634668755     -0.04148374067867
  C   0.63207190303814     -0.20467844605192      0.14194040574117
  C   1.62419406450377      0.63872175191537      0.80093451917732
  C   -0.67274562534248      0.23909219961084     -0.26169283748375
  C   -1.58631106541451     -0.71951361554942     -0.81670276722655
  C   -1.17927884566122     -2.07671904754140     -0.95410689513380
  C   0.07813597845501     -2.49859022278492     -0.57852969974958
  C   -1.10880935089294      1.58855880080197     -0.14102478835067
  C   -2.37543804806513      1.96956584701876     -0.53984175427478
  C   -3.27513081363449      1.02145792461916     -1.08413668706860
  C   -2.88245297505503     -0.29433390950038     -1.21897264360611
  H   -1.87764585781588     -2.80144168786524     -1.37534889741987
  H   -0.43098257423141      2.34178185001242      0.26470710939617
  H   -2.68474944446160      3.01332025816687     -0.43710161168766
  H   -4.27441957254568      1.33447103614703     -1.39773773906788
  H   -3.56690011610552     -1.03602884698545     -1.64097642773963
  C   0.55534268042989     -3.92092151716486     -0.71292873639045
  O   -0.48091610716352     -4.72509297767179     -1.28155690322566
  C   -0.20038406823939     -6.03532190192655     -1.45513538638013
  C   -1.36953571973598     -6.76123470014939     -2.07597489976048
  H   -2.26907057613743     -6.63260285526548     -1.45419032320661
  H   -1.12862106397998     -7.82642874139900     -2.17598569887828
  H   -1.59297739606170     -6.33268581436063     -3.06563648297435
  O   0.85318645443996     -6.53195610446475     -1.14503650571595
  H   1.32335301946966      1.61186983427287      1.19490732746393
  H   3.63182870520175      0.82581993966074      1.48686531670406
  C   4.29767994225333     -1.78074989065261      1.45896954013755
  C   3.84482786404432     -2.69063329761196      2.42357457758974
  H   2.79542194704173     -2.98812070010817      2.42665967213624
  C   4.70431648931280     -3.22748609865529      3.38044428751285
  H   4.30170228095450     -3.93169448245459      4.10945062310104
  C   6.07203297223774     -2.86352355940179      3.42305010897117
  C   6.52345612895088     -1.93385141858191      2.45340774345759
  H   7.56990139531521     -1.62721857584946      2.43140028887487
  C   5.65132661857455     -1.41416842452996      1.49939508645402
  H   6.04628807014473     -0.71248698571451      0.75948624315441
  C   3.97107766001805     -1.06543802837885     -0.96078861831158
  C   4.10414691369380      0.12977443133688     -1.67546706252514
  H   3.77111264554486      1.06972557453035     -1.23116954720993
  C   4.64873757949672      0.13763088167041     -2.96389388855294
  H   4.75853573292883      1.06816065008772     -3.52491116308825
  C   5.05485283627942     -1.05941406291714     -3.55183732250979
  C   4.93052506309872     -2.26937357636701     -2.85698456375990
  H   5.24228410171442     -3.20572991063967     -3.31839972092511
  C   4.39599171721162     -2.25905767873296     -1.57014182803805
  H   4.30598431851817     -3.20061998208347     -1.02328050891283
  O   5.63917940181742     -0.96474230720802     -4.80857396259518
  C   5.32823635213086     -1.82828970716745     -5.82249402554058
  C   6.12372878893269     -1.47426424592672     -7.05400008765078
  H   5.94385403782600     -0.42471460192375     -7.33308800007792
  H   5.84023393833920     -2.14099740634136     -7.87722114970717
  H   7.20012435586814     -1.57366839642766     -6.84224738152486
  O   4.53506958140574     -2.72389319827364     -5.72666605123521
  N   6.92641605037988     -3.39107948591155      4.36542447729956
  C   6.54619421482395     -4.44304222706486      5.30197741638261
  C   7.88274500716168     -4.89034737567945      5.91018625154508
  H   6.02668082758785     -5.27043256911845      4.78747760351002
  H   5.85347638514498     -4.06304506466562      6.08096583631319
  C   8.73666257226720     -3.61614439953947      5.85317738076629
  H   8.33474045573881     -5.67791774205739      5.28388910108748
  H   7.76983168811464     -5.29751627142623      6.92630874578463
  C   8.31420014618382     -2.97277694954911      4.52518496349856
  H   9.81870932040148     -3.81011963813277      5.90450388525997
  H   8.47663444305401     -2.94859116489473      6.69205057315525
  H   8.94631306023915     -3.32739576300797      3.68474194801368
  H   8.40182581259465     -1.87230001150021      4.54997051081285
  H   1.45743501118507     -3.97399756044981     -1.34521584979705
  H   0.85229887532755     -4.33486688819606      0.26555731329035
