56
Coordinates from ORCA-job 8_0.0
  H   -6.07614873065800     -0.34564674413873      0.45301791542110
  C   -5.93625955569795     -0.00787500054398     -0.57688984670890
  C   -7.05822159540424      0.41673206178475     -1.29723540094785
  H   -8.04413589889533      0.40182254895395     -0.83859593863864
  C   -6.89361517999711      0.84680734562844     -2.61762541684381
  C   -5.62281356626889      0.85136044931849     -3.20340778384933
  H   -5.51910631779870      1.20004452912227     -4.23322589819758
  C   -4.51646740963780      0.42245098040791     -2.47254125286278
  H   -3.53114784515773      0.42942401963266     -2.94556056915674
  C   -4.65356103429682     -0.01643964894555     -1.14388585021033
  H   -0.91300331068670     -2.14328059039083     -0.87361946912419
  C   -0.53439050167421     -1.34871101680273     -1.52282745890573
  C   -1.04060567358019     -0.04046813814852     -1.40830599182119
  C   -0.51075065381020      0.93872763722937     -2.26062910796494
  H   -0.88161530498340      1.96567061008814     -2.19106663120252
  C   0.48050318978503      0.65146795719406     -3.20657737694929
  H   0.87448016946969      1.42878634520241     -3.85519015475469
  C   0.95850063784373     -0.66052630297222     -3.30144473798135
  C   0.45097394946538     -1.65721067624734     -2.45599416845739
  H   0.84376601414758     -2.67198858577568     -2.54817221688688
  O   -7.91048868679513      1.34698411892614     -3.42063207441700
  O   1.92432547471026     -1.11392986695058     -4.18817937696537
  C   -9.21998185981118      0.98049593590192     -3.32458198020374
  C   -10.02672150186447      1.70913004662672     -4.37097716291627
  H   -9.90359991155178      2.79679133732041     -4.25126388163703
  H   -11.08405361826778      1.43444980921997     -4.27475401526187
  H   -9.65920037521818      1.44949380666486     -5.37618983284043
  C   2.61397927141406     -0.35799053725040     -5.08598026480577
  C   3.56495005988706     -1.23771741787475     -5.86000423163298
  H   4.25033306655865     -1.75299703932261     -5.16919842786122
  H   4.13330319917311     -0.62431758910300     -6.56947457528990
  H   3.00200183369224     -2.01516167099215     -6.40010216451836
  O   -9.65364463878894      0.19402785803397     -2.52621352129730
  O   2.48146218515694      0.82764222340289     -5.23749151722188
  C   -3.45166856321061     -0.51158464754797     -0.37636638324406
  C   -2.11809713468154      0.30347600680360     -0.41378994604651
  C   -1.91999780362526     -0.06057585704676      1.09891208777438
  H   -2.36386114475762      1.37421913202518     -0.48614220314572
  C   -3.42245375241965     -0.41862052947057      1.18357299429507
  H   -3.23235294576011     -1.55466047154142     -0.66527842699811
  C   -3.76761925917544     -1.68284374313787      1.93221452296490
  H   -4.01315551127205      0.43318891184862      1.54588888960438
  C   -1.44094449307955      1.06271227234576      1.98634392627269
  H   -1.28947884982066     -0.95041080209145      1.22168434289079
  O   -4.98442031520524     -1.61672476554667      2.50506387779589
  O   -0.18589926437761      0.85923676568514      2.42254769609292
  O   -3.06095350772282     -2.66206090638931      1.98861669048429
  O   -2.08834134184639      2.04808869821457      2.25382632512813
  C   -5.42830243209143     -2.78978565736371      3.19216224691314
  H   -6.41688549083511     -2.54848904873546      3.60197430734968
  H   -4.73088479424206     -3.05320905552752      4.00164775663559
  H   -5.49851405729346     -3.64403211279807      2.50130166430133
  C   0.38144131945180      1.89492186830735      3.22688933180903
  H   1.39549636155292      1.56317092453654      3.48269256393544
  H   -0.21281325346419      2.04989440840836      4.14052950181807
  H   0.41793035341754      2.84513981382142      2.67201861628105
