30
Coordinates from ORCA-job C:\Users\AIElement\Documents/90_0.000
  C   -3.46718857694131      0.86639619721091      0.82293951171998
  C   -2.06428774205428      1.36048504534398      0.47260999449830
  H   -4.08637049161927      1.71133879071672      1.16240649132480
  H   -3.97694800869375      0.41303542960549     -0.04157605488267
  H   -3.44297990917769      0.12254668283536      1.63518752080102
  C   -1.05344497364033      0.25474186037880      0.05476436992035
  H   -2.10162101678427      2.08256666992220     -0.36013726695239
  H   -1.62539769163499      1.89220868101240      1.33298331643749
  N   0.18939553383443      0.98622794723527     -0.32444055331438
  H   5.01136398795294      1.56754949523847     -1.13085835169010
  C   -1.49531308110767     -0.51798784928191     -1.20202459537639
  N   1.10631502291656      0.91569729393516      0.48853206658975
  C   2.35443714677728      1.65246869828499      0.09131696755007
  C   3.44834893103954      0.54724914354031      0.02742233403850
  H   3.16519160507989      3.01436535827541     -1.39469240507696
  C   2.23529061006702      2.45900650547787     -1.20877080609931
  C   4.87811356496443      1.04953629161391     -0.16819115724597
  H   3.37327020962886     -0.03995226770963      0.95625127974046
  H   3.15796983795689     -0.12808993033710     -0.79559430161090
  H   5.17621571646154      1.74104658805554      0.63610286473639
  H   5.57819634200620      0.19978331128671     -0.15260375208623
  C   -0.84318135515568     -0.69387920967374      1.17289312986676
  H   -1.67299556574086      0.19228661449561     -2.02314144780183
  H   -0.71018263248725     -1.22407739724162     -1.51134802418829
  H   -2.41439550858282     -1.08881119519916     -1.01011508392526
  N   2.85852452031175      3.29195407824773      2.09587719867297
  N   -0.72918175934899     -1.47122519683934      2.02415918240226
  C   2.62645511984775      2.56281104604190      1.22609114400413
  H   2.04381621221682      1.78256410413353     -2.05388543450550
  H   1.40405395190727      3.17521721339422     -1.15265813754706
