38
Coordinates from ORCA-job C:\Users\AIElement\Documents/91_0.000
  C   -3.50292294679412      2.31476527729936      0.19612670425764
  C   -3.58677737728964      0.79763303758067      0.00692316327810
  C   -1.98326623282139     -1.11183765827662      0.44377688566485
  H   -0.42085739120493      1.06520338241210      0.44790772148862
  C   -1.99959816149340      2.59989493871328      0.27846256732580
  N   -2.38496181453144      0.27027104494072      0.45699236374798
  H   -4.02912047465252      2.82591692451845     -0.62193508634131
  H   -4.02749127829182      2.56687831294612      1.13520948578402
  C   -1.41808266869820      1.29631046432125      0.85393516956497
  H   -1.59640178150236      2.76911457331411     -0.73323482898718
  H   -1.74363494991193      3.47774631644603      0.88955392329472
  H   -1.32772720128380      1.33651320915520      1.95651238919748
  O   -4.53779483822805      0.18431246749588     -0.42670131701728
  C   -3.08634841554961     -2.13035405074645      0.68336828926159
  H   -3.54565845830811     -1.96674957527322      1.67086387423892
  O   -1.35827152906278     -1.29997316083111     -0.85064610084205
  H   -3.86461626282129     -2.05394025140166     -0.08399148113366
  H   -2.63852536118919     -3.13415253891956      0.66731450140037
  H   -1.19130232152590     -1.23633051729098      1.20445644869873
  H   0.96440540646619     -1.30937498000699     -0.17595212301626
  C   2.22949645410709     -4.73154555438487      1.41402059216135
  C   1.68151758533075     -3.34394895531376      1.09270412733045
  C   0.80098118591752     -2.16518115475114     -0.85057680909153
  H   2.27989402946578     -4.38774756576845     -1.92371124269155
  C   2.67183151598943     -5.28813208440710      0.05393624158938
  N   1.51996537562134     -3.26934018091460     -0.28138146341210
  H   3.02280619079301     -4.67112553566560      2.17268207086976
  H   1.40072258236034     -5.31520468042634      1.85297612821996
  C   1.77855365457627     -4.54147473567338     -0.95624285234627
  H   3.72809366999445     -5.03376162782843     -0.13051648013855
  H   2.57206526913913     -6.37979526824960     -0.03131721632336
  H   0.83435093967854     -5.08428744531291     -1.14910766905867
  O   1.40549020740441     -2.46033645702388      1.87857876930654
  C   1.19909057956343     -1.82115739761675     -2.27654365610798
  H   2.26665644080361     -1.55616090372718     -2.33460080152538
  O   -0.59297079807980     -2.52128543859363     -0.77545949782305
  H   0.99494596038568     -2.65828231391344     -2.96135396099684
  H   0.60273321564329     -0.96078991682541     -2.61225882982821
