28
Coordinates from ORCA-job C:\Users\AIElement\Documents/92_0.000
  C   1.12585556952298      0.81543151999954     -1.13708098051128
  C   -0.00221476532687      1.01945251098079     -0.31408731273294
  H   -1.24620554063345      0.12210623755366      1.22198381110358
  H   2.72250451397115     -0.51368881753298     -1.71408050861982
  C   1.85238356930348     -0.37105642937602     -1.06890110321853
  C   -0.37369096389853     -0.01338317806785      0.57557345196887
  H   0.04875650405775     -1.98870626909940      1.32452840021762
  H   1.43199408068189      1.60104869190201     -1.83464799044368
  C   0.35320264420699     -1.19790819490486      0.63451846425283
  C   1.47937777030013     -1.39738003026372     -0.18381200266223
  N   -0.70042934405407      2.21213469960022     -0.34671736580032
  S   2.37887060296619     -2.93630515897128     -0.15681601671100
  H   -0.58835794487120      2.79524050803279     -1.16714853318524
  H   -1.63835661278953      2.21363792206282      0.03549088334343
  H   8.36688885253477      1.34157492770008     -0.71114630192037
  C   7.23354510907961     -1.75663909322279     -0.39579553986830
  C   7.34124231900468     -0.36283270201085     -0.19002251750147
  H   6.37318072226615      1.36492390207184      0.69665489571216
  H   6.07738924662101     -3.54482845372097     -0.07063352260813
  C   6.14302127039544     -2.46671974355796      0.09533790677848
  C   6.30996482711980      0.28662308767749      0.52134148629330
  H   4.42690777253777      0.08914720574633      1.55204242006803
  H   8.02398987641963     -2.28197289051113     -0.94053524061200
  C   5.21763614102957     -0.42971522285256      1.00496899024240
  C   5.11525707460201     -1.81693792628460      0.80193274396644
  N   8.44854594638377      0.33516576314558     -0.63361985507172
  S   3.74240198470298     -2.72883591353837      1.48103295487190
  H   9.01042877386584     -0.09206695255781     -1.35976161735200
