28
Coordinates from ORCA-job C:\Users\AIElement\Documents/93_0.000
  S   -1.94944215036739      2.97246823926818      1.35893684426474
  S   -0.89629041345543      1.22664354417775      1.79336737130750
  C   -3.19884226681690      2.41875298341566      0.12972708739647
  C   0.45575855242464      1.25725517774711      0.53521864191340
  H   -4.82219018169709      2.06207966696938      1.53689643360865
  C   -6.19314318662665      0.34665279649816      0.01394265097162
  C   -4.27360659756318      1.53621531900817      0.73912045869911
  C   1.38693516744671      0.07376486785585      0.79051271047505
  H   0.02324241661614      1.18952787544576     -0.47471729872543
  H   1.00553956168717      2.20383635056411      0.63529787930613
  O   2.39397483076912     -0.00604050128690     -0.22672336801602
  H   -3.63378329209989      3.35607436385971     -0.25687701616890
  H   -2.69948399274302      1.91223490519900     -0.71019662473224
  O   -5.17503404935793      1.17289672073031     -0.31710064672169
  H   -3.83545517820198      0.62781573884675      1.18210787389983
  H   1.86403613997624      0.16620943302831      1.77748946031397
  H   0.83784917532654     -0.87790129046792      0.73573927390945
  C   3.52787155385223      0.71255060895468     -0.03560330676848
  O   3.71748205837887      1.40978174375223      0.92858468761972
  C   -7.04547923462683      0.02864837022910     -1.19082539497875
  C   4.48880862395371      0.51067988919222     -1.18063490099364
  O   -6.36615244440827     -0.07132831200828      1.13081249155626
  H   4.02469174265847      0.84709665203387     -2.12110634744063
  H   5.40879872273947      1.07718237503303     -0.99290783208906
  H   4.71724783254930     -0.56001977863536     -1.29678500411236
  H   -7.88907569774211     -0.60339554863590     -0.88828007389018
  H   -7.41238537741206      0.95830382066371     -1.65255018818943
  H   -6.43966231525985     -0.49294601143867     -1.94870586241508
