112
Coordinates from ORCA-job 94_0.0
  H   2.41727706318760     -2.28307296692525     -4.63718224306823
  C   1.70468055249225     -1.46220594180702     -4.56983443657497
  C   0.49538753908546     -1.58511602848177     -5.24533144703608
  H   0.27794519795763     -2.47242017869542     -5.84374860020001
  C   -0.48032121490145     -0.57825847994863     -5.16456940433837
  C   -0.21295303509923      0.55591554560324     -4.38369257476366
  H   -0.94400888278177      1.35840247668509     -4.28286483953428
  C   1.01140430896849      0.66950409321306     -3.71556126703569
  H   1.17656063446409      1.56316358236603     -3.11322176743421
  C   1.99844494408680     -0.32523406175026     -3.79168091939568
  C   5.38221592625360      0.46038764300247     -4.13282604162754
  C   4.16338420150885      0.98671241377525     -3.70654104322837
  C   3.84463500495739      2.30899268715531     -4.03109644276228
  H   2.87780781414086      2.71582419319028     -3.74767874251220
  C   4.75792529396655      3.09208008805725     -4.75528032233563
  C   4.43265375407194      4.52486524226814     -5.23336079687982
  C   5.99833003650835      2.51908328022335     -5.10226744699814
  H   6.70949936759801      3.13447580372462     -5.65123790587498
  C   6.36163136078954      1.19326205595690     -4.81842307361485
  O   -1.62538636562026     -0.78821453740737     -5.85859414201486
  C   -2.66416418152465      0.17785439202676     -5.81674978374174
  C   -3.81137460378306     -0.32709603135844     -6.67151698094404
  H   -2.29209850722814      1.14990400108029     -6.19431569759196
  H   -2.99356065951164      0.33436852001198     -4.77166474503110
  H   -3.48550015630450     -0.47403541464306     -7.71293805842383
  H   -4.64027477092904      0.39816107588245     -6.66395642681513
  H   -4.18635812141183     -1.28934543004695     -6.28971270881408
  C   3.34753961212277     -0.13837637749998     -3.06770872798187
  C   4.30822655837864     -1.34532632166731     -3.31475988502763
  O   5.48782649938247     -0.88570288891872     -3.85529211784794
  O   4.14698996768916     -2.50701038508453     -3.10675816422062
  C   3.04141312472014      4.99128617310551     -4.76709706767948
  H   2.23919328394484      4.35161498820205     -5.16738326626678
  H   2.85336259331611      6.01694609822196     -5.12216583320889
  H   2.95347926338851      5.00044099011886     -3.66968404306350
  C   5.48690678427547      5.52019287711241     -4.69615992813122
  H   5.49891286317942      5.53369504493862     -3.59491379488224
  H   5.26416915167029      6.54220184451352     -5.04531711689767
  H   6.50281139523016      5.26862709719447     -5.03767305942157
  C   4.44955127805349      4.55670993881484     -6.78115452039055
  H   3.70600102457181      3.85910769903968     -7.19875497261951
  H   5.43434673043643      4.27826310665974     -7.18689280175263
  H   4.21168540466227      5.56927768911483     -7.14799293506541
  C   7.70554238850852      0.57425438825693     -5.24896614593901
  C   8.61946363047437      1.60983132482014     -5.93069751047856
  H   8.17893086309918      2.00879265062718     -6.85829854862976
  H   9.57448824238877      1.13254185459936     -6.20144383785195
  H   8.85045925024762      2.45784294853602     -5.26623836643122
  C   8.44874588586837      0.02726013200434     -4.00677350481773
  H   7.86202637531020     -0.73911767159272     -3.48218061793037
  H   8.67016571964543      0.83868577298173     -3.29386140975084
  H   9.40715708745856     -0.42612203863781     -4.31000531514689
  C   7.44895782481091     -0.57518852105507     -6.25390316797027
  H   6.93127147376498     -0.20152599342109     -7.15229719499377
  H   6.83810491481935     -1.37485458955322     -5.81289811433900
  H   8.40686780944222     -1.01750422271311     -6.57470321450994
  H   4.39004309445130      4.98407105839706     -1.60383238217741
  H   9.49259077782458     -0.49535552871545      0.29118550344788
  H   -1.92057609515323      1.89582504554664     -0.86486106433180
  H   10.43933792076717     -2.31698268635718      1.75708941973773
  H   1.95180253501922      5.86854709505779     -1.62071053107038
  H   -1.59911327887750      3.67231956129572      0.94760669547727
  H   4.75991839480198      6.17920516712669     -0.34437483876725
  C   4.39538680782472      5.15411173387197     -0.51670986701593
  H   -2.39454131080588      2.56895087871267      2.08914730891781
  H   11.13770294036693     -0.72498213438343      2.17231527058939
  C   10.21147114942779     -1.32083926697297      2.16688020967976
  H   2.44331298820425      7.05235054518609     -0.38165490656528
  C   9.14742278092472     -0.63120665002954      1.33401439851494
  C   2.05176336589359      6.03296698508855     -0.53581813487574
  C   -1.41971732129584      2.85398478686603      1.66304334117295
  C   -1.74372651049146      1.11669999950580     -0.10495752586211
  O   7.97997586668769     -1.43800381499596      1.35691716846134
  C   6.87792099523070     -1.05250509762053      0.66949852387439
  C   6.77308044363102      0.13099322288922     -0.07653050379777
  C   3.16448722956618     -0.03799696695766     -1.44568924727203
  C   5.77299179435100     -1.91766083485434      0.71795756950129
  H   5.12687030892370      4.46381569269027     -0.06771083076832
  C   5.58095695576487      0.43105498930638     -0.74366843742206
  H   -1.35175416933525      0.22421404671978     -0.61194704002701
  C   4.59645927512905     -1.60988164054942      0.04310694405855
  H   7.60788324736089      0.82821671914872     -0.14993945208641
  C   4.46585774319766     -0.41947231472573     -0.69992588872011
  H   5.86257174568335     -2.84398701064086      1.28937905944750
  H   5.54689679320493      1.35502147189485     -1.31970278959206
  H   -2.71710841665896      0.85428191979330      0.34204420719652
  C   2.99579836090585      4.98748382370785      0.10255796173264
  H   3.77728412470920     -2.32661343581927      0.08027479690593
  C   2.00549865031851     -1.01267354508243     -1.06534068901502
  C   -0.77699566317682      1.62616951907877      0.99111165741983
  C   2.59918645621234      1.27848001293802     -0.90523702561538
  C   3.13486095146112      2.56620129310799     -0.79832931334073
  O   1.90976676020266     -2.18816016457812     -1.23420606588192
  H   -0.80293532773535      3.24549119211123      2.48760789699601
  H   8.92117701338142      0.37346122386827      1.74027839734131
  H   4.10527176799051      2.78753369897576     -1.23221147448009
  H   1.04183269880833      5.99616034460980     -0.09893408750643
  C   2.42843688308270      3.56695316919540     -0.11217364828379
  C   1.36248032636186      1.01433965336108     -0.31537157637731
  H   9.87092396172435     -1.44670247956600      3.20635952166837
  O   1.00208622007986     -0.30987505173092     -0.44055382039073
  C   0.58695298365293      1.96769102448169      0.35983069316277
  C   1.16935681809032      3.24261945500323      0.43058101265693
  H   -1.55835683998646      0.29511830904871      2.53983129040893
  H   0.62175058529515      4.02428995272635      0.95485740792342
  C   -0.58884970265931      0.53363298026791      2.07178972703118
  C   3.11514310981730      5.26628913899198      1.61999135512865
  H   3.52806593930296      6.27392957633708      1.79445808192113
  H   3.78305915419477      4.53528615941519      2.10341294834203
  H   0.09327872141161      0.88097060931209      2.86478112211633
  H   -0.18063360904743     -0.39337689295047      1.64691591938018
  H   2.13969210217940      5.21536182901705      2.12737877286920
