72
Coordinates from ORCA-job 95_0.0
  H   2.91477237485463      1.73189384664774     -0.48968673108182
  C   2.80652572473695      0.82264844171045     -1.08459137792272
  C   1.79122664359496     -0.08450921725541     -0.74397030569464
  C   1.65279809843859     -1.25877610784702     -1.50073600255845
  H   0.88116338442492     -1.99330814321718     -1.26898379616801
  C   2.51384003776342     -1.49753366684285     -2.57422463429639
  H   2.37851187164914     -2.41606067754900     -3.15021125645079
  C   3.53117729502203     -0.59873933495953     -2.92874924715279
  C   3.66050162102781      0.56751628543825     -2.15539682255868
  H   4.42978077377624      1.30580749029580     -2.37306670211578
  C   8.49975763088246     -0.00072326882843     -0.88898439956382
  C   7.49007913606312     -0.97383361682664     -0.95653258991124
  H   7.42082668845006     -1.70835304352917     -0.15148335449751
  C   6.59284854198008     -0.99945587740129     -2.02202098832191
  H   5.82859237187101     -1.77441851398134     -2.02003680804449
  C   6.67295256150044     -0.05921906016905     -3.06344969895192
  C   7.68725289646599      0.90658650496831     -2.98339346563368
  H   7.78594156591659      1.65441676210464     -3.77383935610876
  C   8.59059262467476      0.94925618393534     -1.91911276844419
  H   9.35662020034048      1.72477929823056     -1.90764507390761
  O   1.00771787637492      0.25047975245434      0.31049276958410
  C   -0.02574495675040     -0.62285361007553      0.70877091681507
  H   -0.51783142711210     -0.15269740115182      1.57117767508483
  H   0.36484744756501     -1.61054287630542      1.01479055452672
  H   -0.77280732183090     -0.76963410869286     -0.09257853508961
  O   9.32222386988512     -0.05526387635355      0.18592546326474
  C   10.35971991192560      0.90338042864051      0.33344207577082
  C   11.10391006362319      0.59641036931874      1.61926680987746
  H   9.93014550815261      1.92297098782294      0.36169580685902
  H   11.04372588086171      0.85725003688176     -0.53553618005982
  H   10.42499844938309      0.65153729336267      2.48432098449205
  H   11.92017355484175      1.32036348043349      1.76940730802848
  H   11.53681482888089     -0.41542074469512      1.58578186367620
  C   0.29309427292127      0.78129109460551     -9.10366578207701
  C   1.93308311086561     -0.37515228769613     -7.78325328452003
  O   1.22139510122242     -0.27989778071625     -8.93195834582734
  C   2.84275193316698     -1.44300427321792     -7.69848116596237
  C   1.81447917993119      0.50284517207089     -6.69429254082708
  H   2.92491705582316     -2.12610411209702     -8.54641985359433
  C   3.61876870584385     -1.62032508772257     -6.55824686921564
  H   10.50447610409658     -2.72933693554228     -8.09973718705385
  C   2.59466842680880      0.30642810122479     -5.55092278408576
  H   1.11668465024968      1.33997948646008     -6.71691945830246
  C   3.51320295308669     -0.74728227496571     -5.45969445986543
  H   4.31411864573423     -2.46059540752309     -6.52379121265840
  H   2.47293375547284      0.99809009733916     -4.71694373310330
  C   7.18372164028086     -0.43544875778299     -7.90922097559698
  C   8.08342762938038     -1.50419283473316     -7.76034128168657
  C   9.67532676320690     -2.95187439293299     -8.79609970752264
  O   8.75477945017884     -1.88600567408963     -8.87456514888775
  H   7.07614690509049      0.02252263862174     -8.89463329480902
  C   6.44895379507928      0.02432056254797     -6.82161663595482
  C   8.23609431543366     -2.09234008242021     -6.49536835457785
  C   6.58810518334091     -0.55637224270940     -5.54736125160747
  H   5.76044612316513      0.85773213536025     -6.97080436713973
  C   7.49811318825026     -1.61247501082157     -5.40901299732619
  H   8.92898034645211     -2.91879045833905     -6.33597696191987
  H   7.64777727010425     -2.08120485524275     -4.43602782740106
  H   9.18957359848794     -3.89300553438275     -8.47999498073677
  C   4.38595223942176     -0.92278301049420     -4.18614061334225
  C   5.76509019337728     -0.06172707043564     -4.32563804612682
  C   4.76459115980593     -2.35045361766729     -4.09929025975894
  C   5.37787914339937      1.34205724652215     -4.58768402155496
  N   5.02097646940274     -3.47866980687638     -4.02849294634588
  N   5.11327758660692      2.45157060164405     -4.79376503696885
  C   -0.33018695785159      0.64185418658834    -10.47966858633301
  H   0.81001542046554      1.75465148927840     -9.00319909217792
  H   -0.48207493273066      0.73613065269100     -8.31493157132872
  H   0.44166154241064      0.69528814445657    -11.26302649928500
  H   -1.05884667461304      1.44951517526399    -10.65191089052239
  H   -0.85040426734193     -0.32389899002216    -10.57497362334007
  H   10.08620324473818     -3.08548030280806     -9.80620048410008
