64
Coordinates from ORCA-job C:\Users\AIElement\Documents/97_0.000
  H   -3.31928401096552     -0.76653882836437      3.74972122244358
  C   -2.82122872691096     -0.12457083072938      3.01743743992858
  C   -3.24727975487996     -0.14730657487001      1.67566722166455
  H   -4.06848814527146     -0.80279581875847      1.37648602173571
  C   -2.61733403198304      0.66584808365141      0.73787502306023
  H   -2.91337363523556      0.67201764146233     -0.31414353870318
  C   -1.57148588780701      1.50341019436641      1.15325718034714
  C   -1.14449478607785      1.51957196731438      2.49055668112340
  C   -1.77530579821908      0.69836680598500      3.43749866660539
  H   -1.45372861726693      0.70125351871111      4.48175519780118
  C   -0.38897080049000      4.74711181562994      1.13083161360326
  C   -1.18117730228099      5.27032568604975      0.08830603781415
  H   -1.42044095703792      4.65491377251157     -0.77816585516867
  C   -1.66673606656818      6.57331288859077      0.13096137715432
  H   -2.28112826368125      6.96785104188199     -0.68119386026382
  C   -1.37102477975802      7.41722009574030      1.21388827804085
  C   -0.58516832507330      6.91289837466501      2.26175041985509
  H   -0.33672554670464      7.52468710770775      3.12942441737486
  C   -0.10982661875531      5.59977737529908      2.21095797904939
  H   0.49314552331880      5.23879699741964      3.04420301059468
  S   0.21406481690835      2.58748847801618      2.81529005174079
  C   -0.79753925998466      2.39050957088252      0.27808543929159
  C   0.18060519345207      3.31089407621249      1.07614378718717
  O   -0.88649949478052      2.44049138574087     -0.93415441788667
  O   -1.87528997451662      8.67515842737469      1.14662652904652
  C   -1.62766356778705      9.62234108397593      2.17810932179028
  C   -2.58504805476314      9.48080848207675      3.35514674799732
  H   -1.76482681501350     10.60346385593488      1.69692234106340
  H   -0.57414128254586      9.56821960564622      2.50616751552094
  H   -3.62858336169363      9.55459283831085      3.01109184130985
  H   -2.40486523925351     10.28434183804853      4.08806574843064
  H   -2.46407053951522      8.51565608038160      3.87072333489519
  H   4.19265053213253     -2.50266343683849      2.08579531889342
  H   6.15289603232375     -1.23637693681951      1.03808896740232
  C   4.54314999503028     -2.71769631965416      1.06021458241672
  C   6.00108052969718     -2.31418636658979      0.87418139656957
  H   6.63927886981148     -2.86154157864293      1.58713069374536
  H   4.14514153623137     -0.36172462488525      2.17976737183293
  C   3.52136887101310     -0.01602402604538      1.35502966905489
  H   4.42785255304564     -3.80121610773437      0.90148125185587
  C   3.00207202701729      1.28213221715606      1.40878129655017
  C   3.24109801065219     -0.84309193133831      0.25814850999762
  H   3.23300753051135      1.89089454465762      2.28218205600570
  O   3.67751992264721     -2.11887572187825      0.10370452027410
  C   2.43463540485377     -0.33669289206786     -0.77609427345391
  C   2.20427685542721      1.80475109932135      0.37890398357092
  H   6.33763975586763     -2.55483964076694     -0.14640945453768
  C   1.93242019653929      0.95740573941806     -0.71565841127232
  S   1.59448454620105      3.96914044469096     -1.29124028735170
  O   2.70139390688650      4.09567104858627      2.45868673781442
  C   2.60667917380159      4.15502242058337      1.24692571987517
  C   3.37647826127587      5.04969564444957      0.37626275855233
  C   2.94764436034511      5.04078535131396     -0.96056108736785
  H   2.21612674314452     -0.98366429268085     -1.62838373161911
  C   4.42020118034610      5.88809365411579      0.79562645325522
  C   3.57380547660694      5.87121469460493     -1.90282229203446
  C   1.62873486767615      3.23767403375458      0.44501732703139
  C   5.04539963369045      6.71018375961181     -0.13735797593749
  C   4.61692988680103      6.69527794946016     -1.47869372747093
  H   4.71806288940895      5.87540259785487      1.84711301266988
  H   1.31604241312330      1.31638829239656     -1.53990180401103
  H   3.25024150629839      5.87444982002299     -2.94641302138921
  H   5.86479797635488      7.36659682760743      0.16484669879953
  H   5.11097266637935      7.34449669946994     -2.20726503416959
