36
Coordinates from ORCA-job C:\Users\AIElement\Documents/98_0.000
  C   -2.04933068583993      1.92977481709848     -0.10438663329724
  C   -2.18745123481217      0.61630884405118      0.63191802346877
  C   -0.70411057950085      1.88120306900563     -0.15298869700592
  C   -0.60855718149365      0.55918500106685      0.57488495590278
  C   -2.26856162601278     -0.62490084952727     -0.30178050552332
  H   -2.76117252319547      0.58007602760965      1.57211530789494
  C   -0.68596936453010     -0.68436300963696     -0.35570856479018
  H   0.02714751118550      0.47906130045403      1.47144997752542
  H   -2.79356268389555      2.60982985309898     -0.53208903637029
  H   0.05430140902359      2.50721693422246     -0.63482328749036
  C   -2.28359608215390     -1.96335946234892      0.46279144679762
  H   -2.92176596036405     -0.54214576573089     -1.18569815376637
  C   -0.71762920309296     -2.01767004566629      0.42023822817064
  H   -0.09039880595463     -0.65471575408130     -1.28267396933972
  C   -2.36163615947005     -3.22698404463340     -0.44924889171155
  H   -2.87427559450730     -2.00111634426702      1.39259147454264
  C   -0.77327490943442     -3.29476586265916     -0.47224906828767
  H   -0.08080064433646     -2.08284905004750      1.31740361259631
  C   -3.10523068535199     -4.39546801021265      0.11878891903844
  H   -2.76954348698011     -2.99834903019688     -1.44769879901776
  C   -4.06849721462250     -5.07806724024828     -0.51535142842011
  C   -4.83411956264194     -6.23732152911994      0.05149565210601
  H   -4.70149881504939     -7.14522238890258     -0.56421347388182
  H   -5.91964313240535     -6.03157491476955      0.06886654053891
  H   -4.51627695247705     -6.47435951095303      1.07913125003953
  C   -0.12526783960610     -4.51064281704324      0.11375249201620
  H   -0.37075455826411     -3.12740325948621     -1.48502551817075
  C   0.74387373516314     -5.30698112900754     -0.52348994024471
  C   1.41054745697214     -6.51605810434100      0.06388491056233
  H   1.10363073314208     -6.68561942500938      1.10810154837821
  H   2.51099222791610     -6.41798260113796      0.04285819356904
  H   1.17015555919065     -7.42672742201051     -0.51387044416338
  H   -0.37844007073694     -4.74516218272510      1.15697663204339
  H   1.00094486190762     -5.07015392101297     -1.56555139881897
  H   -2.84441109629874     -4.69298473671442      1.14377874218891
  H   -4.33232684147233     -4.77745743511728     -1.53918009707995
