34
Coordinates from ORCA-job C:\Users\AIElement\Documents/99_0.000
  C   -4.25459170642218      1.31953079569961     -0.51606756390782
  C   -4.42341897210182     -0.00958851768120     -0.38003538955398
  H   -5.09011178114873     -0.73613303282500     -0.85588795999093
  H   -3.41521376711007     -0.67468609564460      1.53838214180766
  C   -3.05848136360587      1.38071453475362      0.40695991743523
  C   -3.25681329463333     -0.17939741996049      0.56710183984612
  C   2.35587907824358      2.57163986478035      0.45572210239393
  O   1.56899119637706     -1.30994825371355      1.07899864634635
  C   -1.69977315859610      1.13784636900567     -0.30967489627717
  H   -4.73224863489797      2.07883369650961     -1.14373116625754
  C   -1.89721669119738     -0.42764325114222     -0.14549075147328
  H   -3.06350552394770      2.08419515724705      1.25466740953571
  H   -0.84624417508927     -0.97626511938298      1.80243489472008
  C   -0.50678809933167      1.08135220433007      0.66322942756087
  H   -1.88974053869070     -1.15105564488596     -0.97661814742835
  H   -1.53893023550014      1.65501051807094     -1.26843634392969
  C   -0.70681563647527     -0.46922553552918      0.83592301275661
  C   0.85069669398839      0.81519291888198     -0.03556466167082
  C   0.65765439728715     -0.71974818019974      0.16239078939479
  H   -0.47702137988130      1.80036962727348      1.49533964662056
  O   1.98916834001430      1.28521446305093      0.67515001356031
  H   0.90397694882743      1.15261019380774     -1.08112266977720
  H   0.64801157937987     -1.29648678996947     -0.77546749740588
  C   2.79663046927673     -1.62043550495493      0.59778999084778
  O   3.11245747837427     -1.47025709062191     -0.55515067503529
  C   3.61447131629294      2.90916054208782      1.21610803809242
  C   3.67851409562666     -2.16643186224162      1.69300899144634
  O   1.74302960176843      3.31840732953525     -0.26380602159850
  H   3.50506574399117      2.63876284888425      2.27729215328051
  H   4.45512627247811      2.32200490031275      0.81294370189454
  H   3.82980490534251      3.97978303187040      1.11496327076839
  H   3.17368122977543     -2.99328780933983      2.21533116093661
  H   4.62952959265035     -2.50758028442340      1.26645686346027
  H   3.86514601893509     -1.37606860358547      2.43737973160135
