56
Coordinates from ORCA-job con1_0.0
  H   3.70459481035888     -2.10595921431706      1.50713427214785
  C   3.58546422757452     -1.01753220966072      1.52892959910178
  C   2.30699663809531     -0.45449174108536      1.38692226375274
  C   2.18451607502031      0.93800972583236      1.41529815077822
  H   1.19562135304560      1.38526441804196      1.30595555774939
  C   3.31587762287917      1.74430500416200      1.58349643801879
  H   3.19707461861203      2.83211874191749      1.60446130274983
  C   4.59431624681138      1.18896971046138      1.73156176953043
  C   4.71184716812528     -0.21312218899578      1.69872654417937
  H   5.69658087707926     -0.67826150199460      1.78796955179360
  C   1.10613477264240     -1.35328999690459      1.19567864626934
  O   -0.08073460583531     -0.60645842113928      1.16727531466979
  H   1.07402034160177     -2.10765825269224      2.01276382925892
  H   1.22386448609001     -1.93099776361067      0.25149771600215
  C   -1.23309818046115     -1.37960210734450      0.97183073458537
  H   -2.09786910283036     -0.69982254263564      0.96492238308553
  H   -1.37653332782671     -2.12481123079452      1.78154981308431
  H   -1.20738813444521     -1.92835355040691      0.00748734854373
  C   5.79724583516351      2.08723502231025      1.94689603637112
  H   15.05524132441551     -2.18117721921370      0.36241628117872
  H   17.44204601470756     -2.22102422386609      0.84146154245871
  C   11.49411698855867      1.05931476510865      0.63188831177152
  C   10.32228043858452      1.98704418341395      0.37520181990827
  C   12.78351274747763      1.58105222999432      0.80609683886854
  C   11.33526090406526     -0.33789078555406      0.68642379640107
  C   13.88619562782950      0.74622741568277      1.01837449439112
  H   12.93341423111559      2.66466798875237      0.77215652371392
  C   12.43269334332383     -1.17062803636626      0.90372675911376
  C   14.89732174725680     -1.57038000809498      1.27971018904536
  C   13.72287531590831     -0.64167601021717      1.06822561761640
  C   17.19751883715469     -1.64627332744779      1.75875421259355
  O   16.05866423887532     -0.84711435911933      1.58958539269827
  H   10.33969094687881     -0.77598973994083      0.58193421569499
  H   14.88357333807517      1.16727720829880      1.15217429163896
  H   18.04308631533685     -0.98258808742539      1.99223317227583
  H   12.28074291664308     -2.25422559812352      0.94821959647050
  H   17.07803346545229     -2.37095375723708      2.59061298489887
  H   14.65769101254412     -2.29348880182728      2.09023739477862
  C   6.94517311558824      1.97411564767112      0.90812322573577
  H   6.21370673655972      1.91031942964509      2.95464155557388
  H   5.47004794009765      3.14017677926090      1.93398975706691
  C   8.07338389722664      3.00747430579414      1.14068083356156
  C   9.16455700600852      1.94365561368761      1.40831914383153
  C   8.03796802212113      0.90288930107863      1.17027743781661
  H   9.90757574298715      1.78959923513988     -0.62935260309713
  H   10.68207631156870      3.02920687321447      0.35716658366867
  O   8.09502703418331      4.20728856569902      1.11918745401258
  O   8.01931218592192     -0.30002433674339      1.18136307600090
  C   6.44285693505375      1.98615891178356     -0.54518158328860
  H   5.85089365428700      2.89772576622245     -0.72422983712718
  H   5.80785019102892      1.10916754317680     -0.73729929560309
  H   7.27541736765449      1.97498442153831     -1.26648591773672
  C   9.65821740291693      1.98119506930839      2.86444380537951
  H   8.82146246813210      2.01714614745624      3.57999366556798
  H   10.27783738639032      2.87829943396051      3.02144419966970
  H   10.26395512636851      1.09047555414531      3.08581779177773
