56
Coordinates from ORCA-job con2_0.0
  H   3.98803184664974     -1.81645296311798      1.33992557971083
  C   3.90000358652364     -0.74514048325655      1.13068401433542
  C   2.62946666265317     -0.17019652612280      0.96749929129480
  C   2.54624747969823      1.20246620100003      0.71317917964519
  H   1.56339172669279      1.66029080093752      0.59264963187986
  C   3.70785759615629      1.97715719681484      0.62248403830837
  H   3.61951625069180      3.04987662550974      0.42407177051132
  C   4.97984420059281      1.40778737727990      0.77452613832906
  C   5.05752367845710      0.02682033046823      1.03363519244507
  H   6.03341125813632     -0.44115286877054      1.18447878058178
  C   1.39253749843428     -1.03588717428073      1.05023836377596
  O   0.23203828754356     -0.24822197197710      1.08884879984889
  H   1.45412956348222     -1.68799832803393      1.94907424240051
  H   1.36369283593826     -1.72376894862868      0.17520058360804
  C   -0.95649826829432     -0.99025210502962      1.12585848841062
  H   -1.79606308504862     -0.28021557694020      1.15685983561134
  H   -1.01244948588961     -1.64163598404048      2.02253305799260
  H   -1.07230413282916     -1.63577189708742      0.23052876927820
  C   6.22288750795017      2.26608571776194      0.64423259255243
  H   14.94547836905398     -2.12931775316470      0.34048181663095
  H   17.37923646839593     -2.18795004533845      0.27218630724033
  C   11.53945702163467      1.25430896415710      0.81624928585415
  C   10.33912615875330      2.16933349671809      0.67206676506479
  C   12.83714479608574      1.76079516920097      0.66069033525798
  C   11.39589939610503     -0.11910648290136      1.08840590890464
  C   13.96091048235439      0.93285738154447      0.76178668620690
  H   12.97677067896480      2.82581803309239      0.45057635940889
  C   12.51516383934243     -0.94411800988031      1.19426320611086
  C   15.00561962951202     -1.35375436034542      1.13662724563202
  C   13.81209298345238     -0.43131140996743      1.02952697304206
  C   17.35386915379179     -1.43787582844966      1.08969507998738
  O   16.20589917789376     -0.63601436997536      1.03077977679186
  H   10.39862223025092     -0.53960399818384      1.23951825110042
  H   14.96435903923365      1.34165487982033      0.63568372492175
  H   18.22987349529748     -0.78030230335792      0.98890888360435
  H   12.37572488122131     -2.00868862130663      1.41024815112415
  H   17.43132643625690     -1.98397856706964      2.05268598755125
  H   14.96303198812736     -1.90440840813686      2.10251401304079
  C   7.13816524855289      2.35825931436970      1.89654640717501
  H   5.92761842784455      3.30043410651060      0.40181655559233
  H   6.82845709342165      1.91327695262658     -0.20959667002664
  C   8.30142480977548      3.35843209683894      1.69573515899664
  C   9.41320881969655      2.30443110293180      1.91264695127924
  C   8.25003135986864      1.28094792754706      2.01574257061067
  H   9.72845292993145      1.84550088128139     -0.18971153744785
  H   10.68484427302809      3.18894352603437      0.43384182424410
  O   8.33116302533688      4.52601219952216      1.41900850392901
  O   8.22072148733584      0.08090401417173      2.09737296509521
  C   6.35262567629315      2.60580714270097      3.19441025921836
  H   5.68209822291990      1.75944570845646      3.40327604419327
  H   5.74340683005608      3.51762850297042      3.08967424466789
  H   7.01969670559657      2.74043998373508      4.06002220377066
  C   10.19283353457337      2.51391895179670      3.22072120480396
  H   9.52181232938173      2.67803718321188      4.07815549930458
  H   10.84535225139339      3.39639525124820      3.12566361190503
  H   10.82050574172648      1.63696796510392      3.43618109469263
