84
Coordinates from ORCA-job con3_0.0_vcd E -2273.883518927902
  H          18.80368388230986     -3.37199967676118      1.58039956824692
  C          18.17868321213440     -2.47735962061799      1.61557353049615
  C          16.79343807129510     -2.57263473472282      1.65754424301919
  H          16.31585911339419     -3.55476436112516      1.65739028781130
  C          15.99349574855686     -1.40783155472186      1.70418449166729
  C          16.64291490472559     -0.15580794090755      1.70764730619820
  H          16.04173035818353      0.75534685401099      1.74331354240744
  C          18.03358133921033     -0.04950213362576      1.66528303200476
  H          18.51602607115522      0.92380334601683      1.66760553037764
  C          18.80302650926402     -1.22102393664682      1.61864253617573
  O          20.18485707094718     -1.28299020115245      1.57456309910880
  C          21.04479519798858     -0.22440219227034      1.55437359781367
  C          22.46423260616400     -0.73207471377222      1.50284677851902
  H          22.66642555083028     -1.37432445194632      2.37420767948555
  H          23.15584723535752      0.11878511757729      1.49212944505570
  H          22.61000552793050     -1.34984447064405      0.60289945365983
  O          20.71532613789950      0.93136378478988      1.57439674604423
  C          14.57002577668888     -1.50153256016277      1.74762715410491
  C          13.35244210859326     -1.59414051023460      1.78806669843809
  H          -1.48143226608055     -3.86562772920680      2.02300747000034
  C          -0.06995272942201     -2.46523917405581      2.84177933514281
  C           2.31591168231289     -2.97552763195174      2.57701676960677
  C          -1.35203039352037     -3.25490047344970      2.93015615030285
  O           0.98095373861097     -3.32184770708416      2.69174200792734
  O           0.01939333674523     -1.26774186632229      2.89378101397519
  C           2.82928293148890     -1.67044500425392      2.57146690982283
  C           3.17880426243224     -4.07513287701625      2.45707023137895
  H           2.16206365042820     -0.81827968029720      2.66507825196331
  H           2.75052389171142     -5.07948296546361      2.46532989237332
  H          -2.19744357429809     -2.56612991594661      3.04548516481486
  C           4.20674596618155     -1.48676998822635      2.44548219049436
  C           4.54877932744860     -3.88176269297440      2.33206874169454
  C           5.09326537494464     -2.57705427295262      2.32385004772713
  C           6.50031067027255     -2.37312294225739      2.19973930307756
  C           7.70667302458240     -2.20746642932360      2.09968379384153
  H           4.60848585049697     -0.47117299926272      2.44097626115824
  H           5.21349202565926     -4.74357445020743      2.24245157423856
  H          -1.30871014619503     -3.94765568991969      3.78511114866967
  C           8.79321655955070      0.43913900080296      2.38356716755379
  C          11.76132161516880      0.76183153508844      2.22176459268611
  C          10.81675798955984      1.90290132293868      2.45636858017647
  H          11.26454884755373      2.89580485191587      2.57098454945496
  C           9.49119077983625      1.75873629029543      2.52871433850224
  H           8.85599530710231      2.63383800041883      2.70265067449469
  C          11.33795018068112     -2.99362576071884      1.67837260639753
  C           9.95045368694983     -3.14488325623731      1.75320858912434
  C          11.93297432499872     -1.72960622556495      1.84268187912694
  C           9.11944152486316     -2.03592984798350      1.99578118365405
  C          11.09875116978928     -0.59176076004385      2.06699575276994
  C           9.70964587534113     -0.74296057775437      2.14265252168492
  H          12.49867250573840      0.71156273152112      3.04594973749079
  H          12.37968488503027      0.96677167000213      1.32659187793656
  H           8.05339104094504      0.49695959724360      1.56200662070710
  H           8.17639259753404      0.24215839428144      3.28153128564405
  C          12.06648679649210     -4.30755511169634      1.43749536457331
  C           9.49960779578349     -4.58763993870364      1.57377747908014
  C          10.11654793884073     -5.11599581175557      0.28793676539309
  C          11.44657142050757     -4.97155942800624      0.21765806844059
  H           9.50328940908030     -5.58484596998521     -0.48516166774208
  H          12.06214956972758     -5.30595241231089     -0.62067113400712
  C          10.17360142279413     -5.37548451967599      2.75579700588303
  H           8.41046137721640     -4.69860225775098      1.61169824207999
  C          11.70488523053196     -5.20616903639101      2.67603788615227
  H          13.15196791414826     -4.18200556306535      1.36037859757311
  C          12.25736596809559     -6.62290623767748      2.56202007488245
  C           9.93463433004856     -6.87995324732856      2.68023389174324
  N          11.17945800496344     -7.51140663987427      2.60425686718031
  C          11.33410417288596     -8.95223239178639      2.49643931135902
  C          11.50972828499037     -9.60349252560531      3.86491658774984
  H          12.21632655640702     -9.15454992105722      1.87226785651711
  H          10.43586956290109     -9.35339481969827      2.00561015383168
  O          11.64923503312934    -11.00763271386429      3.63328028087412
  H          10.63841463646266     -9.41391250504148      4.51228370722137
  H          12.40484918268891     -9.21709580608881      4.37844016689309
  C          11.80841657330653    -11.78945193486535      4.72568086990203
  C          11.94838710535311    -13.24069767129390      4.33664484167377
  H          11.06973984283420    -13.56259666706301      3.75640835346562
  H          12.05121003692123    -13.85487769918637      5.23930124313636
  H          12.83048478281666    -13.37134843687794      3.69020486246672
  O          11.83327682178032    -11.35221749604445      5.84802768390841
  H           9.75332631092133     -5.01247786914788      3.70624866936249
  H          12.13040954414631     -4.74654382969991      3.58117669431613
  O           8.87326143357435     -7.45732387788013      2.67581303514037
  O          13.41324100357771     -6.95546605138409      2.44517530470006
