55
Coordinates from ORCA-job con4_0.0
  H   16.27118070268434     -2.88653308466022      1.49149836151989
  C   15.29496025880186     -2.90549306286060      0.99821452757906
  C   14.49035595359824     -4.04141923845465      1.07683021762405
  C   13.23217679120159     -4.06491911046615      0.44144451885466
  C   12.78434018072637     -2.95208272285015     -0.26907869720829
  H   11.80783277444623     -2.96967882108267     -0.76171022847879
  C   13.59745497801487     -1.81228453438150     -0.35131595875920
  H   13.25304463989531     -0.93952066820549     -0.91243232817271
  C   14.84507381310586     -1.78904043932470      0.27821733961146
  H   15.47461822190395     -0.89795046223950      0.20903507735577
  H   16.58206473669787     -7.43393894046990      1.04091416229517
  C   15.61040957605245     -7.45551772506067      0.53630119292865
  C   15.31709510064543     -8.47000663097969     -0.39375316976115
  C   14.06416057964031     -8.49220745513777     -1.01587467962737
  H   13.84111534911748     -9.28371433458538     -1.73215158928831
  C   13.10492404686659     -7.51233918013132     -0.72050503023431
  H   12.12545398099000     -7.54571373462104     -1.20544840374853
  C   13.40297576812826     -6.50163440888726      0.19027110964334
  C   14.66335630390527     -6.47668955445954      0.82139905204677
  C   12.48609306434032     -5.37554213160169      0.63844012976536
  C   14.81425626510168     -5.33340097841620      1.81142250109942
  C   12.30108915554495     -5.52421436188081      2.18910204101558
  H   11.51248353417053     -5.39602163794326      0.13127072448993
  C   13.68253379102931     -5.51005114533375      2.88324102328219
  H   15.80090567359501     -5.31707428566861      2.29324153172319
  C   13.77025131867108     -6.84366184146653      3.62130359052581
  H   13.77070818714386     -4.70222903293305      3.62569072587070
  C   11.67290246314736     -6.85663259300685      2.58406815546368
  H   11.64203445873849     -4.71727711341480      2.54361216104292
  N   12.57394074593848     -7.53374379441351      3.40964025918541
  O   14.69992864158811     -7.26111506232609      4.27022565784035
  O   10.59373819274122     -7.28652507878416      2.25276984550358
  C   12.31323969058079     -8.86257750126382      3.93833137156522
  C   11.44944776027886     -8.81072628054779      5.19455832229425
  H   13.28378691505918     -9.32523207218744      4.16582780178106
  H   11.80075201640404     -9.44961062684113      3.16214249766763
  O   11.26526193049860    -10.16424963997922      5.61669174154482
  H   10.47308283964016     -8.34553025885148      4.98715071160833
  H   11.93975806606842     -8.23136532705866      5.99418551769657
  C   10.47972652515793    -10.35747859831895      6.70103851158803
  C   10.37990964388541    -11.82357491350247      7.04355206959331
  H   10.04629287946618    -12.39783073304690      6.16581398451745
  H   9.67964641649856    -11.95921442974305      7.87654663462265
  H   11.37332335593170    -12.20742478928210      7.32533026639044
  O   9.95045528052627     -9.45381257688466      7.29670812406186
  C   16.37847288050220     -9.50844590365204     -0.68868229487764
  O   15.87906171143556    -10.46876660192435     -1.60810050648184
  H   16.68513375046224     -9.99674354239860      0.25456294578975
  H   17.27475163204974     -9.01043368464904     -1.10310666176020
  C   16.61296493322501    -11.52951612360012     -2.04168835375768
  C   18.01548514821039    -11.68296061074360     -1.48712488204154
  H   18.63516832168575    -10.80004656413245     -1.70971954174617
  H   18.46887107264565    -12.57049263800505     -1.94386806511672
  H   17.99918346493333    -11.80529136290843     -0.39235334135859
  O   16.12046451668055    -12.28720205443066     -2.83127067456936
