40
Coordinates from ORCA-job C:\Users\AIElement\Documents/con5_0.000
  N   -1.65735802299510      2.33220225769566      0.08973017655038
  C   -2.60638364282357      1.42940187078889     -0.39469173811795
  H   -3.53527012586274      8.17851605014811      0.37574444616615
  C   -2.27066934551890     -1.01701585098801      0.30483730139116
  C   -0.37060429086113      1.79726540024879      0.18020584492609
  C   -1.89391788802075      0.12030740845181     -0.71647032068311
  H   -2.55303258063378      9.14170414070903     -0.78923331747220
  O   -3.78426006883734      1.66691060446756     -0.51299332138374
  H   -1.82699702364608      8.49602591385088      0.72567313782690
  H   0.61559156276139     -2.68743956607547     -0.05679563041255
  C   -1.99547871808403      3.66863817167371      0.55144128252613
  C   -0.41395976364380      0.36567935457460     -0.34369682107138
  O   0.58866609737965      2.38656152066345      0.61680651728004
  C   -0.22257588035163     -0.68700836277414      0.81193238889496
  O   -2.18661711169286      5.96855196244834      0.01292626753904
  C   -1.83102603672038      4.70593535125926     -0.55523713370837
  H   -3.03938191047431      3.65237398462494      0.89572604591459
  H   -1.33453962647710      3.91481100912450      1.39502028618691
  H   -2.48467954256045      4.48233809396830     -1.41371743175653
  H   -0.79132853831806      4.73806367651017     -0.91961492114508
  C   -2.15524823331932      7.03694143623919     -0.81674182752109
  O   -1.84879174256464      6.95627517970734     -1.97907730336119
  C   -2.54371932924598      8.29928905918353     -0.08721730912853
  H   -2.09347899273644     -0.16166747198819     -1.76009488933727
  O   -1.50434790470523     -0.62245491224785      1.44054254138656
  C   -1.53735525830885     -2.27764494738047     -0.16269378240658
  H   0.31780103992001      0.24484355824008     -1.15460200373878
  C   -0.25311052690772     -2.06523105444652      0.16364356734684
  C   -2.15613362654145     -3.37639097127715     -0.95304948403215
  H   -3.33743004693246     -1.10376693541780      0.54065644940888
  H   0.58615743522679     -0.45636189225766      1.51588014481509
  O   -3.33944028638876     -3.82138886238196     -0.27029346999607
  H   -2.43894063106646     -3.03614972247082     -1.96616621125433
  H   -1.45850051548728     -4.21880378799301     -1.08532254749557
  C   -4.10469140366236     -4.72448371155193     -0.92814204846617
  O   -3.82564205255610     -5.14301751962653     -2.02328142642792
  C   -5.31313614388193     -5.10903564815591     -0.11165153068001
  H   -4.99811897668385     -5.49023413128277      0.87194775994533
  H   -5.94053697959922     -4.22208273091402      0.06915233832671
  H   -5.89036336717769     -5.87212792534798     -0.64738202683522
