63
Coordinates from ORCA-job con7_0.0
  C   2.48629086488596      1.08140641581114      1.18795256673815
  C   2.93485105847132     -0.34995751089657      0.94901344912947
  O   1.94546558572356     -1.26107116526523      1.49114827747410
  C   0.62381598059478     -0.97742955668806      1.35623913021543
  C   0.16679997733508      0.33461659409247      1.23081960812401
  C   1.17959466502528      1.38163559946912      1.29092281989871
  C   -1.24713282489752      0.57631453635782      1.12454308561696
  C   -2.14921157400415     -0.54296178368411      1.18100385313910
  C   -1.62351054835391     -1.85675577381433      1.34090359774763
  C   -0.26829032215698     -2.07625197158814      1.42742027135422
  C   -1.79346098355640      1.87332881911266      0.96585376221792
  C   -3.16360783462066      2.07441844141825      0.86972230046107
  C   -4.05502105472277      0.97050201967881      0.92626007898758
  C   -3.54284061871228     -0.30311947625471      1.07761294255367
  H   -2.31854923801606     -2.69994087471242      1.38677221652947
  H   -1.15279206683685      2.75358860512349      0.90551972487039
  H   -5.13291386624450      1.11417892452997      0.84987886052832
  H   -4.22574313538030     -1.15661127402136      1.11941725959574
  H   0.87344959611266      2.41618659783100      1.46125134107862
  H   3.25887010309951      1.84853942184262      1.27275479211253
  C   3.11426758746445     -0.69293846845536     -0.54570121625785
  C   2.98353238637334      0.26038403917870     -1.56205695206732
  H   2.73552536340594      1.29309438225396     -1.30828648341800
  C   3.15603098017162     -0.10034634486386     -2.90489345858894
  H   3.05078711495457      0.65743013406397     -3.68619387382205
  C   3.45048324248158     -1.42148767243622     -3.24477959187994
  H   3.58037215281597     -1.70478632062634     -4.29283175046950
  C   3.57463077022532     -2.38372807225738     -2.23435098549454
  H   3.80187314393905     -3.42193859527791     -2.49181385132940
  C   3.41169523022362     -2.02098762180466     -0.89749515908679
  H   3.51128891072345     -2.77299563679746     -0.11107200814852
  C   4.23117087746250     -0.61395885805083      1.73145383754108
  C   4.21150239728149     -1.23527768753729      2.98633800639374
  H   3.26113252022429     -1.57897280510627      3.39541894100305
  C   5.38548023213427     -1.43135713703426      3.72090675191591
  H   5.35061054369379     -1.93270155266357      4.68637253744150
  C   6.60118424959090     -0.98612579552551      3.19461395553460
  C   6.64005417003189     -0.35310311280431      1.94832292042126
  H   7.60131114985929     -0.01163908723757      1.55852119345938
  C   5.46290794116033     -0.17214645043514      1.22359041039072
  H   5.50997888779701      0.30944354400061      0.24381892334756
  O   7.81578867227883     -1.07057994000120      3.86276469496939
  C   8.17736795715140     -2.13923081383724      4.63247888903314
  C   9.56108357185520     -1.91668891892285      5.19058394549349
  H   10.28474580299962     -1.81109783453198      4.36717955660321
  H   9.83903072757165     -2.76388080131830      5.82899503988078
  H   9.58781424543959     -0.97951255876659      5.76803527875891
  O   7.48913862991268     -3.10484335752969      4.82151778493426
  H   0.14945824554347     -3.07804160396652      1.54343187640173
  O   -3.57605403902909      3.36319951412761      0.71737432511916
  C   -4.95252580457713      3.66118669312754      0.62400314942832
  C   -5.06122180247478      5.16864107410828      0.48065349135923
  H   -5.49865938268962      3.32929415216257      1.52662811396793
  H   -5.41397803215888      3.16598848977794     -0.25087049535074
  O   -6.45527838390512      5.47091151403350      0.38984247412732
  H   -4.53271729648095      5.51871040420217     -0.42047997933870
  H   -4.61196896296455      5.68053883319649      1.34666655730145
  C   -6.78401455076009      6.77797423228690      0.26689384612681
  C   -8.28038797796157      6.95446527950103      0.18523183765257
  H   -8.68273314215242      6.37784308882087     -0.66212353449336
  H   -8.51892355176737      8.01805148384416      0.06508053637431
  H   -8.75475071725078      6.56332508033483      1.09902715410517
  O   -5.96403782434070      7.65931852042461      0.23166337228636
