42
Coordinates from ORCA-job 1_0.0
  C   -5.70755156670017      0.99688138900484     -1.65501160287619
  O   -6.93348480369742      1.01156193664846     -1.10446422095039
  C   -5.08528495747184     -0.37572613355118     -1.60821187807939
  C   -5.28596367794258     -1.29192034982879     -0.37774243569757
  C   -3.53728967585614     -0.44242377388237     -1.40604840944530
  H   -5.36062002759963     -0.88939787279326     -2.54438943446472
  C   -3.78171309719179     -1.65084473431557     -0.45036331803001
  H   -6.01094275791630     -2.11127164453169     -0.48435666638394
  H   -5.52758340181025     -0.70754872240032      0.51917394967409
  H   -3.59343890487708     -2.60588761089794     -0.96195405263524
  H   -3.22532670475510     -1.63233253569755      0.49698678387409
  C   -3.02790528500529      0.77888558552645     -0.68027760132727
  H   -2.93703478973899     -0.62080592097928     -2.30626996266383
  O   -5.18035815062386      1.97035483034151     -2.13619456228467
  O   -3.45915694004828      1.16441192586263      0.38255016681525
  O   -2.04344062032637      1.39648914500718     -1.35368483594295
  C   -7.59581966657143      2.27891041349890     -1.07168537295690
  C   -8.89720379073059      2.06965778048837     -0.32737146370011
  H   -7.77454296128275      2.64032866524034     -2.09692570671418
  H   -6.95951923536689      3.02074110414540     -0.56473396166352
  C   -1.59083444944997      2.64867808973848     -0.82892509135558
  C   -0.54890598809229      2.43211926199810      0.25564891967041
  H   -2.44478933568399      3.21504797703106     -0.43117547059435
  H   -1.15448719632506      3.19043040998388     -1.67907163850258
  O   -9.54752266917408      3.34103390849349     -0.29640647950668
  H   -8.71635584498507      1.70678829140117      0.69698256741535
  H   -9.53430507566280      1.32618443866785     -0.83261545701706
  O   -0.10243837467292      3.73470184810689      0.63968991731310
  H   0.29774443387111      1.83349819313800     -0.11759196668612
  H   -0.98175054586513      1.91006586366163      1.12196575833809
  C   -10.74680050818923      3.38807382133509      0.32701167186182
  C   -11.32283543928200      4.78047745520398      0.28406211676005
  H   -10.62132321290018      5.49172576411825      0.74651677456313
  H   -12.28313360267174      4.79724409466618      0.81286927710836
  H   -11.46217739579683      5.09489167926487     -0.76196426661250
  C   0.84288872743502      3.79076605367412      1.60335654708677
  C   1.20113726907032      5.22039402808074      1.92276194142724
  H   1.57425839687257      5.72449748069908      1.01775071601404
  H   1.96559085023900      5.24142075683325      2.70848248615345
  H   0.30338731835520      5.76614159599762      2.25205650158111
  O   -11.25892896328950      2.42466285780137      0.83685418959230
  O   1.31667262171062      2.81012265321871      2.11785557084239
