71
Coordinates from ORCA-job 2003D_0.0
  C   -2.23175597458098     -4.47001495615473      1.41893435821120
  C   -3.20766625396191     -3.62806212721231      0.86568577458586
  H   -3.48650950699557     -2.72646094599195      1.41393055275090
  C   -3.79284999675970     -3.95848907721890     -0.35104969039954
  C   -3.40244181026513     -5.12466744689188     -1.02616919846809
  H   -3.86050702182985     -5.38748202106191     -1.98179275007587
  C   -2.43455275646824     -5.95112695827534     -0.46539732788944
  H   -2.13613616930433     -6.86882275399012     -0.97715056626291
  C   -1.83803968929780     -5.64476481011203      0.76857631925511
  C   0.89798648483321     -4.90940744833781      5.01011891993121
  C   -0.13889494112590     -4.25212288651361      4.35359798589443
  H   -0.54828139587161     -3.31306957004827      4.73276041700565
  C   -0.69150529274343     -4.78984977721059      3.18183171923088
  C   -0.22335937458697     -5.99364687055940      2.64745097825826
  C   0.81739461222889     -6.65029703998375      3.32501348386758
  H   1.18847260117584     -7.59630513995631      2.92386219187338
  C   1.37357399666689     -6.12547359683360      4.48389334494911
  H   2.17266821528516     -6.65112681270422      5.00870970009267
  C   0.17605645950673     -7.13307709080598      0.42987014188125
  C   0.05670929293832     -8.51427615762539      0.28298316981046
  C   0.89556257747350     -9.23556233101671     -0.56542996431078
  H   0.77930755175337    -10.31756174204975     -0.66000132410699
  C   1.87195189077967     -8.52887244796314     -1.27375742078582
  H   2.54879315539348     -9.05989911939953     -1.94754688516071
  C   1.99321530359007     -7.13706041014160     -1.12737977227823
  H   2.76361615634317     -6.60340375146662     -1.68971281402939
  C   1.14457992630634     -6.42264649569491     -0.27252385504175
  H   1.24151641875202     -5.34036264709812     -0.15895786976325
  O   -1.70656145381322     -4.07416261970640      2.61555457050439
  C   -0.86494361929492     -6.62014399724514      1.41818096049766
  N   -1.55315693366420     -7.88174168431266      1.77999367107796
  C   -1.05226948344498     -9.00432832795552      1.15067845053179
  O   -1.45569739329457    -10.14208935338483      1.30146394313079
  C   -2.62374533487136     -7.95170001492150      2.74567742604308
  C   -4.00122992953257     -7.80722112096649      2.10753956927909
  H   -2.47948271917990     -7.16822206223080      3.50682886090692
  H   -2.56265977155079     -8.92909391321762      3.24742164742702
  O   -4.95776746689664     -7.93039204790855      3.16631120289394
  H   -4.16568804512652     -8.60070944804880      1.36078626578629
  H   -4.12823309889608     -6.83981265298808      1.60307643653225
  C   -6.23376517952722     -7.60771441577289      2.87091949098550
  O   -6.58721320668681     -7.23231862841795      1.78137403577505
  C   -7.12661968059610     -7.78588507480702      4.07404402831265
  C   1.53156744199238     -4.31376964501146      6.24978766903548
  N   1.84540706271292     -5.31140166050564      7.26011825706939
  C   4.25838764802262     -5.06172080966888      7.64381115644535
  C   0.65204498412220     -5.87977633535136      7.88272311728228
  C   2.85801193945298     -4.86678774547827      8.20439703425703
  H   -8.14600197806119     -7.46641303705194      3.82681868235586
  H   -6.73797747133775     -7.20191394171707      4.92232761088939
  H   -7.12855939818756     -8.84354732588491      4.38106377872999
  H   -4.55764376689015     -3.30575686262360     -0.77813668313767
  H   2.77778313636574     -5.45496362025097      9.12997379813654
  H   2.72371539975627     -3.80366730437265      8.50125498853796
  H   0.87868163773764     -3.50460850000183      6.64849314821796
  H   2.47168290416508     -3.82077958799243      5.95009583665094
  C   0.88090128611337     -7.27548429087328      8.45193532649429
  H   -0.12711063405170     -5.93983073974953      7.10723216233412
  H   0.25081126081115     -5.20230852612555      8.67073964557502
  H   1.20666087099351     -7.96417369993584      7.65692772216533
  H   -0.04736227710568     -7.66824463420879      8.89661764074455
  H   1.65089638575176     -7.28106143882393      9.23990381108685
  O   5.18337036183076     -4.56746733659071      8.61927192361828
  H   4.40742903838136     -4.52612547643362      6.69298868398460
  H   4.45209762036683     -6.12829116659144      7.44665887545632
  C   6.48317675819159     -4.53586604256685      8.25808697770642
  C   7.34388774688670     -4.01096476850462      9.38022630573221
  H   7.00882337440795     -3.00318807310358      9.67059896686372
  H   8.39174840206987     -3.98300205637485      9.05863918262788
  H   7.23745216615071     -4.65625342655697     10.26606248206312
  O   6.87534695649134     -4.88800415344589      7.17397172036675
