63
Coordinates from ORCA-job 2187D_0.0
  C   7.33361497683296     13.74785524675143     -1.83695167163263
  C   7.01923697345511     14.07334891277641     -0.37234030554582
  C   6.16971832446788     13.22518768186127     -2.65898282398052
  C   8.17606813240389     14.10896596418222      0.30896573283382
  C   9.29643435422636     13.78644290002972     -0.66926477813612
  C   8.56086973034367     12.84428567249393     -1.61413073929033
  C   8.91677055409247     11.63333009312079     -2.07703643272201
  C   10.10426847373081     10.90812107637471     -1.54029223622573
  C   8.17046865727892     10.92947998262461     -3.16306936346163
  C   10.33033976802931     10.80300382199174     -0.15647326076412
  C   11.43952200494105     10.11178148044565      0.33615215341114
  C   12.34019120792567      9.50885497171707     -0.54642561634759
  C   12.11608201472431      9.59020664053937     -1.92468959790424
  C   11.00361519817745     10.27399374823698     -2.41642176070858
  H   10.82606069336290     10.32499003993278     -3.49298345858466
  H   13.20805967772011      8.96749296549841     -0.16166217431522
  H   12.81097939663362      9.11425019236258     -2.62130274919825
  H   9.61247778678179     11.24759398632714      0.53610534978028
  H   11.59517865610696     10.03518088431419      1.41534738435232
  C   7.50331048094610      9.72132856848812     -2.90370161195389
  C   6.81151080147509      9.06051950297241     -3.92026391977765
  C   8.16205698508097     11.43912424268526     -4.47035429099984
  C   7.47677119858507     10.77477209709930     -5.49132658808383
  C   6.79410472494763      9.58724840234354     -5.21660411223124
  H   7.52488967987473      9.30673380394320     -1.89278958476941
  H   6.28306526120702      8.12915331850377     -3.70124485534695
  H   8.69503324438038     12.36886641560351     -4.68371152273810
  H   7.47350809466693     11.19024671419219     -6.50189866802409
  H   6.25296163239521      9.06891267172716     -6.01204309530280
  O   6.38012036178196     16.82896000216468     -2.28593986407619
  C   7.46406878060440     16.37700758317935     -1.99510271661861
  C   8.07713296447606     15.03797597188626     -2.39107073479345
  N   8.38429822396687     17.05496901975782     -1.19757857443420
  C   9.56575465873476     16.34939370359407     -0.95920410938231
  C   9.43934030429195     15.00884521286507     -1.65453976225432
  O   10.48170926175670     16.75863867972306     -0.28695325472755
  H   10.25065286971790     13.46078311183859     -0.24739160647928
  O   5.06867623977736     14.13796075693540     -2.63563540952331
  H   5.80505740095328     12.28374141463155     -2.22513823871326
  H   6.46455616143382     13.04866372702895     -3.69698125296000
  C   4.89176511918840     14.91356229470630     -3.73458210484746
  C   3.70145056710493     15.81596618430736     -3.56845494724161
  H   2.85830240120553     15.27142415294647     -3.11975088814469
  H   3.42198903916085     16.23899243020422     -4.54109499205722
  H   3.99384425736365     16.62784940158998     -2.88630612934346
  O   5.60759003926414     14.86138058372817     -4.70460473639649
  H   10.30195784327887     14.84595455278195     -2.31529869118416
  H   8.14628838045174     14.98727310932830     -3.48693790189492
  C   8.11212338426502     18.35842094073355     -0.62304218859764
  C   8.46923979262289     19.47540026054146     -1.59333410897544
  H   8.70966449559778     18.45082436889781      0.29428985243605
  H   7.04229778007690     18.40924699276320     -0.37598804520535
  O   8.15434389981601     20.70248999836012     -0.93253984583924
  H   7.89158508355099     19.39061722284439     -2.52705672209135
  H   9.54013851269572     19.45024795764537     -1.85127629880670
  C   8.36845495744725     21.83602137114608     -1.63733573344170
  C   7.99362275538044     23.05286095608027     -0.82977337677469
  H   6.92334692508201     23.01448377642335     -0.57342086078507
  H   8.20837420439205     23.95868957971634     -1.40899398024649
  H   8.55512512103691     23.06374542287596      0.11698322885611
  O   8.80117723432043     21.83755356345093     -2.76141097522743
  H   6.01911415835322     14.33188962031034     -0.02221592980900
  H   8.32368813605425     14.39953407587274      1.35049549724824
