47
Coordinates from ORCA-job 2286D_0.0
  C   0.08133528639382      1.24743059157501      3.79846753061332
  C   -0.37995883923742     -0.09175192015160      4.30005049679958
  C   1.08687662119575      0.32242942147961      4.42146156906144
  C   2.33576523612274     -0.27544183938366      3.77607935003374
  H   1.32859428457191      0.65632883248580      5.43685633313865
  H   -0.93146929202347     -0.02286057269712      5.24537409422953
  C   -0.94697206292848     -1.16653324504532      3.39843700055015
  C   -2.43182067057815     -0.87713018301267      3.07965715055135
  Br  0.11964358827180      1.63350659722182      1.89962813248774
  Br  -0.44417357273999      2.82419821247640      4.81257237316635
  C   -3.20081461154521     -2.14680543158498      2.65847426242813
  C   -0.81141084736693     -2.56294883340117      4.01928645618226
  C   -1.21264735614705     -3.65647420195846      3.00948833426324
  C   -2.27966827125899     -3.18001823924695      1.99633715069902
  C   -3.05158368055034     -4.35579026735620      1.39973702931008
  H   -2.37021905852703     -5.09738550922243      0.95073342941344
  H   -3.75172114962188     -4.02325850460216      0.61609191698748
  H   -3.64004484891731     -4.87274063654540      2.17749762310210
  C   3.09542108019423     -1.08373385578099      4.86158601223706
  C   4.13330255817134     -2.05802496620524      4.27382886293103
  C   4.72441950478875     -1.52808176939158      2.96249825931349
  C   3.60113461380664     -1.40542625750401      1.90572747991891
  C   2.20969003769775     -1.14642744432044      2.51782829649767
  C   5.88899795677981     -2.37805388525247      2.45681196082383
  H   6.72119123261071     -2.39460190305938      3.17955930611933
  H   6.28070513892897     -1.99414328511153      1.50030522389520
  H   5.56818994326074     -3.42104767527904      2.29022139528981
  H   3.85474139348897     -0.59650645646343      1.19958628428445
  H   3.55960868748644     -2.33261526578242      1.30812203759357
  H   1.73900324464255     -2.10376620919945      2.79138646663386
  H   1.56418698744989     -0.67909375063277      1.76507948863862
  H   5.11444724028730     -0.51395924333683      3.16836616445673
  H   4.93209868170595     -2.24768411384414      5.00958429113644
  H   3.66505856375520     -3.03835340623032      4.07379569592104
  H   2.95916724270896      0.59437836477309      3.49830579445208
  H   2.36312806760079     -1.64623461426558      5.46574971612304
  H   3.58580122801168     -0.37731985010839      5.55271779701029
  H   -0.32328468798455     -4.00420007114502      2.45642770679734
  H   -1.59675113752890     -4.53558359985447      3.55547182771435
  H   0.21633068324074     -2.72770695440966      4.37932206020838
  H   -1.45735914652361     -2.61077117948090      4.91366987037670
  H   -2.91425152657045     -0.42805527531821      3.96464121926608
  H   -2.47786424669504     -0.11393683777930      2.28667819819875
  H   -0.39195781524834     -1.16452491696832      2.45181743054706
  H   -3.67126909830939     -2.61773979308089      3.54055789051643
  H   -4.02753171158364     -1.88086058064125      1.97955643164738
  H   -1.75749547128730     -2.66727947535747      1.16705659843323
