75
Coordinates from ORCA-job 31D_0.0
  C   3.91706261738586     -0.52609066959069      0.74775182593237
  C   2.69200261663140     -0.11606702495001      1.30734742059579
  H   2.43238240607415     -0.43108110832636      2.31832038409295
  C   1.83992107561765      0.69778842022351      0.57295868392555
  H   0.88785880736035      1.03219039969251      0.98954529698592
  C   2.18334182462584      1.11276084943335     -0.72538530496503
  C   3.40356952123240      0.70372063453247     -1.27747435266904
  H   3.70057479446609      1.01167301517072     -2.27978252740569
  C   4.26752081966491     -0.11375490721684     -0.54098523715480
  H   5.21892090662626     -0.42642962251854     -0.97068819911793
  O   1.27743627573652      1.90244678629439     -1.36340282378377
  C   1.56526132482961      2.36752164306771     -2.66198196274538
  C   0.38356571294060      3.21283832540895     -3.09499487452110
  H   1.70719525689634      1.52710051756363     -3.36715608456549
  H   2.48946611272233      2.97513352581410     -2.67450886377162
  O   0.68858059068895      3.69526060721692     -4.40429974662663
  H   0.22662734860849      4.05483814547407     -2.40223088133314
  H   -0.54414324459734      2.61965458203269     -3.10950408032193
  C   -0.26485881432793      4.43937585379156     -5.00910343813448
  C   0.18956992211086      4.89077401624859     -6.37405639698516
  H   1.09032612023670      5.51697332675473     -6.27799166534965
  H   -0.61233023393087      5.45958049215298     -6.85932780245159
  H   0.46348321611813      4.01887108166671     -6.98772300663840
  O   -1.32378323148404      4.69298609317349     -4.49467041110581
  H   6.85996753616627     -6.68302410789660     -5.20389985038870
  H   4.99177072411514     -5.73405741821512     -3.81074107522925
  H   3.68406947405594     -8.94279728504815     -6.87486272632908
  C   5.11338820757017     -3.47765571485778     -0.34347139076908
  C   5.75655425684123     -6.39352430461935     -3.35966776913684
  C   6.36634547371059     -7.28416180568371     -4.42403379689332
  C   5.27787800372955     -4.45519547225125     -1.33200426845460
  C   6.20678136675290     -2.74436692191422      0.12032422635096
  C   5.62881797904477     -8.91623445898640     -5.96405293191362
  C   4.41419277855136     -9.65699763359373     -6.46311497421430
  O   6.81642411562046     -5.64496408133302     -2.80944697548696
  C   6.55221623952942     -4.71944997836830     -1.84870203309946
  O   5.29607305037648     -8.04563045699951     -4.98391764479414
  O   6.75675812324725     -9.05397014231297     -6.36309086652573
  H   4.12109473420810     -3.28515906131360      0.06505997281508
  H   4.40410134712396     -5.00453074529287     -1.68217178090559
  C   7.48065138153985     -3.00479728547830     -0.41128996207475
  C   7.65544403734802     -3.98944169162074     -1.37369145002330
  H   4.71326210278990    -10.37516495518518     -7.23567530387878
  H   8.33253597385273     -2.42171057944642     -0.05636311474104
  H   8.64054494973453     -4.20558150849932     -1.79120750686752
  H   7.12783151981770     -7.95171991327382     -3.99079300004454
  H   3.92272105037573    -10.17928117402719     -5.62784605817068
  H   5.25655829867220     -7.00884265819306     -2.58837543255304
  N   4.77230048763036     -1.35288910251937      1.48953811728485
  N   6.10793841336821     -1.71851576548297      1.10502702374279
  C   4.95103153855921     -1.56787521852764      2.83690621324005
  C   6.39522010687655     -2.07048239418368      2.57333003409200
  O   4.25820626150350     -1.36513892628273      3.79958995326595
  C   7.42833302412084     -1.15556469733634      3.19510323258278
  C   7.65831810442174     -1.24722710554827      4.57656179651413
  H   7.10394162361527     -1.98074161237617      5.16596774124041
  C   8.58362326932103     -0.40481253955440      5.19282477525847
  H   8.75336817297149     -0.48169010424741      6.26970749667151
  C   9.29232261649975      0.53522785019192      4.43597946246978
  H   10.02026532706363      1.19194151891629      4.91904223019140
  C   9.06111247278987      0.63280537077946      3.06219356629289
  H   9.60661517974622      1.36818441405897      2.46518625022545
  C   8.12698269015922     -0.20438613409658      2.44336733807155
  H   7.92123935727955     -0.12552201077516      1.37543570229973
  C   6.63171729621360     -3.54127010210001      2.82662116720613
  C   5.56519889913721     -4.41339108069460      3.08527747441011
  H   4.55269812423715     -4.01960889162544      3.19021468407921
  C   5.79107294938871     -5.78443184548852      3.23134706728198
  H   4.95125272609906     -6.45174436352393      3.44006252366476
  C   7.08454032357212     -6.29916600500279      3.11541295229254
  H   7.26057779418889     -7.37188251625774      3.22835100531940
  C   8.15450272230642     -5.43492533672667      2.86278047741317
  H   9.16959636904913     -5.82979032008024      2.77456843976932
  C   7.92903652135672     -4.06502836350806      2.72494563251452
  H   8.76627315751622     -3.39013034670760      2.53731740404762
