40
Coordinates from ORCA-job 42D_0.0
  C   -0.36678663774413      1.23415130169433     -2.06002982319057
  C   -1.01917310438900      0.58482276379451     -0.77177297548325
  C   -0.54959070389157     -0.87041567928513     -0.77049829902314
  C   1.11884665306689      1.28420199982500     -1.63952634815237
  C   1.05131748255341      0.64256543934559     -0.20798068036140
  C   0.73801759416247     -0.83335132140542     -0.41276306401919
  H   -1.15638071499040     -1.72143973162783     -1.07798781238247
  H   1.45862451554907     -1.64978732587807     -0.36030114097678
  C   -0.77334399027630      2.69027125296068     -2.23747366328614
  H   -0.59539432556553      0.66756752866801     -2.97181204822374
  N   0.32461771792128      3.48834128749869     -1.92781167524258
  C   1.45681139350767      2.76529959928927     -1.55396239421372
  H   1.82694106978681      0.77264614460643     -2.30482707136788
  O   -1.85624421705846      3.11123799124828     -2.57043007841866
  O   2.50306263323518      3.25830204896798     -1.20846987175251
  O   -0.19636022154414      1.16340355509165      0.24867294164045
  H   1.87490518967152      0.92089927514458      0.45938324105349
  C   -2.48495990356838      0.85699255017078     -0.54962439733218
  O   -2.92472025624959      0.00819378184622      0.51017759906124
  H   -3.06080505745224      0.65686914620862     -1.46706930503361
  H   -2.65326183380932      1.91177331636357     -0.29131579484456
  C   -4.19238352532521      0.19242922835980      0.94347683587361
  C   -4.50639544596346     -0.73387312936781      2.09062310168076
  H   -4.26841813706975     -1.77292388272714      1.81745177162937
  H   -5.56499678384988     -0.64054929890182      2.36041936520106
  H   -3.87593064858896     -0.47209960255485      2.95508185836371
  O   -4.94004777127981      1.00414359856084      0.46112146278137
  O   -0.79193634658576      6.90176803763438      1.60754508046068
  H   -1.25510169450644      9.25646002928899     -0.37642365404126
  C   -0.51685052986354      8.97737622283939      0.39157183924073
  H   -0.75637615623504      9.47318283300054      1.33969774268518
  C   -0.52560381433134      7.48243908945639      0.58656645627958
  H   0.46987432994166      9.30396398891372      0.02896209622910
  O   -0.19205625005095      6.84352340183634     -0.55775485888671
  C   0.26178361419834      4.93706085234574     -1.88269031305549
  C   -0.17204608943895      5.41670598023942     -0.50364015942428
  H   -0.45728356670294      5.27189906449485     -2.64294195446104
  H   1.26013032664620      5.32986347183456     -2.11982559882285
  H   0.53041138329026      5.07621797231193      0.27306872084966
  H   -1.17225617719956      5.03363721790670     -0.24608713103352
