44
Coordinates from ORCA-job 7D_0.0
  C   1.72230967690091      0.23064863843216      2.05441685657209
  C   0.37749047879177     -0.17322981656676      1.99575226127491
  H   -0.22629052216988     -0.15461097941494      2.90592366598774
  C   -0.21713793973545     -0.56771033050311      0.79800165026649
  H   -1.26427744991410     -0.88064260689112      0.78918331376142
  C   0.52373505491426     -0.54493870701823     -0.38694754883021
  H   0.06663149748152     -0.84308394886647     -1.33344912023455
  C   1.85271342204422     -0.13465634350540     -0.34991540633805
  H   2.45184833084547     -0.09737786551802     -1.26126754271719
  C   2.47101555249506      0.23141934842282      0.86078842965554
  H   7.65334800947809     -1.78288214753700      3.84849498927990
  C   6.89321413408614     -1.28766526691308      3.23877640685389
  C   5.78310870895972     -0.70875268838298      3.85177340791525
  H   5.71000910361602     -0.71758672433772      4.94036883176728
  C   4.77812177244988     -0.06942585388778      3.10586832867755
  C   4.91942271925016     -0.01447423226432      1.70498632895351
  C   6.06287513163822     -0.56896948895857      1.09834772191760
  H   6.15648141300118     -0.48784918562098      0.01414677016696
  C   7.03864948009724     -1.21493645478954      1.85060813059075
  H   7.90897156711489     -1.65624028294255      1.35909283014561
  C   3.92933197789307      0.57404683479441      0.73830872155431
  O   4.33165147939301      1.14332402406045     -0.26123841345029
  C   2.22803192268442      0.81233894302594      3.34571191834252
  C   3.69819986960903      0.66058427789861      3.85929060111730
  C   1.68744803988933      0.17386801152456      4.65618820973818
  H   1.97149473627563      1.88310848459539      3.34750942135108
  C   3.15451391596487     -0.01348947857814      5.14523927461692
  H   4.09337240465583      1.65900749844358      4.10249443022944
  C   0.84923150196909      1.10444191881637      5.49905440747391
  H   1.16995779678024     -0.78233018154341      4.52380406347634
  C   3.50501236948701      0.55908360895119      6.49719093000281
  H   3.40842478912204     -1.08463414764274      5.18296411438693
  O   1.03834609089237      2.29543991774367      5.58048027260240
  O   -0.13011185987849      0.45442555643121      6.13880043463763
  O   2.77217921687759      0.54577600745894      7.45606541910383
  O   4.75400771002954      1.05336238200940      6.52237610118603
  C   -0.88644281155864      1.22736439690262      7.07220434065410
  H   -1.36134517876716      2.08689119656602      6.57571570804576
  H   -0.22755908855988      1.59771324280892      7.87182180752851
  H   -1.64645737065154      0.55203257531080      7.48381450883700
  C   5.19204406898343      1.60454770809744      7.76686796902745
  H   6.21472714541086      1.96263446298511      7.59803776288409
  H   5.17614092177735      0.83885564046371      8.55700839839593
  H   4.53742021037537      2.43502205593956      8.07014929259089
