63
Coordinates from ORCA-job 83D_0.0
  C   2.94689225380797      0.22069320274871      1.02529695488652
  C   3.28635052594461     -1.11914967812948      0.39683517968284
  O   2.10398913455622     -1.94207898278011      0.40122449678651
  C   0.96419970684942     -1.37326142635087     -0.05680301069808
  C   0.70663790148176     -0.01855821658537      0.11046483068108
  C   1.71871225632699      0.73512654998452      0.84439859625432
  C   -0.53065287556561      0.53423269639907     -0.36524145695010
  C   -1.48374581068832     -0.34408148274008     -0.97763842506848
  C   -1.18795431038400     -1.73214727640276     -1.10952037687158
  C   0.01050847993878     -2.24785944835495     -0.66027570180708
  C   -0.85093868591626      1.91322431393371     -0.26011857987475
  C   -2.05567552281197      2.40489941928741     -0.72516316794425
  C   -2.99769879385728      1.53658420075698     -1.32332797956283
  C   -2.71255604124382      0.19176931703686     -1.44719875018127
  H   -1.92806384277222     -2.37402067348354     -1.58711311872781
  H   -0.13026246606989      2.59984627292326      0.18691306085531
  H   -2.28001239526063      3.47052210923332     -0.63384316433045
  H   -3.94803426031655      1.93236392192477     -1.68990676352918
  H   -3.43435813649283     -0.48487082890032     -1.91301358828844
  O   0.39334781717395     -3.54421485389194     -0.74482281888066
  C   -0.49547980228281     -4.47898494174702     -1.31544554272273
  C   0.18858779692632     -5.82953882316847     -1.24268938844270
  H   -0.72302852234707     -4.22085673343562     -2.36622641471991
  H   -1.45132510185204     -4.50670836132088     -0.76036282256808
  O   -0.72448030986990     -6.77610451940738     -1.79967546602508
  H   0.42859546283254     -6.09299910109416     -0.20039263394830
  H   1.13332774905434     -5.82770855376113     -1.80861784589485
  C   -0.29721290816386     -8.05764302857914     -1.86181111861288
  C   -1.34970930453176     -8.94793881102038     -2.47220662657999
  H   -2.27528982292714     -8.89629225365294     -1.87814602345292
  H   -0.98172835029409     -9.98008110013258     -2.50884814956346
  H   -1.59418041124293     -8.59692334447024     -3.48676512053200
  O   0.78725534719062     -8.40675626803979     -1.47174396440866
  H   1.45445824611100      1.69887779616257      1.28366812455487
  H   3.71170771298174      0.73147745505234      1.61257258475284
  C   4.33127403355342     -1.85943423486275      1.23213206212510
  C   3.99296968115045     -2.98066929531665      1.99715596574177
  H   2.96667876642390     -3.34621006517914      1.97692069060237
  C   4.96590548235987     -3.62482617390707      2.76860090194767
  H   4.69150103403538     -4.50386358890176      3.35762669563957
  C   6.27952074566981     -3.15146912445535      2.78971575876849
  H   7.03750797321713     -3.65628344657043      3.39395055449064
  C   6.62024033354724     -2.02925070332180      2.02740667825993
  H   7.64685856636102     -1.65411688277962      2.03011805848326
  C   5.65243175211725     -1.39039897628403      1.25112378701757
  H   5.93094683151632     -0.52757355603958      0.64113145486958
  C   3.76649084210592     -0.99478903099748     -1.05755581279439
  C   4.23862634618136      0.20652713664999     -1.59259368626353
  H   4.22846310119240      1.11474128260614     -0.98737810101439
  C   4.71162460394091      0.26027494846098     -2.90484835276445
  H   5.08817234357738      1.19059597157168     -3.33420411987190
  C   4.70486962560801     -0.89104622061011     -3.69394012663979
  C   4.22346806479645     -2.10207935973310     -3.18064850433023
  H   4.20058442908910     -2.99466212976185     -3.80095268772025
  C   3.76251246391014     -2.13994782806519     -1.86545703347939
  H   3.37509892319521     -3.07491782267032     -1.45612160076386
  O   5.25247647813174     -0.74248663623445     -4.95951293120333
  C   4.85075344029492     -1.45505589141033     -6.04992245582362
  C   5.65798591417590     -1.03377985042631     -7.25119691894932
  H   5.55459410773585      0.04996915687347     -7.41370706776584
  H   5.31583263517580     -1.58585376150249     -8.13450573962811
  H   6.72543619693897     -1.23482465722031     -7.06954464176595
  O   3.98633256771251     -2.28894780790621     -6.04004863543522
