70
Coordinates from ORCA-job 2289U_0.0
  C   0.51387545605787     -3.31160046419926     -3.69664827196121
  C   -0.72377863920352     -3.80799954755655     -3.26742197850827
  C   -0.94910271238403     -4.09906934914985     -1.91594015161267
  C   1.55167221807956     -3.09004460802574     -2.77878748589443
  C   1.32418888867952     -3.38106894253711     -1.43752788136022
  C   0.08522772416393     -3.88875456589074     -0.99966682311717
  H   -1.52354930618691     -3.97018029000082     -3.99540429106636
  H   -1.91707839879457     -4.48830439925410     -1.58911232904374
  H   0.67120231381952     -3.09175939342311     -4.75605037020085
  H   2.51571973051320     -2.68622402777288     -3.09292192558563
  C   0.15743117655028     -4.12260418727061      0.45245149999972
  C   2.28742870329007     -3.22437480028933     -0.25423541335901
  C   1.43925783987373     -3.74989843154413      0.90986220635660
  C   -0.79110756101408     -4.64129960595579      1.33835258686274
  C   -0.44325417006898     -4.79503418431285      2.68572937207337
  C   1.78601903391298     -3.91427563404480      2.24896045547932
  C   0.83404976300034     -4.43914218060356      3.13608314169734
  H   -1.78658229755880     -4.92768967684349      0.98844711573771
  H   2.78363293304869     -3.64596807497460      2.59812990932999
  H   1.09406336183578     -4.57397232918461      4.18949780878011
  H   -1.17412262170462     -5.19966625182990      3.39137797817674
  C   2.76903675456857     -1.76665788630753     -0.12470202001577
  C   2.31078945196030     -0.89635457719789      0.87433516486198
  C   2.78287114361381      0.41617184476804      0.89175419457424
  C   3.70182857402572      0.84475932648802     -0.07486446650847
  C   4.07859441033488     -0.10944359436951     -1.03451894505643
  N   3.62694879160302     -1.36081162838727     -1.06444908085016
  H   1.59960909038192     -1.23830296796085      1.62646112324653
  H   2.43701387783532      1.10826459832251      1.66627590649935
  H   4.78723352329320      0.17042204327806     -1.82537714052933
  C   4.25630959714081      2.24595034515323     -0.08882927592744
  H   3.45026220304777      2.99802649937456     -0.12195225730943
  H   4.90849938692280      2.41162607886823     -0.95969861752803
  H   4.85094443704311      2.44999702613030      0.81807272394548
  H   2.79060114236360    -10.47642745228333      0.94338419595633
  H   2.92337473641882     -8.23984694301117      1.81751423922371
  C   3.45611163042874    -10.31572117846368      0.08171809286697
  H   7.03770330448794     -4.97448014170068      4.74625495546264
  C   3.63151507505216     -7.95965721004114      1.02632718804760
  H   4.26307387709251    -11.06588248875365      0.13347137367264
  H   2.87669105408526    -10.52774159415209     -0.83307237986881
  H   5.19307156544385     -5.38173500363907      3.08368173941709
  C   4.00825508738730     -8.91362104360218      0.06646896371598
  C   7.19453581803237     -4.75456053946706      3.68679618618074
  N   4.08239881705227     -6.70798109584552      1.05593613558126
  C   6.15667784987307     -4.97710825836149      2.76925038067584
  C   8.43163672461370     -4.25710770099220      3.25720652241899
  H   9.23145986498775     -4.09413339033716      3.98495148157318
  C   4.92586821739752     -8.48430101600089     -0.90114255367930
  C   4.93937594493420     -6.30159022042119      0.11557348243703
  C   6.38351910053676     -4.68601168310607      1.42789146397415
  C   5.39710932171091     -7.17149826683033     -0.88406834304436
  H   5.27117451533800     -9.17608652037219     -1.67618424322743
  C   5.42014512429455     -4.84357116364830      0.24483748851017
  C   8.65633804040930     -3.96597726754919      1.90562615920569
  C   7.62194510497952     -4.17732369431587      0.98967829086903
  H   6.10713998345513     -6.82888023616355     -1.63697114742629
  H   9.62387159182929     -3.57591092637073      1.57848658460827
  C   6.26758360939430     -4.31761059779431     -0.91955414207215
  C   7.54920728470741     -3.94377050281428     -0.46246734820032
  C   5.92053590752148     -4.15375449198595     -2.25864480405461
  H   4.92307957716216     -4.42288570987811     -2.60762328816773
  C   8.49718435574641     -3.42445017289112     -1.34860285097814
  H   9.49245372717919     -3.13710983973869     -0.99889689073492
  C   6.87191883415888     -3.62829629076276     -3.14603176812082
  C   8.14900828648842     -3.27125000596533     -2.69595495031999
  H   6.61163314152316     -3.49393429619393     -4.19943738848877
  H   8.87944433391458     -2.86618615129953     -3.40180134207159
  O   3.37855665157157     -4.08746693051204     -0.56120441657802
  O   4.32846612074641     -3.98115613823097      0.55210047044934
