34
Coordinates from ORCA-job 4047U_0.0
  S   1.00381936842530     -2.53884003209005     11.91384837599167
  S   2.12899797094391     -2.57447222453213     13.66101299568428
  C   3.58926502270032     -1.65462287525569     13.22311113068235
  N   4.52513168435030     -1.51362474997794     14.09388161101445
  C   5.55993051993359     -0.74376902785159     13.59262351239120
  C   5.37557869812286     -0.28810976930553     12.26287846838171
  S   3.83270568915488     -0.86221923764245     11.65131489256285
  C   6.73608046892840     -0.39280273767497     14.27654019114223
  C   7.68620083092394      0.39063142650188     13.63169272585852
  C   7.50683325259626      0.84652015270829     12.30369451298690
  C   6.33659801789489      0.49988671311639     11.61862908516172
  H   6.88159218447808     -0.73970462076316     15.30171229041506
  H   8.60097983066187      0.66587480799288     14.16495484564290
  H   6.17922086015941      0.84435845877201     10.59328730459998
  C   8.57426517410093      1.68503343512522     11.64121500499760
  H   9.49707009903296      1.10111795634233     11.47935338377026
  H   8.84928913950510      2.55156646592149     12.26553281271382
  H   8.24429844440584      2.06490403731626     10.66273934401143
  N   2.64327337690275     -4.65765413207243     11.28210830436160
  C   2.85292465621462     -7.72935723703645      8.41950158562233
  C   3.84555075964226     -6.63418340278223     10.37857012421629
  C   1.80100856946105     -6.80643828306263      8.42437323693987
  S   0.59069949976813     -4.53881854605182      9.66061801136780
  C   2.79228910155372     -5.70369623200107     10.38793036900540
  C   1.57846036677000     -3.98464514309039     11.03657997433796
  C   3.86382106690370     -7.62581847281718      9.40525488414428
  C   1.77733343949365     -5.80770896606874      9.40452635422230
  H   4.62969430795340     -6.55899582428922     11.13474990947143
  H   1.01068008579703     -6.87036579596924      7.67226275602593
  H   4.68380288044650     -8.34994233043172      9.39655238529239
  C   2.92083472812396     -8.82450187561991      7.38202743894425
  H   2.92139889089150     -9.82190903296556      7.85364415554550
  H   3.84624248124724     -8.75158242079562      6.78569067934737
  H   2.06888853251140     -8.78133048364882      6.68737734314573
