30
Coordinates from ORCA-job 90U_0.0
  C   -3.46775309450303      0.86607657147837      0.82230903585983
  C   -2.06488119725820      1.36056835163733      0.47267384982484
  H   -4.08709889943616      1.71076418034080      1.16202678870031
  H   -3.97717892214647      0.41310299426491     -0.04256071870303
  H   -3.44368637812701      0.12185072492875      1.63417210487746
  C   -1.05359757202550      0.25507311567629      0.05529805764501
  H   -2.10206200427564      2.08268536182095     -0.35998530552270
  H   -1.62663580908842      1.89245544870670      1.33325068355205
  N   0.18902989930533      0.98681682994543     -0.32389656060274
  H   5.01129126586896      1.56718340664387     -1.13127261549676
  C   -1.49471819961936     -0.51803011247761     -1.20150171801397
  N   1.10630091453844      0.91612503637128      0.48881010332939
  C   2.35463081562610      1.65242994780452      0.09133522724786
  C   3.44833900400658      0.54709138115279      0.02704544829217
  H   3.16550834256178      3.01453475098559     -1.39457342323294
  C   2.23552119696619      2.45935790982635     -1.20864240339457
  C   4.87803228450046      1.04925560740263     -0.16860475840217
  H   3.37323829587672     -0.04029809900504      0.95573740716262
  H   3.15781876787869     -0.12793517148548     -0.79616410856923
  H   5.17622879564585      1.74073949004085      0.63562915829787
  H   5.57794848515413      0.19940159014761     -0.15300435532886
  C   -0.84303664593264     -0.69329119209999      1.17360771792327
  H   -1.67288280853674      0.19196905258472     -2.02271558009385
  H   -0.70904584854203     -1.22353795274299     -1.51066522702342
  H   -2.41342211934710     -1.08947003236757     -1.00960935970990
  N   2.85935404016925      3.29146105420535      2.09601316689964
  N   -0.72926349358932     -1.47062813792275      2.02493253624175
  C   2.62712789204592      2.56248119686225      1.22610638344175
  H   2.04385728413328      1.78308176099434     -2.05381796846748
  H   1.40450570814994      3.17574493427973     -1.15243356673420
