28
Coordinates from ORCA-job 93U_0.0
  S   -1.94940768771241      2.97371637583224      1.35688792177376
  S   -0.89567597265115      1.22893075947814      1.79416345896713
  C   -3.19830649371091      2.41746148805098      0.12844470181979
  C   0.45647836557202      1.25820653001536      0.53617337360502
  H   -4.82053993274701      2.06348820847135      1.53753511908442
  C   -6.19033406356574      0.34272300556247      0.01298590803366
  C   -4.27361405142269      1.53657438033875      0.73925821089560
  C   1.38660250135803      0.07388577897406      0.79133412652547
  H   0.02443459245330      1.19057921172668     -0.47399774217875
  H   1.00737023334874      2.20419051485314      0.63590056949957
  O   2.39392706340078     -0.00653319141253     -0.22529164539834
  H   -3.63312354392809      3.35383277957460     -0.26060015565739
  H   -2.69909549204923      1.90890687785084     -0.71035812993477
  O   -5.17687983196688      1.17522507357130     -0.31608668032944
  H   -3.83682375646339      0.62725287316746      1.18154848252656
  H   1.86343789107983      0.16522674033691      1.77860190417115
  H   0.83696871941745     -0.87742073181266      0.73572088381452
  C   3.52725469411506      0.71314702061052     -0.03549537919031
  O   3.71627018476304      1.41181355539492      0.92769428677880
  C   -7.04678562647756      0.03076940436033     -1.19059413434753
  C   4.48818600680668      0.51011705525618     -1.18049122311799
  O   -6.35906176951719     -0.08119180365400      1.12821994013430
  H   4.02248324124091      0.84021009702277     -2.12235600911957
  H   5.40595410858268      1.08113444199911     -0.99544827857793
  H   4.72124506294531     -0.56013633637150     -1.29155501588923
  H   -7.88739157646761     -0.60555257269299     -0.88860343944233
  H   -7.41836227410240      0.96255329883214     -1.64421372462753
  H   -6.44300059230150     -0.48407083533654     -1.95463732981863
