72
Coordinates from ORCA-job 95U_0.0
  H   2.91642660665794      1.73008732643983     -0.48977334515532
  C   2.80803234520137      0.82104316571381     -1.08495954910673
  C   1.79299991525685     -0.08635268374771     -0.74422179377342
  C   1.65445693059180     -1.26041229088184     -1.50127253769009
  H   0.88304321304738     -1.99513501716452     -1.26938718079176
  C   2.51505597674706     -1.49870970822359     -2.57521717680753
  H   2.37960535791221     -2.41710404374366     -3.15138797559768
  C   3.53204241107233     -0.59960814977825     -2.92995431439396
  C   3.66156052950714      0.56638447466844     -2.15623446329100
  H   4.43065876527664      1.30484551697897     -2.37390910986842
  C   8.49824155364156      0.00082298859343     -0.88909338886771
  C   7.48849869954910     -0.97221108914379     -0.95661154590637
  H   7.41866119280924     -1.70616717591081     -0.15109790089161
  C   6.59194315967687     -0.99845536028401     -2.02265183552904
  H   5.82761567463798     -1.77333585934283     -2.02056054773577
  C   6.67279555760717     -0.05894392790897     -3.06467748616037
  C   7.68711898997917      0.90683429421805     -2.98460931817282
  H   7.78638318210967      1.65417155122467     -3.77545200625780
  C   8.58979877964863      0.95010554981459     -1.91979533666523
  H   9.35589051777862      1.72556647729239     -1.90835272956860
  O   1.00980042587143      0.24822403094215      0.31062999939653
  C   -0.02308611547586     -0.62556587291013      0.70927572951320
  H   -0.51482652826009     -0.15589551284722      1.57214847807878
  H   0.36796083885020     -1.61325491421814      1.01473270789341
  H   -0.77065649345252     -0.77240885505810     -0.09159870445545
  O   9.32006091725517     -0.05307795460481      0.18636722512386
  C   10.35759914234257      0.90550495147026      0.33380823460042
  C   11.10105595580382      0.59930390124696      1.62024479629661
  H   9.92822209872049      1.92520725339990      0.36112267173180
  H   11.04210446348516      0.85875259928168     -0.53474732443534
  H   10.42170868414580      0.65506113033280      2.48491710456757
  H   11.91730176928582      1.32329151285561      1.77033042560599
  H   11.53390184242296     -0.41258337631371      1.58769619081276
  C   0.29032696537083      0.78441864175934     -9.10184159809473
  C   1.93106316125842     -0.37295080822852     -7.78319385281576
  O   1.21853266357771     -0.27702241526081     -8.93134130836155
  C   2.84070286610367     -1.44090619353726     -7.69963386870294
  C   1.81318712498069      0.50437963723162     -6.69361699605944
  H   2.92224112190426     -2.12354402314893     -8.54800609952773
  C   3.61745141121804     -1.61892913475700     -6.56000480971710
  H   10.50731636743761     -2.73271006532168     -8.09640665200433
  C   2.59410921506469      0.30727230266582     -5.55087562405215
  H   1.11535448053457      1.34150777361912     -6.71526155969453
  C   3.51276786536863     -0.74644765656476     -5.46092994629374
  H   4.31270062679004     -2.45931975197887     -6.52648554716484
  H   2.47284264247401      0.99840421610353     -4.71639667998055
  C   7.18663085525747     -0.43861884695410     -7.90979129984408
  C   8.08608799164212     -1.50737361098322     -7.75960515665867
  C   9.67871041541306     -2.95573049825737     -8.79326822452324
  O   8.75811574440403     -1.89004943281580     -8.87315127518676
  H   7.07976483850270      0.01870844647027     -8.89558018223840
  C   6.45122530663086      0.02197323054767     -6.82296603370701
  C   8.23791624890997     -2.09463485820944     -6.49412074347427
  C   6.58941481401627     -0.55792290858463     -5.54824666924778
  H   5.76297759872737      0.85541488930749     -6.97317514076223
  C   7.49931830231162     -1.61394207035299     -5.40855713042523
  H   8.93062831690572     -2.92103891761551     -6.33374026998266
  H   7.64835479295522     -2.08201305831561     -4.43516087018068
  H   9.19289527328968     -3.89675412665791     -8.47691531838552
  C   4.38616971964567     -0.92293525678514     -4.18795740167166
  C   5.76572028681504     -0.06224673541723     -4.32740356868463
  C   4.76432824850100     -2.35080772417124     -4.10233029600210
  C   5.37920349261636      1.34147294967362     -4.59085366417879
  N   5.02043867015454     -3.47915165711441     -4.03261736148867
  N   5.11505577558834      2.45086892523626     -4.79813876927589
  C   -0.33385191796322      0.64592626632560    -10.47753668679384
  H   0.80742044877602      1.75766129552953     -9.00110359088386
  H   -0.48438629830411      0.73898943758626     -8.31266967707806
  H   0.43747252433712      0.69971097965601    -11.26138715846096
  H   -1.06248084351225      1.45382877780938    -10.64878750549643
  H   -0.85431435610692     -0.31966653148487    -10.57313451764371
  H   10.09042087869909     -3.08999641939563     -9.80294493775414
