105
Coordinates from ORCA-job 1003_0.0
  C   -2.62210668491174     -0.13372614910610      2.57119376060769
  C   -3.44987852691926     -0.38979414257442      3.68292439078517
  C   -3.84584694508712     -1.71448920996440      3.97239617075292
  C   -3.37643131984194     -2.76504579590571      3.17612809790751
  C   -2.53926863153424     -2.48548309521005      2.09924195180631
  C   -2.16124364492545     -1.17836797615917      1.78078500298670
  H   -3.44840626618113      1.72378111537684      9.47476224875656
  C   -4.36684282720936      2.03911524377217      8.97603393909960
  C   -5.32616107501084      2.79358909778388      9.67057402895345
  H   -5.13824681569237      3.05834225525685     10.71480166968310
  C   -6.51158479583284      3.20286471714694      9.05604925534430
  C   -6.75699856686029      2.86511418624702      7.71259390261335
  H   -7.68361722840113      3.18641876780465      7.22824634566827
  C   -5.81878435089147      2.11693217017565      7.01464360621821
  C   -4.62715837751436      1.70501809335334      7.64248731602398
  C   -4.76673279407675     -1.89442412490758      5.08612914988441
  C   -5.18312013041507     -0.84028765239777      5.80661405309866
  C   -4.65807035539928      0.56024631541288      5.60575366473647
  O   -3.86597334385012      0.66381773149323      4.40606006044308
  C   -5.78492585530622      1.68054282522624      5.55731255976693
  N   -3.84536491519676      0.94955160030072      6.76730137528469
  C   -7.12368262123274      1.16254349101846      5.01510615732823
  H   -7.56421341615806      0.38247493685721      5.65215974118994
  H   -7.00511144871845      0.75212218819962      3.99937779694198
  H   -7.84882130756706      1.98944642666546      4.95388647320183
  C   -5.31269755906800      2.87668763066887      4.69741499089625
  H   -4.33261826859921      3.24723282529499      5.03169105567081
  H   -6.04055819838807      3.69653045095371      4.79620617039731
  H   -5.23255729113475      2.60228826699026      3.63537756085564
  C   -2.71774272264583      0.15695655412450      7.22325502214408
  H   -5.11846406422408     -2.90480156222822      5.31260271069012
  H   -5.87063851274701     -0.96462815848301      6.64646303385839
  H   -1.52262991110259     -0.98353133479862      0.92043805023583
  O   -2.33605377234887      1.16557136458077      2.19209340220341
  C   -1.47067211779642      1.92023655311693      2.93915497706389
  N   -2.05137993785243     -3.59143154616472      1.26012085226576
  O   -1.33253298371395     -3.30935758559177      0.31342208148666
  O   -2.39735331871009     -4.72378412425402      1.56125811297664
  C   -1.36240714985113      3.31806207642599      2.37434387721846
  H   -3.66100592978965     -3.79733275527890      3.38028283201569
  C   -1.40389302639586      0.94643850697039      7.16425675336446
  H   -2.62432378735567     -0.74267000050600      6.60060335207467
  H   -2.88418627749375     -0.18485721519561      8.26179009474148
  O   -0.38508170991937      0.33878893351506      7.98237981099608
  H   -1.54620273392897      1.94925525804195      7.59133066429228
  H   -1.05307710744342      1.03624147290348      6.12732468485739
  O   -0.06800423888119     -1.26603200357954      6.43675294038981
  C   0.24289626771869     -0.75760958643584      7.48562583668607
  C   1.36535990546719     -1.23341252503134      8.39822103305129
  O   -0.90484945817418      1.49739417122472      3.91002861503057
  H   -7.24863071982502      3.78243608753639      9.61686724918254
  C   2.63679368452787     -0.35807153380675      8.22994977809188
  C   1.67822547382883     -2.70700029253507      8.12301614498663
  H   1.01092368400297     -1.12518469557392      9.43603967944492
  H   2.04394997794769     -2.84458185812078      7.09376825029312
  H   0.78315406647766     -3.33699223764291      8.23980753088483
  H   2.44676577906270     -3.06730608180239      8.82381224306731
  C   2.54801659776336      1.06757871064608      8.79807367960521
  H   2.89546202346911     -0.30450098575512      7.16011372870573
  H   3.45743216109956     -0.88783436394922      8.73529437808008
  C   2.40065757210883      1.02331878925673     10.32270603673854
  O   2.80758535771867      0.11592763098713     11.00259297206488
  O   1.81421899284498      2.07635338407209     10.94611699839764
  C   1.01937467960212      3.04046070097569     10.26797826456526
  H   0.61180882530358      3.69912824739502     11.04716504835728
  H   0.18379284678140      2.56379237012677      9.73084288684788
  H   1.60502644246268      3.65336826599576      9.56363988463666
  C   3.70773645602940      2.00032669274311      8.34071268650212
  H   1.64036156359201      1.53319596749614      8.39010894270723
  C   5.18578817084419      1.62406619340865      8.62933173938402
  H   3.54266483926029      3.00102905600724      8.77265455826256
  H   3.61356670485696      2.11707035225944      7.24943175564179
  C   5.56715906322006      1.51665866165795     10.11680364774037
  C   7.06311798880613      1.69919246611215     10.38702962051851
  H   5.22419219651000      0.55755079745283     10.52811587677072
  H   5.00930004362503      2.29612939759846     10.66451100289760
  H   7.66065168766663      0.92218166535654      9.88606537786682
  H   7.27684709259829      1.63713228932533     11.46618072246276
  H   7.42155531695687      2.68203417682430     10.03434952868910
  C   5.61377167471800      0.45773244309038      7.73713112356660
  H   5.75563937234866      2.47107180143358      8.20241065716962
  O   5.49213563469736      0.46057001395099      6.53446959246902
  O   6.14598233992615     -0.57712830137526      8.41234801760172
  C   6.57074844652508     -1.69514636063296      7.62945818737731
  H   7.30467278809223     -1.38410844221148      6.87089410423499
  H   5.71366958038394     -2.15725526876563      7.11581775147171
  H   7.02143928640949     -2.40650807579560      8.33272301017374
  C   -0.02741976518527      4.01504708904254      2.68485910811489
  H   -2.20333095948543      3.88556293728665      2.81490803280059
  H   -1.55912553595640      3.27944945845837      1.29070754084065
  C   -0.12295521114467      5.51268851268279      2.33564059374380
  C   1.08956608940798      6.35998729756567      2.73874643492207
  H   -1.02186647267499      5.93211397624409      2.82510254533897
  H   -0.29805505807027      5.62020587473209      1.24757362486378
  C   0.90185061472456      7.85165009191408      2.45359718147817
  H   1.99013827280237      6.00245105852823      2.21080392417285
  H   1.29229891835092      6.21110660377517      3.81560771917280
  H   0.72676765627417      8.03498172685628      1.37980961081448
  H   1.78934750251185      8.43421953439358      2.74891347304128
  H   0.03671607919119      8.26151689610372      3.00222322316117
  C   1.13653249459564      3.31039992398159      1.97303524321959
  H   0.13601341863197      3.92609064781536      3.77397602848812
  H   1.17972992681351      2.24274635181228      2.23836683126496
  H   2.10734696922023      3.74869776117830      2.24906036207665
  H   1.03407351686171      3.38762791075729      0.87619463047866
