123
Coordinates from ORCA-job 1004_0.0
  C   0.15990250578085     -4.66319279122522      8.20664854604186
  C   -0.85709937097620     -4.77525333524123      7.23261513627534
  C   -1.46467302096388     -6.02833120706461      6.99461663829473
  C   -1.04279176749271     -7.15062125597746      7.71638115182421
  C   -0.02491993030615     -7.01262819910252      8.65761675718405
  C   0.58650454335476     -5.77814327468362      8.91188716569404
  H   1.36405017612306     -5.69286646360547      9.66937852802515
  H   -4.13903349305666     -0.45143455922330      8.03149717712976
  C   -3.54155065257319     -0.32309201768087      7.12676706810162
  C   -3.14371142433957      0.95626916991776      6.70671043817580
  H   -3.44827780769138      1.82511644805847      7.29667671833531
  C   -2.36302591461276      1.13675874496913      5.56144765100672
  C   -1.96308210751773      0.02407679278667      4.79912445104362
  H   -1.35160076220377      0.16429703600490      3.90296770601806
  C   -2.35274798261845     -1.24690014003145      5.20077411872476
  C   -3.13419087784199     -1.41619455638133      6.35658521989394
  C   -2.53454656984347     -6.05930438074599      6.00781512898465
  C   -2.99383612582420     -4.92710886198999      5.44296365227057
  C   -2.46262394847559     -3.56158483378300      5.78575521063311
  O   -1.19054371209567     -3.68373496718403      6.54108724900877
  C   -2.12877949865824     -2.61092785658037      4.55945420338789
  N   -3.38472943391659     -2.77914903228168      6.57064739419362
  C   -3.16431767766451     -2.79589092610495      3.42630294790946
  H   -4.19611760211877     -2.72287571515722      3.80284201869616
  H   -3.04042937098040     -3.76419466208458      2.91497300655319
  H   -3.02713528549380     -2.00112977935968      2.67771712214012
  C   -0.71688617435834     -2.82861210945401      4.00271637770442
  H   0.05560632429715     -2.61830570485832      4.75319657840706
  H   -0.55251609340636     -2.16401415515589      3.13967627333395
  H   -0.58688447970644     -3.86531830793762      3.65151002555755
  C   -3.98577813415542     -3.25276350135514      7.80701522163530
  O   0.76131854300384     -3.44106861888543      8.42673876669760
  C   0.00132870125649     -2.43433861489058      8.98138061731960
  C   0.76740083634224     -1.14121479260449      8.98418074156846
  H   0.75976205869900     -0.72828516150661      7.96210823836640
  H   1.81553679991735     -1.30531601310977      9.27223792694015
  H   0.27991667672830     -0.42899259339718      9.66082752305667
  O   -1.11521686635031     -2.60818489427252      9.38120427421130
  H   -2.06136116032318      2.14226600625580      5.25780294784323
  H   -3.82440614711579     -4.95874832277652      4.73727390811032
  H   -2.97811750333213     -7.02759579651595      5.76004012453099
  H   -1.51710147291934     -8.11748107372012      7.55420338011946
  N   0.40085727732874     -8.18046520744181      9.42697859852796
  O   -0.32668767860828     -9.16965304328927      9.42092329079843
  O   1.45729045549310     -8.10828984833781     10.03508202205910
  C   -5.52565197086970     -3.13714930091168      7.79473122137552
  H   -3.57704952014626     -2.68546301679459      8.65907885825540
  H   -3.69141021348616     -4.30034409061620      7.96343341474861
  C   -6.07231322494394     -3.18700839665952      9.21805169490568
  H   -5.95919260483053     -3.88704753562933      7.11631802158325
  H   -5.80457037894280     -2.14653891768580      7.40815191977474
  N   -6.62874452351355     -4.35096392277838      9.68141343941720
  O   -5.97117823344375     -2.20802735852848      9.94062909562880
  C   -6.80091607823409     -5.64299504434371      9.03842715965689
  H   -6.89775828011259     -4.31791794892232     10.66368965152122
  C   -8.30137393338783     -5.97039073613948      8.82812380079050
  C   -8.54688957724522     -7.26807236965517      8.09053400930706
  H   -8.74604416386568     -5.12597728781506      8.27802769153807
  H   -8.77292880486878     -5.99890595590707      9.82353302992015
  C   -8.64279853735468     -7.28823240562258      6.68904156039070
  C   -8.83822570229282     -8.48763526772855      5.99799767185859
  C   -8.94121845168573     -9.69194872374577      6.70103659579255
  C   -8.84935889038955     -9.68656459081810      8.09649529277604
  C   -8.65393532052028     -8.48548789298849      8.78445405520581
  H   -8.57626660659214     -6.34815000583580      6.13178895960036
  H   -8.91742982333635     -8.48026066469278      4.90731601421224
  H   -9.09819320658323    -10.63121859248375      6.16403211693354
  H   -8.93353222144146    -10.62342305723404      8.65397688028280
  H   -8.58487363686734     -8.48654251133265      9.87600980077402
  C   -6.14212808573346     -6.70048271447530      9.94629368875978
  H   -6.29788294708454     -5.62569877790580      8.06251865075056
  N   -5.16246028019562     -7.44425730835723      9.37912129098281
  C   -4.41959935797445     -8.45467761641855     10.11412635798529
  H   -4.93861188459034     -7.35791618513754      8.39215426241433
  O   -6.49358224836048     -6.81904397101132     11.11228898118307
  C   -3.83445384468891     -9.41851786597903      9.08382571978684
  O   -3.71175313178615     -9.14052605857911      7.90765759374244
  O   -3.44990261864806    -10.56476877309741      9.63641589993658
  C   -2.76121200681773    -11.54628470414993      8.80981064519136
  C   -3.71409514442998    -12.59332103732701      8.29190697152065
  H   -2.00990526465163    -11.98376469358127      9.47952271935414
  H   -2.25262974917942    -11.01726629913454      7.99463611098893
  C   -3.90718102810836    -13.78886659713218      9.00068805054763
  C   -4.80183632143199    -14.75642598415915      8.53492670977212
  C   -5.51606162379993    -14.53646908903921      7.35313036478692
  C   -5.33051476731325    -13.34764537084441      6.63912608484330
  C   -4.43479897006350    -12.38183942395394      7.10480129634566
  H   -4.29350154590557    -11.44928894823952      6.55260366874340
  H   -6.21514683019495    -15.29308459786079      6.98659728983236
  H   -5.88435930885231    -13.17311023935704      5.71272697065664
  H   -3.34867807055186    -13.96426932594689      9.92502692572023
  H   -4.93993932341878    -15.68503308600032      9.09518325218368
  C   -3.31714306979581     -7.79831808648181     10.98424877727156
  H   -5.11411136392284     -9.00690731170740     10.76778133167655
  C   -2.62033036594300     -8.71947298078778     11.98329164188598
  H   -3.80486687083363     -6.97402706935039     11.52630164853305
  H   -2.56780362631424     -7.34106005467345     10.32149734447113
  C   -1.35655417630611     -8.10090562914277     12.54591234550765
  H   -2.30331748487577     -9.66101431007811     11.50695782052699
  H   -3.28093081413019     -9.00848231623465     12.81613958274740
  O   -0.96036842391098     -8.74862344101031     13.65493185615116
  C   0.29504801524744     -8.37315292658665     14.26559976283395
  C   1.26654292420906     -9.52797184410218     14.23997136407756
  H   0.06350870818786     -8.08136914004806     15.30053359746411
  H   0.69229654844020     -7.50290552132846     13.72434462211544
  C   1.79327233349574     -9.99050254770450     13.01825544213932
  C   1.65871367083051    -10.13619113051215     15.43281590726606
  C   2.69675117698512    -11.05046788686238     13.02275924661191
  C   3.10003279041322    -11.66262972170105     14.21830464216581
  C   2.57937034365307    -11.20014165446529     15.43512057298139
  H   1.50951051518009     -9.52008115717988     12.07345955708113
  H   3.11055320902563    -11.41036994553719     12.07662043897336
  H   1.26389368742278     -9.80008244906031     16.39500040108981
  H   3.81382406804131    -12.48623112824370     14.18654672543982
  O   -0.76065015427794     -7.17452714443342     12.04603133825312
  O   2.89488894949393    -11.70879060838961     16.65491447893030
  C   3.81635010187132    -12.78186465292559     16.75399085294626
  C   3.97719261051288    -13.13014637548246     18.22211466192092
  H   4.78857690099416    -12.48958438052238     16.31215039244527
  H   3.44521010288407    -13.65480770427454     16.18281200102705
  H   4.35689530465819    -12.26492801984548     18.78751037832496
  H   4.68697193918901    -13.96390306748182     18.34134661794937
  H   3.01152585752960    -13.42868315427773     18.65891394456988
