77
Coordinates from ORCA-job 1006_0.0
  C   -4.03771708840335      0.69239809082249      2.51117303887405
  C   -4.82316538060165      0.25256045066035      3.59180566029532
  C   -5.48022366811838     -0.99285954320585      3.51895936804790
  C   -5.36041571902373     -1.76621365981184      2.35842603871390
  C   -4.59070573216586     -1.31612059209177      1.27310348091439
  C   -3.92393382362535     -0.07765573883072      1.36115987364244
  H   -3.56710331252106      0.10405645753396      9.58764494404975
  C   -4.45366848091426      0.72035684897089      9.42719428938046
  C   -5.13300414644256      1.27440521340914     10.52148504429275
  H   -4.76138508507120      1.06685729927494     11.52801460992738
  C   -6.29663406027904      2.04922966707103     10.36863967543422
  C   -6.78552007131189      2.26369049951473      9.05608500152018
  H   -7.68454051544244      2.86978266944598      8.91308228467245
  C   -6.12325837457577      1.72621914159509      7.96506461838819
  C   -4.95161683108789      0.96183037641354      8.14281031592043
  C   -6.24873760011868     -1.39509036436511      4.68960306670377
  C   -6.28677525516666     -0.61367782058029      5.78087727914813
  C   -5.51496625386876      0.67964149848480      5.90740565598443
  O   -4.92635694470143      1.07023177179873      4.65671573962661
  C   -6.37985878986709      1.88458585918413      6.47157010965817
  N   -4.45817653553662      0.53876582759042      6.91589643215254
  C   -7.85559922649191      1.81629110181526      6.06034703895183
  H   -8.36489805298259      0.92542669634390      6.45498289505538
  H   -7.95666525965190      1.81372436912674      4.96305093855260
  H   -8.39228011774025      2.70063492147564      6.43888811181559
  C   -5.77850127653753      3.23018510972650      6.00478049766358
  H   -4.70675278544224      3.29230531588497      6.24364853858107
  H   -6.29358733484074      4.05394106815205      6.52221442926576
  H   -5.89923521902653      3.36478958476193      4.91968000107432
  C   -3.38594011677161     -0.42097056480225      6.76912648338139
  H   -6.78077221457373     -2.35035120349601      4.66253039262644
  H   -6.83639914895991     -0.91779671142706      6.67480603969120
  H   -3.31293983276580      0.29078206360104      0.53612409806966
  O   -3.41472308737720      1.92467446405486      2.57110228235631
  C   -2.35615298780287      2.07649160064015      3.43428443755672
  C   -1.89935247231948      3.50921321308101      3.45127636837758
  H   -5.87227234171995     -2.72916821123244      2.29981406457907
  O   -1.89216350329080      1.16858526555545      4.06640327323037
  C   -7.05145652516748      2.57605122755747     11.53995941649734
  C   -6.45101368909050      3.37023358210790     12.55779454206094
  H   -1.77734561163345      3.88731413656579      2.42552174923248
  H   -0.95838056811112      3.58859265844118      4.00858698559967
  H   -2.67173385510612      4.12575401811670      3.93871437228764
  H   -2.99351896785940     -0.38032333568496      5.74351073837225
  H   -3.68636134176082     -1.45972401924554      7.01019759014729
  H   -2.55648006325871     -0.13829480069278      7.43500041691654
  C   -8.42035444966716      2.27533284073464     11.64529385397291
  C   -9.19445295672881      2.69628279886323     12.72244456778682
  C   -8.62299350940973      3.44811548351806     13.76180905926689
  C   -7.23814424768622      3.79628256127339     13.68115817415715
  H   -8.88311131365829      1.66349858636457     10.86677960191613
  H   -10.24966010681583      2.42814767572457     12.77459036927276
  C   -9.38438165238296      3.88672940162799     14.91348971341129
  C   -8.81465648395013      4.61894387554773     15.91711684759314
  C   -7.42607002781691      4.98540823201629     15.84525991370846
  C   -6.64145611892924      4.57813168799204     14.72153541607514
  C   -6.81993029154347      5.74558162734009     16.86348009600351
  C   -5.26586120645920      4.95931195980964     14.64398546568068
  C   -4.70267420799990      5.72308987584386     15.68380948042325
  C   -5.47380494199142      6.10720816656448     16.78148107134261
  H   -9.40522100294313      4.93507378193264     16.77235670321690
  H   -5.02246327441900      6.69879925594479     17.58251872964944
  H   -7.42042243002073      6.05371371987386     17.72359317912277
  H   -3.65061365000992      6.01476812424996     15.62020762694710
  C   -5.07777047194192      3.80611189281389     12.49722909689812
  C   -4.51460820900302      4.55748217122507     13.48749420936275
  H   -4.48318488957628      3.53604388465690     11.62407943842319
  H   -3.47151327929384      4.87665785429080     13.40684792093100
  O   -10.70924806101968      3.48051651120027     14.86410095086776
  C   -11.67758619625318      3.74879463784673     15.78370443092691
  O   -11.51617226320031      4.38251663549968     16.79234851550119
  C   -12.98039972939331      3.12962444265748     15.33921226476835
  H   -13.75632854136789      3.34041268759259     16.08491133482490
  H   -12.85939982098906      2.04193835982959     15.21677860428203
  H   -13.27725022999716      3.53820747963439     14.36054670535772
  C   -4.47824620238926     -2.11091059815602      0.08333637135268
  N   -4.38780096401615     -2.75480111762549     -0.87936194233487
