92
Coordinates from ORCA-job 1008_0.0
  C   -4.04236131826067      1.03009509849260      2.12316050315871
  C   -4.29171519626149      0.38936065066566      3.34689303508311
  C   -4.21492869385770     -1.01702907191332      3.41713511012711
  C   -3.94429954923955     -1.74814178028938      2.25522431187565
  C   -3.73505022086102     -1.09942522268054      1.02610411391854
  C   -3.77351323675204      0.30755369890661      0.96929527782103
  H   -2.93161498806955      2.20198130636648      9.17597141864407
  C   -4.01102457432065      2.09403786851426      9.04804716729988
  C   -4.88828440768082      2.36957172754608     10.10915692939371
  H   -4.47236138619797      2.70146991125658     11.06440918712295
  C   -6.27056478789261      2.21659047243090      9.97221556867843
  C   -6.81131991157546      1.79284135172766      8.74481886199972
  H   -7.89432402936424      1.68699628888614      8.63165270299884
  C   -5.95850743458240      1.51516046965974      7.68454911557209
  C   -4.56662851990025      1.66278840729079      7.83802163801413
  C   -4.39167410590792     -1.61273557864062      4.73493302792357
  C   -4.67174932797929     -0.84314617219571      5.79934905466284
  C   -4.83341157362122      0.65865351256131      5.73745401321041
  O   -4.57524627987894      1.16445230261752      4.40920077087780
  C   -6.26555051809719      1.15810537041612      6.23493504332322
  N   -3.91240896437534      1.32480004478939      6.65460292051030
  C   -7.36972029626382      0.10724633372868      6.05958831661652
  H   -7.19212296524021     -0.79575162695195      6.66064397370806
  H   -7.46838173060507     -0.19465674791996      5.00438934073964
  H   -8.33827444890136      0.52788814765605      6.37287228245990
  C   -6.66316402245292      2.44920941793892      5.48361841486041
  H   -5.87224325560224      3.21042376608629      5.55197122892099
  H   -7.57480142447664      2.86450690319453      5.93980995506282
  H   -6.86232150689218      2.25305384581040      4.41917656443958
  C   -2.48404728419813      1.40826260109768      6.45748567175430
  H   -4.27176196366280     -2.69470314973628      4.83976770534243
  H   -4.78889466033432     -1.27596527371403      6.79574221763744
  H   -3.58659452396896      0.84456905547631      0.03803669488730
  O   -4.08917664690300      2.42104838750101      2.05545635512272
  C   -3.05415329174468      3.10907597672740      2.58640568605890
  C   -3.25859716640164      4.62020688489574      2.41956635150465
  H   -3.88981958392849     -2.83762087867047      2.30818525756983
  O   -2.11230236219063      2.61794573707289      3.14181935613565
  C   -3.47564040916526     -1.86482108699355     -0.16008157101343
  N   -3.27080723656406     -2.49116368522724     -1.11638741461352
  H   -6.93174007578173      2.42531740147260     10.81659630552284
  C   -1.65659272106044      0.29817584751218      7.12799892112774
  H   -2.14431401083275      2.37556991449469      6.86380923644857
  H   -2.26979310566572      1.43075278095575      5.37863881151096
  O   -0.26013564315110      0.60993528900385      7.00373419934964
  H   -1.79038975893970     -0.66621124797188      6.62021758353414
  H   -1.92156882927716      0.19312529190357      8.18973903875616
  C   0.26921449064082      1.44703841071620      7.91798084858829
  C   1.73387401553536      1.68594842035426      7.62689366920958
  O   -0.35606659410704      1.90608755739933      8.84521706384225
  C   2.30936147460079      3.02139469554024      8.13679934203561
  H   1.90083762882985      1.62922613157052      6.54285122044612
  H   2.31154857883423      0.86626650283334      8.08097146856973
  C   1.57584574918169      4.23436014225054      7.55593953960164
  C   2.17866644206838      5.61169286058590      7.85460457579314
  H   0.55416537282948      4.18760131480057      7.96519627074604
  H   1.49367082652815      4.09047536527194      6.46567220637356
  C   1.23197305675527      6.74468769630460      7.45066339631342
  H   3.13323010321703      5.72205969555780      7.31289258729817
  H   2.42391451211559      5.68138743247219      8.92555338456883
  H   0.93476338259210      6.66973353307302      6.39214389638252
  H   1.70273532538318      7.72870697434018      7.60574812440650
  H   0.30693017034738      6.72137672167760      8.05215338307284
  O   3.67502477347051      2.97010613088840      7.66587154929827
  O   2.22221852027276      3.15291637915842      9.55387345122070
  C   4.73753562013670      3.55937314461370      8.24950553767928
  C   2.75320619406644      2.25965020711780     10.40578004256303
  O   4.75936963527340      4.22541861558180      9.24375708741866
  H   5.62939654985656      3.30538230372984      7.63623268997822
  O   3.35541980778307      1.26253950290973     10.11851011934001
  H   2.54272086917493      2.60249706092770     11.43983495345859
  C   -3.65566846376041      5.00447806426047      0.98469083226450
  C   -3.82105616425779      6.51300100869439      0.77666101056289
  C   -4.32775268838647      6.88666504261941     -0.62128799174603
  H   -2.87747829163601      7.03759762598714      0.99797496153835
  H   -4.54207291256507      6.86636741080288      1.53589474924820
  C   -4.53345793797584      8.39210499776866     -0.79472598535783
  H   -5.27616530173963      6.35432393955111     -0.81701021559663
  H   -3.61807131546187      6.51873186536420     -1.38126738990548
  H   -5.27154575739833      8.78507843280018     -0.07514784365937
  H   -4.89610518453949      8.63041611514436     -1.80691906260957
  H   -3.59275707288258      8.94671720809639     -0.63976500723614
  O   -2.06480639335632      5.29791886149068      2.77020286665703
  H   -4.08921419824383      4.91218719098026      3.09113544858741
  C   -1.64534852469829      5.27941711170701      4.06170052608702
  O   -0.58901542369492      5.72436623487636      4.38772250251670
  H   -2.39691103667347      4.84478181735323      4.75979671904576
  O   -2.79209372471161      4.36464181292838      0.03068633693273
  H   -4.62514058525343      4.51827529204372      0.80307161100371
  C   -1.51224840426191      4.77719019800948     -0.17275397381748
  O   -0.81060400736417      4.23867093021840     -0.97414580007599
  H   -1.20140516764300      5.62898149787527      0.46703904169306
