58
Coordinates from ORCA-job 1012_0.0
  C   3.01051821400297      0.41555027878380      0.42804888156056
  C   3.31685416560979     -0.98631986559278     -0.06074546625153
  O   2.09205023417076     -1.72574815959334     -0.33883722228861
  C   0.85955496579558     -1.18661690908372     -0.27457722067077
  C   0.60649837677985      0.12451082403684      0.11729375212939
  C   1.76927932394318      0.92288909461604      0.48844065516465
  C   -0.74648694493078      0.60593800111900      0.13891620529440
  C   -1.81681072011099     -0.27385801080715     -0.24850199913599
  C   -1.51081793352539     -1.60594139697162     -0.63451763606333
  C   -0.21106833215472     -2.05114979546294     -0.64399959164641
  C   -1.07816414010521      1.92840354987135      0.52975442613705
  C   -2.39446561303016      2.34044631803593      0.52898049761422
  C   -3.45833555337643      1.49180696457567      0.14942600467418
  C   -3.15780593551745      0.20338318781952     -0.23217382553134
  H   -2.30683241972626     -2.29232558176072     -0.92978385569483
  H   -4.47852448099285      1.87271504016854      0.16805636373876
  H   -3.95942177048488     -0.47799503025947     -0.52892180713323
  H   1.62945132125692      1.95105684905592      0.82552774991762
  H   3.87384457896767      1.02079670748343      0.71073435038285
  C   4.05263117027394     -1.81996871135834      1.00486829178573
  C   3.80416314288346     -1.59604449105552      2.36727359779528
  H   3.12656904506717     -0.79376074283126      2.66872052764812
  C   4.40484234699781     -2.39531032766934      3.34364410140646
  H   4.19975561943823     -2.20590601152768      4.40061699639149
  C   5.25909219874106     -3.43635034383730      2.96952982978845
  H   5.72961462864571     -4.06283436909148      3.73205091973529
  C   5.50532036136525     -3.67400634359803      1.61385455388881
  C   4.90713713146133     -2.87120891103777      0.63869478772621
  C   4.11023792758334     -0.87603303603112     -1.37532491994057
  C   5.37519649213541     -0.26312776770960     -1.38188870925600
  C   6.09388408603368     -0.12202604277001     -2.56601227042091
  H   7.07585105406644      0.35551114462282     -2.57717043799983
  C   5.55937625516938     -0.59594305585546     -3.77065283329207
  C   4.30460011754571     -1.21086826557385     -3.78767233450021
  H   3.88791412528668     -1.59421558559356     -4.71628943890150
  C   3.59305935831244     -1.34273604735743     -2.58906718414178
  H   2.61842649310016     -1.83112294149000     -2.60355589905751
  O   6.33577445074161     -0.35407298538554     -4.89383332650720
  C   6.35367686094935     -1.15301558107843     -6.00192134168000
  C   7.33003786439807     -0.59975214854557     -7.00916708216339
  H   7.05468293314468      0.43363589105545     -7.27163407931443
  H   7.32666023705680     -1.23096578075257     -7.90585749999930
  H   8.34103126528833     -0.56614640932245     -6.57390104921076
  H   6.16890416811956     -4.48882867739680      1.31187222071626
  O   5.68960731813277     -2.14457375843641     -6.13694750474416
  O   0.08799321982412     -3.32548395116257     -1.07854484961874
  C   0.50045597741774     -4.25182407306962     -0.14231018570180
  C   0.98146285097802     -5.50111806523337     -0.82779635070858
  O   0.46096979367796     -4.04481828341764      1.03582223963422
  H   1.95289948984832     -5.29210758123163     -1.30427612776582
  H   0.28264417153965     -5.80458344556469     -1.62096534728246
  H   1.10323326092102     -6.30172132069656     -0.08819448718378
  O   -1.77000151906056      4.44238784048335      1.27744805197188
  N   -2.70091672147333      3.72585345585773      0.94112911838673
  O   -3.87179355818179      4.07215234461906      0.91975098840865
  H   -0.31947087029634      2.64570744889663      0.83663034826213
  H   5.10865841918140     -3.06482017195369     -0.41684351915293
  H   5.81711149711365      0.09923503606605     -0.45018005719952
