76
Coordinates from ORCA-job 1014-2_0.0
  C   -3.59724827444506      0.96505386606123      2.22746059796836
  C   -4.15977985570734      0.48317614916986      3.41812006582737
  C   -4.76244171265206     -0.78593015035676      3.42841977653028
  C   -4.84197103058368     -1.53063307048945      2.24227220143001
  C   -4.31659451994447     -1.03745303754035      1.04130410390275
  C   -3.68515883730619      0.22072617365617      1.05391313571641
  H   -1.27922166558458      1.89549722094523      8.27984023575875
  C   -2.20094135825523      2.46335993082054      8.14271436722769
  C   -2.35123745669564      3.72956220004980      8.73034713804764
  H   -1.52570545721895      4.14298787839604      9.31665313380051
  C   -3.52856824417190      4.46642766176976      8.57734647654769
  C   -4.59680509854408      3.93177102601022      7.83540556905819
  H   -5.52574862058104      4.49883768323766      7.72542975711976
  C   -4.46187399155044      2.67963361273907      7.25015426634323
  C   -3.26350997181971      1.95571280406406      7.38752690804932
  N   -5.24079634763932     -1.32296125154115      4.63057909408823
  C   -5.11677601249209     -0.63867812988060      5.70276629704592
  C   -4.50983624903031      0.74999764360984      5.82663394740042
  O   -4.10053764482768      1.25339908702809      4.52397864605844
  C   -5.46988871220455      1.83241905233223      6.48653221142115
  N   -3.34821821023403      0.74568762299356      6.69241573936282
  C   -6.43826823177373      1.18053328680748      7.50211873071638
  H   -5.90867676759344      0.55924356939005      8.23928803437208
  H   -7.19143935396336      0.55466577383145      6.99644454791195
  H   -6.97156391277693      1.97396744949530      8.04762971576564
  C   -6.27611971305235      2.60711360006612      5.43568773771378
  H   -5.62544659820494      3.15020177775235      4.73822261517653
  H   -6.93387166123927      3.33415932782571      5.93777545133445
  H   -6.92008590742325      1.92815690238108      4.85300904140606
  C   -2.20110115591988     -0.10034563281418      6.41068158087569
  H   -5.42788464566124     -1.09134002211844      6.65125442686559
  H   -3.24755043048701      0.63374353892783      0.14269157603277
  O   -2.99135575709939      2.21222820515825      2.20973393645996
  C   -1.83192766771171      2.37698752971462      2.92106866875301
  C   -1.41397378395461      3.82266758087933      2.91276825505433
  H   -5.31709254751115     -2.51250902388550      2.29082043516753
  O   -1.25978462930663      1.47392419366070      3.46879293209424
  H   -1.50314091547811      4.24915692809968      1.90305421054388
  H   -0.38575116074969      3.91076877467468      3.28409137189339
  H   -2.08955315493850      4.39031885421130      3.57332523776723
  C   -4.40148258808870     -1.83532269889021     -0.22456632068067
  H   -3.62289071882629      5.45197085466936      9.03964602370026
  C   -2.14513783867407     -1.36938369304234      7.25977524793444
  H   -1.28203126710672      0.48722051140439      6.55947599598116
  H   -2.19351671331674     -0.38060952801631      5.34444091255223
  O   -2.06796389608932     -1.04585854734160      8.65561276881595
  H   -1.22874557131758     -1.93232418538815      7.02312522888469
  H   -3.01890939516284     -2.01092716418044      7.08175736689454
  C   -3.19262457754932     -1.12356410022168      9.40102986458905
  C   -2.93089968231549     -0.66504832453715     10.81346342039948
  H   -1.97761195980425     -1.06740196212220     11.18540291909801
  H   -3.76249479722726     -0.97050863781303     11.46031827116635
  H   -2.85285033332051      0.43466896618601     10.81891464275542
  O   -4.26120043351284     -1.49556047062067      8.97798097843396
  C   -5.58795101082797     -1.80763238213098     -0.99953388376058
  C   -5.66695241540982     -2.58670787795776     -2.21772127409668
  C   -4.56504128325011     -3.35493673490518     -2.61530082926365
  C   -3.38351621136745     -3.38982914002166     -1.86332285499163
  C   -3.29479693705412     -2.61702738206332     -0.64173801372939
  C   -6.73224258109072     -1.02292398323234     -0.63211139442820
  C   -6.87271792124863     -2.54913112058481     -2.99101725692263
  C   -7.94376700586477     -1.78695429423875     -2.59880928653259
  C   -7.86862776481680     -1.01281161718082     -1.40312338694510
  C   -2.07158906059699     -2.68626089755405      0.10652895711260
  C   -1.01585552778515     -3.45345394090036     -0.32138532446047
  C   -1.10662836143686     -4.20901131772863     -1.52783283150038
  C   -2.25799470313447     -4.17629310269252     -2.27295636887036
  H   -1.98864878757500     -2.11516522292816      1.03258934171017
  H   -0.09538175640113     -3.48850153181888      0.26757981432369
  H   -0.25608626642355     -4.81401890618581     -1.85312254586410
  H   -2.33830993156390     -4.75351953804547     -3.19860242978169
  H   -4.62830485606576     -3.94134677828043     -3.53693120837754
  H   -6.68841051098741     -0.42485977034621      0.27934304301246
  H   -6.91953424656755     -3.14389149246212     -3.90782150209488
  H   -8.85689182906627     -1.76769501291346     -3.19963207398937
  H   -8.72570399281990     -0.40533556304709     -1.10012818568419
