76
Coordinates from ORCA-job 1015-_0.0
  C   -4.11943419350810     -3.46013462844074      5.33760743781199
  C   -3.70944699148966     -2.12780593869352      5.31917157772359
  C   -3.06580365251634     -1.58376725636163      4.19101110512413
  C   -2.87543539514267     -2.40240405209934      3.06982112198663
  C   -3.30768623465500     -3.72648628802806      3.07047121896159
  C   -3.92554571367833     -4.28216349337683      4.21109176328377
  H   -2.47510965868093      2.34107552568124      9.67931409671006
  C   -3.36978732120784      2.54047136696975      9.08650658576902
  C   -4.13402156664414      3.69342630396689      9.32762009943936
  H   -3.81997421977147      4.38123708607921     10.11762958982594
  C   -5.27220541340949      3.98129388224080      8.57167995358290
  C   -5.68081186679801      3.09544126489277      7.55744507120074
  H   -6.58215033630954      3.30983012466142      6.97561998355469
  C   -4.93607605400831      1.95162614354046      7.30683571221066
  C   -3.78025535991550      1.67551037024411      8.06550071339022
  N   -2.59193768640852     -0.26573887825405      4.20555795220290
  C   -2.91124730905082      0.46368911937193      5.20220302476702
  C   -3.78953521109998      0.04873694966038      6.37982370066370
  O   -3.92675420978942     -1.36939018942598      6.43231000310757
  C   -5.20460041582255      0.78637438835715      6.36222935189051
  N   -3.19205473616707      0.49064920219966      7.64074152472191
  C   -6.27663382722016     -0.13205844127596      6.98960542699509
  H   -5.96026403417460     -0.50640636879394      7.97391289807531
  H   -6.49128438512616     -0.99887961278813      6.34612676283594
  H   -7.20737516253462      0.44070905501160      7.12374887664854
  C   -5.64828916122502      1.20941599404965      4.95408014532769
  H   -4.96764436993605      1.94519555221032      4.50182567310735
  H   -6.64955053501572      1.66677538915194      4.99733441515602
  H   -5.71353115325262      0.34014540817450      4.28031936333555
  C   -2.07211071173131     -0.15167160988667      8.29197200487119
  H   -2.53177092436716      1.49399052752899      5.25056695632471
  H   -2.36841756433596     -1.97124171949186      2.20345311967666
  H   -5.84533514409589      4.89081453876312      8.76638751367775
  C   -0.68719654832292      0.41629997101437      7.99248566914982
  H   -2.08891390116440     -1.21984789914203      8.02674470506635
  H   -2.23254011543751     -0.09531973423160      9.38333456743641
  O   -0.31349565603302      0.02361549107141      6.66867204748219
  H   0.04636678099339      0.00872105226005      8.71060619810512
  H   -0.65671054670284      1.51317509738904      8.07706726878163
  C   0.70601697918158      0.69634721747019      6.07916928421883
  C   0.97331091367814      0.16182518024492      4.69543954032836
  H   1.31694186177022     -0.88293861466515      4.76547742535121
  H   1.74372933629783      0.77244357245031      4.20903315911480
  H   0.04305083159177      0.15666184481809      4.10550991876766
  O   1.29741509248507      1.59546681240183      6.62202886596996
  C   -5.14294542530117    -12.12837293453455      7.70044217979707
  H   -5.99679321210002    -13.76649174583282      6.53682218709147
  C   -5.69480919898020    -12.71925203668130      6.52347137066895
  H   -4.33052524179430    -10.39577673857462      8.63964919229053
  C   -4.75508120118169    -10.81382311509339      7.72429841529336
  C   -5.84227290764270    -11.95835507681412      5.39231313893302
  C   -4.89299620119254     -9.99469458516109      6.55950256168488
  H   -6.26409797152984    -12.40452394614464      4.48751599721985
  C   -5.45226393838240    -10.58071054741128      5.36039710621907
  C   -4.50400485326653     -8.64638333059191      6.54332343193128
  C   -5.58616019378047     -9.78761835908708      4.21034220797373
  H   -6.00608387497528    -10.23187160704358      3.30284217337980
  C   -4.64055956212760     -7.85214658411441      5.39283892539915
  C   -5.19127567915717     -8.44206496005300      4.19312697832024
  C   -4.24260518127930     -6.47949975317219      5.36561016707666
  H   -3.80669667099319     -6.05418641537254      6.27334923630733
  C   -5.30652183639897     -7.61761003341087      3.02842073614282
  H   -5.73235936623611     -8.05178013519666      2.11928998578041
  C   -4.35798511214765     -5.70378127748402      4.22746509795201
  C   -4.90302458521890     -6.30805408858974      3.04140155514734
  H   -5.02104014619433     -5.69780074543274      2.14320051412871
  H   -3.13101178980446     -4.34994909277697      2.19180901468676
  O   -4.90505019414408    -12.89114219683805      8.83698567514613
  C   -5.90205821650606    -13.63994750692412      9.40071462580213
  C   -5.37119494185131    -14.38378635252778     10.59930729681080
  H   -4.55383527178581    -15.05447725190103     10.29104926433307
  H   -6.18090479324920    -14.96261275143489     11.05952999343693
  H   -4.95003662508525    -13.67318073529527     11.32722450889379
  O   -7.02632432215607    -13.67716931622951      8.98239250534671
  H   -4.62442294622524     -3.83532454664745      6.22954229270909
  H   -4.08277304856016     -8.20243194054856      7.45017827036315
