76
Coordinates from ORCA-job 1016_0.0
  C   -2.80790873224515      1.21272162404588      2.68321249192346
  C   -3.39867669390164      0.62724191987311      3.80399345234527
  C   -3.55825892267410     -0.76716110508020      3.89144822335285
  C   -3.10335589248070     -1.56620327289530      2.83372816117381
  C   -2.51518098484027     -0.99020853989838      1.71014266169938
  C   -2.36882550428780      0.40742203457009      1.62104749453434
  H   -8.68344748083789      1.96543783985075      6.53854293182250
  C   -7.88801184980145      2.00236269702227      7.28585116066827
  C   -8.18686391096224      2.30180972598750      8.62498468772126
  H   -9.22554846324272      2.49848906326042      8.90496845943677
  C   -7.18866833614026      2.34009163742891      9.60068029408721
  C   -5.84995178672141      2.09242576403479      9.24324834596246
  H   -5.06370040642754      2.13939149225921     10.00248405214465
  C   -5.53813742383867      1.79505411895857      7.92429221331205
  C   -6.55486075502432      1.74631524444043      6.94759832170839
  N   -4.18264966259374     -1.35005594462652      5.00166889988728
  C   -4.63819506174065     -0.56824417710306      5.90300043124461
  C   -4.62735402457943      0.95580551231898      5.86887134079217
  O   -3.81071133254953      1.44533103093448      4.81709420023392
  C   -4.18621365931694      1.60417943019092      7.24560926026540
  N   -6.01428631468689      1.42670475936177      5.70711863436796
  C   -3.55938808908588      2.99433016952957      6.99171408759426
  H   -4.21798916793878      3.62747201388675      6.37968174922818
  H   -2.59255733040964      2.90718986207982      6.47453516749604
  H   -3.39890978176758      3.49862544507334      7.95705328531196
  C   -3.19158931776194      0.73427003058860      8.02734365571490
  H   -3.62328017078125     -0.22459233332980      8.34858211643313
  H   -2.85892732311682      1.26586829616838      8.93289454104500
  H   -2.29516577316416      0.52429092931053      7.42129679080193
  C   -6.74532062716121      1.38031208910688      4.46309047816146
  H   -5.15929967025300     -1.00807439121409      6.76503615303492
  H   -3.23640274349474     -2.64698106958013      2.91955692122679
  H   -7.44475597946474      2.56264479913938     10.63921279078293
  C   -7.48039931568130      0.05760595503661      4.18800241958055
  H   -6.04950704825176      1.58513566190532      3.63635776545009
  H   -7.48688517689307      2.19740725258651      4.46501891065541
  O   -8.34703821924169      0.18531552513222      3.04999227548055
  H   -8.14154873329233     -0.20212590739362      5.02684082162895
  H   -6.76846330953916     -0.76250944446819      4.01943239851218
  C   -7.79431046362311      0.08110331791475      1.82259784907188
  C   -8.84685606095532      0.19720919630021      0.74782700033420
  H   -9.59708574903285     -0.59926415706776      0.87206017333454
  H   -8.37801369429896      0.12018500126447     -0.24048311531851
  H   -9.37578712096366      1.15816848841469      0.84296078920649
  O   -6.61294518968937     -0.08486181232738      1.63571919398769
  H   2.43572572870617      1.36483455998777      2.29305671479563
  H   3.39023795706055      2.40836016534201      0.21381379273976
  C   1.78882218137700      1.52561120491967      1.42691704827034
  C   2.34003463249347      2.11012797301337      0.25092915718385
  C   0.46522505121980      1.16570568519234      1.48061020470866
  H   0.05824034065999      0.71410428126862      2.38601236441963
  C   1.54450440089786      2.30745614573868     -0.84928802582379
  C   -0.40763666634658      1.38046355614231      0.36212640035700
  C   0.14601210456170      1.97192864295767     -0.83818144974797
  C   -1.78020351381796      1.03214425849451      0.39368416915958
  C   -0.67939961985645      2.20670190118511     -1.94403704090377
  H   -0.25934993352703      2.67561215187749     -2.83605922017910
  C   -2.60814546756855      1.26820232756522     -0.73253760138800
  C   -2.03982407367687      1.86825037978733     -1.92094338816782
  C   -2.88494953705865      2.10955816741336     -3.05210551496217
  C   -4.00726732863300      0.94455584122600     -0.74225868856304
  H   -2.44294541982211      2.56444472696504     -3.94300600819865
  H   -4.46671188015040      0.50115749971410      0.14295422151441
  C   -4.21630124456201      1.77958671259376     -3.02167969200446
  C   -4.77982452475884      1.19212334485662     -1.85086518849137
  H   -4.85047375417855      1.96793672492422     -3.89213801947979
  H   -5.84274386409215      0.93716778503699     -1.83341307681588
  H   -2.17523013611526     -1.61953246547110      0.88471980518537
  H   -2.71080325642776      2.29972172347662      2.64331751635150
  O   2.05834095734624      2.91055744419252     -1.98327712475600
  C   2.74412980354653      2.22525583027025     -2.96234789912909
  O   3.17565392742882      2.84432063679816     -3.89147799722882
  C   2.88662728376286      0.73040588470699     -2.78107363398981
  H   3.37826968662107      0.32399950984674     -3.67300996482342
  H   1.90391093138777      0.25423150906846     -2.64185600665843
  H   3.48751848827847      0.49707011791738     -1.88944579081423
