68
Coordinates from ORCA-job 1017_0.0
  C   -4.25106770070631     -2.59098201075822      4.33021280365085
  C   -4.35610995589422     -1.18818886660536      4.42337488958284
  C   -4.02525924767659     -0.38474972299570      3.30920145587399
  C   -3.61000502024119     -0.99257988504592      2.11902593906538
  C   -3.52406744866247     -2.38115580780927      2.05247753188227
  C   -3.84014956218104     -3.19089514857589      3.14714393446377
  H   -2.87348983660569      2.71494131544609      9.03430668179846
  C   -3.93432965511654      2.79900900033576      8.79355046707449
  C   -4.73647643811274      3.71946315765779      9.49664818862847
  H   -4.26886264982546      4.33834336022928     10.26286508048492
  C   -6.10264858619493      3.83948743656713      9.21544162904874
  C   -6.68849383286990      3.01987783027435      8.22422515674483
  H   -7.75789795938799      3.12746361368077      8.02835688334395
  C   -5.89941260045569      2.11734029467970      7.53437823247028
  C   -4.52308702253436      2.00452397151965      7.81349292159915
  C   -4.12127471633114      1.05727476985659      3.48920084980616
  C   -4.51868325794132      1.57366083608820      4.66314060387384
  C   -4.85132239346191      0.74219250924023      5.87787561214584
  O   -4.76004568284849     -0.67291541626398      5.59692196370254
  C   -6.28076069187031      1.07312637395361      6.49442776301501
  N   -3.93315956513265      1.04682561051094      6.97777642638499
  C   -6.85373708396279     -0.16357835481704      7.22371544159000
  H   -6.13367031006175     -0.57237650910361      7.94790621320160
  H   -7.12640077344157     -0.95589175938610      6.51264367529578
  H   -7.75630630244264      0.13735144161199      7.77740442157694
  C   -7.29241270460587      1.55297180632099      5.44565522000535
  H   -6.99666286875703      2.49985109384172      4.97167744725004
  H   -8.27425356236493      1.71150637029781      5.91889737545181
  H   -7.42703417554633      0.79612899861202      4.65640223371522
  C   -2.49500211051600      0.93463024423670      6.82762995181718
  H   -3.85523461114648      1.70588659076478      2.64992890122733
  H   -4.58144472661878      2.65415708104706      4.81352395995636
  H   -3.76107655812241     -4.27451027150311      3.07255900503860
  O   -4.50001694861761     -3.37802289118504      5.43864503427660
  C   -5.80512964059076     -3.57088726886279      5.82803068986984
  N   -3.08602615088475     -3.01658176355066      0.79966301573840
  O   -3.00713282397743     -4.23560168616778      0.78110683796995
  O   -2.82792689901198     -2.28570735487467     -0.14504176350787
  C   -5.85791421282574     -4.39650279691392      7.08405352458574
  H   -3.34823964750111     -0.39661462067810      1.24448156379779
  C   -1.82766214498176      0.09793585254770      7.90984964996821
  H   -2.02250562850881      1.93539558712426      6.79593866046701
  H   -2.29272470008745      0.47063082808139      5.84847256517096
  C   -0.69116255127854      0.56929318810787      8.58156151203647
  C   -0.56182645087401     -1.47602639501883      9.87528545310997
  C   -0.05974942676146     -0.20589552464373      9.55706024258524
  O   -6.73725950574377     -3.11610126271539      5.22608160995743
  O   -6.94958410529434      4.70971201959425      9.83510378057860
  C   -6.44635239958697      5.55544896953413     10.84077540618591
  H   -7.29193092854952      6.15984936093551     11.19761632057263
  H   -5.66066377673760      6.23365511361745     10.45783728379076
  H   -6.03189420914329      4.98461333541859     11.69287182051894
  H   -5.17868126906033     -5.25829816555775      7.01226343059959
  H   -6.88844032444343     -4.72639433337825      7.26242758116319
  H   -5.52103547148202     -3.78024677517207      7.93354311029832
  C   -2.32284552079452     -1.17770010393779      8.22986619406757
  C   -1.69666636128246     -1.95615041446550      9.19958146769639
  H   -0.29436317660784      1.56043011501632      8.34086004933580
  H   -3.20322204003996     -1.55441376326997      7.70361404949939
  H   -2.06946078981692     -2.95059713600274      9.45380845704441
  H   0.82057845221636      0.17064879219923     10.07977132842307
  C   0.06099636403890     -2.35097070424481     10.91265160429445
  O   -0.33907814625039     -3.45378096248152     11.20944169785403
  O   1.13269452626973     -1.77850754914306     11.49754245313447
  C   1.79024062192627     -2.55033369364489     12.50078032490567
  H   2.62739437495052     -1.93790338290417     12.85912723012468
  H   2.16225602258720     -3.49955519503493     12.08482485640257
  H   1.10407450038364     -2.78222937223736     13.33005409671626
