69
Coordinates from ORCA-job 1019_0.0
  C   -2.38255079390598      0.75845366517467      2.18441626808662
  C   -3.19957404581168      0.46463932443493      3.31094430376907
  C   -4.20084618000480     -0.53933066076321      3.23341296321310
  C   -4.41860234605164     -1.20285803107508      2.02753449285288
  C   -3.65409330307343     -0.89439728273499      0.89083986379498
  C   -2.64693152975878      0.07380881145065      0.98759216461792
  C   -1.09077611357210      2.10221007414336      8.06239346819545
  C   -0.86379931396978      3.41281777239938      8.51428195555291
  H   0.01516006435408      3.61572715443603      9.13278329510539
  C   -1.73619638910119      4.45397756949891      8.18811853059066
  C   -2.87531001747995      4.19351647285599      7.40560808807821
  H   -3.56703643103288      5.00387589486207      7.15830202468730
  C   -3.11195573363978      2.90235183887558      6.95365211834626
  C   -2.21520385659513      1.86500016534563      7.26550030291515
  C   -4.92573109685205     -0.84588739462501      4.45968056519654
  C   -4.68018661357453     -0.19408125754348      5.60866646701502
  C   -3.68675779390087      0.92850430148873      5.71501902534780
  O   -3.01057825012418      1.16318223088779      4.43104397642735
  C   -4.28935074255933      2.32433269578833      6.18270195540680
  N   -2.64614119967076      0.66595823118551      6.68827651313906
  C   -5.46597289374565      2.11002640054291      7.16323014170649
  H   -5.19759472266349      1.43184349319106      7.98685013706488
  H   -6.34809619738451      1.69889297220124      6.64640198762303
  H   -5.75174735312665      3.07909612565614      7.60000445092337
  C   -4.75467736552504      3.18376191694078      5.00114889563122
  H   -3.92326610967255      3.44923855900619      4.33534499444204
  H   -5.20962001751390      4.11471633097487      5.37520626775119
  H   -5.52384066079470      2.65769159556840      4.41208195134596
  C   -1.81132381924482     -0.51576488514646      6.59387218908580
  H   -5.66206071945806     -1.65426392576723      4.43093038460470
  H   -5.17894563304417     -0.47181395981507      6.53795910278772
  H   -2.03023551362815      0.28484816040808      0.10853307783300
  C   -1.28662072906044      1.73939050755207      2.26475646753214
  H   -5.18617908462029     -1.97732590507170      1.94807364366878
  N   -0.58765998455753      2.01124715710361      3.32053396325031
  H   -1.53848858671023      5.46764491985355      8.54492418618434
  C   -2.17941028203323     -1.61447706255850      7.59160308920998
  H   -0.75831584794414     -0.22237231690123      6.73213628663159
  H   -1.87612211965302     -0.93886539568769      5.57743586618823
  O   -2.09310481558238     -1.12980095068573      8.93744852696288
  H   -1.46038369609042     -2.44514392361814      7.51339302319691
  H   -3.19376224707233     -1.99248679259847      7.40631196778353
  C   -3.23708750860435     -0.78372818743307      9.57117385982489
  C   -2.94061488441880     -0.20975230344534     10.93301476154040
  H   -2.16182891277457     -0.79454100450007     11.44321231784561
  H   -3.86078863887457     -0.18035505846666     11.52947795404276
  H   -2.55731222580388      0.81631474320398     10.80667265323799
  O   -4.33915143631774     -0.90767739153690      9.09233491951369
  C   -3.89398984093966     -1.60211185019682     -0.38530117769780
  O   -4.73176034617691     -2.46100716138243     -0.55211801416865
  H   -3.22319048937990     -1.28070385873838     -1.22601068791855
  S   -0.81266820384192      2.66124238974249      0.79982009544112
  C   0.43749926952146      3.43801521321648      1.73940505273894
  C   0.38067527611544      2.95576035448373      3.07333831744565
  C   1.37152538862101      4.39610856394600      1.32238136773134
  C   2.26283481517313      4.87060125285210      2.28861887788342
  C   2.22059354892218      4.41028208701817      3.62334733387765
  C   1.29059762360403      3.46230116089469      4.02008047629078
  H   1.41094633030475      4.76300712778577      0.30097850810391
  H   2.94107786344073      4.82533912632432      4.33079060376392
  O   3.25954804254459      5.80920812280547      2.06786604055834
  C   3.52014697336345      6.45291525232011      0.89740427675095
  O   2.90826464282833      6.29671731182805     -0.12631140407444
  C   4.69169797393497      7.38488622642429      1.08484766028691
  H   4.88829382003026      7.91703952634266      0.14644716518863
  H   5.58212723715540      6.81149098631476      1.38711681397265
  H   4.47796937306808      8.10327579704976      1.89142916337994
  H   -0.40846638298882      1.29655218375212      8.33841973939504
  H   1.24344077694396      3.10528479216001      5.05062438129790
