34
Coordinates from ORCA-job C:\Users\AIElement\Documents/101_0.000
  C   -2.23179536844165      0.90946296291299     -0.24565087194536
  C   -3.25613274086856      0.12624876231613      0.27764487744060
  C   -1.90591999830070      2.01393778677839     -1.23601210607753
  H   -1.31029135918611     -1.65557049090329      2.47464629594413
  C   -0.90640342219752      0.79533511339294      0.19202574864112
  C   -2.88082660259179     -0.80013355950269      1.26777142469379
  C   -0.52539975523224     -0.10984698025962      1.17769020866719
  C   -0.46633261597089      3.35588797074548     -0.17896223754899
  C   -1.55077774392412     -0.91530683316384      1.70603175365056
  H   -3.64002370211625     -1.45389349885120      1.70694006593309
  H   -4.29457955425445      0.20101073966667     -0.05676064327507
  H   0.50607478575584     -0.21343007754527      1.52561642209702
  C   -0.40872229503312      1.88672182749590     -0.73924499389789
  H   -2.20294582940290      1.87543820603290     -2.28622626537616
  C   -1.96760474711296      3.48538195255543     -0.68367362767166
  H   0.42945678928411      1.65528122163651     -1.41309030420654
  H   -3.16231339215131      3.18578215219082      1.15892356476042
  C   -3.05015810795141      3.84000460276986      0.28512778736257
  C   -0.14757713782349      3.57811484720672      1.26511912267609
  H   0.17466560319775      4.01031092916844     -0.78985501974141
  H   -3.76974292245188      5.53260149341899     -0.72651021450564
  C   0.75972424652005      4.45222055657401      1.72303006869434
  H   -1.99954295101330      4.19299506842528     -1.52667422266041
  C   -3.88412572995280      4.88101467253750      0.15152277579346
  H   -5.96413548369310      5.25925825992488      0.60647131061982
  H   -5.03540556448872      4.55032789952453      1.95648605231181
  C   -4.97952181000664      5.25026402205388      1.10791148284129
  H   -4.83042056874034      6.26710181237575      1.51393467089795
  H   -0.69860787055610      2.96496025171869      1.98948640045101
  C   1.10132686762506      4.67911570423344      3.16639356037082
  H   1.31055623996998      5.06369695335798      0.99413877778839
  H   0.50789552405459      4.03383891543333      3.83303392772798
  H   2.17068116896972      4.48039563463193      3.36148586404030
  H   0.92358604808531      5.72936112114640      3.46024834350286
