67
Coordinates from ORCA-job 1020_0.0
  C   2.77759093762057      0.39404806431327      0.70730654031639
  C   3.12524635216458     -0.94123403547222      0.07018759228046
  O   1.95459847343495     -1.80297667876656      0.06094582536661
  C   0.72253063396170     -1.27894087739541     -0.16600311392828
  C   0.43176973042250      0.04429108928486      0.15894197144609
  C   1.51133783283799      0.84345269437758      0.72801978369545
  C   -0.89287526395070      0.50581880501420     -0.03595471364747
  C   -1.90796869149837     -0.31253948661864     -0.53624589630805
  C   -1.61930837836624     -1.67762112268548     -0.87209961463888
  C   -0.27719478615020     -2.16253410137657     -0.67618233404421
  C   0.04465792510583     -3.50655268564780     -0.99686210336308
  C   -0.91666477306464     -4.35634523313849     -1.50021324010469
  H   1.27531916972100      1.80723828045504      1.18697392833111
  H   3.59724468238044      0.96812742678752      1.14476508260457
  C   4.16900025824541     -1.65020903593247      0.94949391222579
  C   3.78886358177988     -2.61475115290069      1.89239265320054
  H   2.74011868572252     -2.90330459516070      1.96860187163509
  C   4.74446030057938     -3.20630171378933      2.72553811505781
  H   4.43263509549883     -3.96278563929094      3.45096626864671
  C   6.08803490236420     -2.83349450255764      2.63685818206365
  H   6.83292875379797     -3.29581217503922      3.29010982213095
  C   6.47301464705121     -1.86499129949920      1.70410417788981
  H   7.52175609879925     -1.56665715005693      1.62263028803025
  C   5.52096308047900     -1.28064830122304      0.86513604722558
  H   5.83602843416250     -0.53618744633591      0.12938129161940
  C   3.60761363177272     -0.81187013753360     -1.38742840097908
  C   3.64674457957415      0.40932323846395     -2.07127513317739
  C   4.05363827428898      0.46759585613072     -3.40528404989079
  H   4.08650417392157      1.41643819920421     -3.94481716986343
  C   4.41669558277370     -0.70178933248010     -4.08075481405087
  C   4.38158192870860     -1.93875565990561     -3.41895452187096
  H   4.66481764555041     -2.84892656765619     -3.93991312298340
  C   3.98063405994986     -1.97282165872954     -2.08280416994036
  H   3.95677948034676     -2.93623228717160     -1.56775177605401
  C   -2.24061387460853     -3.90283039777933     -1.70953457426737
  C   -2.56728085986468     -2.59750874845167     -1.39793456720188
  H   1.06342214091163     -3.86594097377874     -0.85648570686296
  H   -3.59090189888705     -2.27376705909058     -1.56978995728731
  H   0.44458107108587     -8.07146357160359     -1.53825155733324
  C   -1.24169116207233     -6.74954122793183     -1.67956647996208
  C   -0.47047276303613     -7.96085833748841     -2.14114052858682
  O   -0.48437343004705     -5.62814056648307     -1.85479203726550
  O   -2.35156960768395     -6.75418962481132     -1.21966922279714
  H   -1.09713611535748     -8.85499878407377     -2.03912902403698
  H   -0.15498227262976     -7.83227949383697     -3.18807869055105
  C   -1.41258864482781      1.89294046174155      0.25164377377647
  C   -2.86625970151128      1.79339962570407     -0.13869044442104
  H   -0.87735361046244      2.66375078663746     -0.33285339340976
  H   -1.29120620332008      2.17060799451516      1.31512267761482
  C   -3.15414200447354      0.48515457180679     -0.60415881435135
  C   -3.84911596782018      2.77647636775165     -0.08075110071474
  C   -5.15234507771255      2.46620008041274     -0.49146733777898
  C   -5.45056503200901      1.17919660441507     -0.95149580407496
  C   -4.46451140216216      0.18739330693258     -1.01139602201471
  H   -3.60874576620794      3.78026739850338      0.28229643076459
  H   -5.93516875554296      3.22819742033932     -0.45102032027668
  H   -6.46901990514897      0.93936866367918     -1.26897012796821
  H   -4.74263060671292     -0.80127444410037     -1.37413131473987
  H   -2.99610454591646     -4.57948738891413     -2.10406417253956
  H   3.34991491003057      1.32890255393057     -1.56324091625353
  O   4.78356281088860     -0.49915595085935     -5.40227080475496
  C   5.21020950953114     -1.44837446912889     -6.28078071742620
  C   5.48593598916796     -0.80622951693786     -7.61830418302397
  H   4.56761413832515     -0.33742031686633     -8.00543248209803
  H   5.84428654318898     -1.56757166324133     -8.32148771692991
  H   6.23673091279119     -0.00846026698845     -7.50742742177074
  O   5.34402414210777     -2.61606381167090     -6.02712662037755
