66
Coordinates from ORCA-job 1021_0.0
  C   -3.68942143108524      1.15933373529674      2.64412478146888
  C   -4.22545459490626      0.31794421654546      3.64320962010958
  C   -4.45343351789823     -1.05470463274983      3.40040452867041
  C   -4.16120862439637     -1.58246628519683      2.13831129047563
  C   -3.64929422237735     -0.74162551115949      1.15333057684511
  C   -3.40731071753814      0.61582715743770      1.39211169045991
  H   -2.60723923748383      2.08469689264188      8.85997954899033
  C   -3.61914084593147      2.38710920765974      8.58127685537148
  C   -4.16795231373940      3.58150671053240      9.07567563334654
  H   -3.56594111073404      4.20324534221465      9.74384661600080
  C   -5.45657358675897      3.99047841640245      8.72295802260769
  C   -6.23640729296288      3.19843545010275      7.86187752104568
  H   -7.24509759906768      3.51953136391540      7.58583177877331
  C   -5.70757085848403      2.01309687165730      7.36713919419395
  C   -4.40796632157819      1.61639149438673      7.72369055413827
  C   -4.95565495965157     -1.84853686256694      4.51215122137767
  C   -5.20340558424403     -1.29749763724281      5.71300630734064
  C   -5.01790809381801      0.16424133685806      6.01241265189829
  O   -4.50031100915548      0.88421788334307      4.83154205715363
  C   -6.32451205467651      0.93611022214215      6.48519221595003
  N   -4.08580716788660      0.40120170173938      7.09340604056518
  C   -7.21093901918571      0.02394287806137      7.36496580403282
  H   -6.63702835409820     -0.42768090477957      8.18843037268566
  H   -7.67787131428150     -0.78055735692895      6.77446044106766
  H   -8.01585077226024      0.62631257877644      7.81210762719799
  C   -7.15047093901851      1.46681505326604      5.30790025626072
  H   -6.59838291820270      2.21415423109879      4.72335183679469
  H   -8.07231744980357      1.93958774076593      5.68136079451975
  H   -7.45024401122571      0.64689156943167      4.63472618727569
  C   -2.72060785069399     -0.08552950294038      7.03733737169067
  H   -5.11023105242169     -2.91969080448281      4.35426609704971
  H   -5.54934036499035     -1.91112192102340      6.54543916470672
  H   -2.99607153597403      1.23658558886111      0.59790572541823
  N   -3.35121130367243     -1.29825364243156     -0.17581363834278
  O   -2.92191550221258     -0.53563039264413     -1.02771966580882
  O   -3.55317528233621     -2.49220325287527     -0.34754819856026
  H   -4.32327197326902     -2.63719634888483      1.91464704615320
  C   -2.37161158119528     -0.90879088315837      8.28206897316081
  H   -2.01436068700106      0.75812999645266      6.94431792041079
  H   -2.59412163601566     -0.71382407018162      6.14343845416535
  O   -0.98605703495053     -1.28424600846162      8.26959759139180
  H   -2.93443105845021     -1.85232296558072      8.29402791669202
  H   -2.59338391950762     -0.34287023452404      9.19808601153423
  C   -0.10063398289473     -0.38648761786483      8.73236095300560
  C   1.32661103296016     -0.88942117176736      8.57056655955737
  C   2.29537846394044     -0.25101005207203      9.54457385588540
  H   2.25201401190027      0.84457757925711      9.47262591051623
  H   3.32282547901485     -0.58967930877339      9.35141333004258
  H   2.01998386736221     -0.53603302795679     10.57431745667420
  H   -5.85921733271689      4.92779201924297      9.11456136436429
  O   -0.39614083921518      0.67722331498855      9.21973343677220
  Br  1.84660428163130     -0.48838886199988      6.68892587544080
  H   1.33250449265643     -1.98543817184493      8.61369333636037
  C   -1.95196991244683      5.01744765018721      0.58617575343809
  O   -3.06282058680557      3.31550601307400      1.79867956572797
  C   -2.30205511962904      4.41562460337613      1.94064398784076
  O   -1.95732451235070      4.87154524654438      3.00033782447147
  C   -3.43121336211408      2.60555901768361      2.98336362756005
  H   -2.63478257890211      2.70552342718854      3.73857329769101
  H   -4.33040650264642      3.07137972866906      3.42106604441335
  C   -1.47791325834768      6.45305109119994      0.68328875370805
  H   -2.29100043348539      7.08101519784533      1.08479188312865
  H   -1.19366035609225      6.83721606781728     -0.30624512759527
  H   -0.62087356516166      6.53449169438119      1.36616564219853
  Br  -0.54545423578688      3.86082858598436     -0.22159075781210
  H   -2.80580834572888      4.89478855306274     -0.09245536966968
