60
Coordinates from ORCA-job 1024_0.0
  C   -7.84421212840053     -1.46320514454391      2.99571144420683
  C   -7.15402442986165     -0.55258281253155      3.84043381871647
  C   -5.83026633746017     -0.22116817573830      3.58277038315563
  C   -5.15126404963889     -0.78462186601018      2.45274667725347
  C   -5.86261929336611     -1.69084742444908      1.59908112404293
  C   -7.21574137022307     -2.01188688690413      1.90314824659154
  H   -6.91513401408206     -0.12984223779614      9.96818698413673
  C   -7.33287974772583      0.79236644593394      9.56495378450032
  C   -7.71880900796563      1.83874582688854     10.41626142940741
  H   -7.61998094260905      1.70452557077739     11.49731782659041
  C   -8.20788477970573      3.04689342994379      9.91223299732098
  C   -8.33457101502153      3.22173796657789      8.52273720054361
  H   -8.72943749371522      4.16030384769052      8.12251872283933
  C   -7.96016793614525      2.19405220781847      7.66728301482438
  C   -7.45929249578094      0.98167023258257      8.18375772330575
  N   -5.15646387740731      0.66398566406688      4.43008660035590
  C   -5.78447450639391      1.14200202528197      5.43414065211535
  C   -7.20622688342409      0.79949121106330      5.86061542299595
  O   -7.84479583589942     -0.01953414142915      4.87867672966413
  C   -8.10388354925729      2.07560064234513      6.15570939674025
  N   -7.15448926604850      0.10250135376837      7.14828625193213
  C   -9.58185319838681      1.76793133841521      5.82327805421475
  H   -9.92819211748298      0.86270990037297      6.34321803943695
  H   -9.72907809880439      1.62270205390875      4.74285093741958
  H   -10.20684025101976      2.61156585924520      6.15440713168055
  C   -7.65407684377636      3.31582217318732      5.36982829663900
  H   -6.64991186313598      3.65951492625541      5.65678230252932
  H   -8.35086519665328      4.14958802033994      5.55071093704989
  H   -7.65482193640623      3.11705904215411      4.28552582093177
  C   -6.73528741125618     -1.27914674677597      7.29633021009796
  C   -5.19169106334054     -2.24643665630343      0.47427987429412
  H   -7.77434553382939     -2.70090457252488      1.26581674006714
  H   -8.48912949454423      3.85355994536910     10.59339798781274
  C   -5.24181078471845     -1.53568846664323      7.46384847580317
  H   -7.08564517776255     -1.84611306876693      6.41967158448234
  H   -7.27425359773812     -1.70433498758864      8.15960571101044
  O   -4.81042846732452     -0.99635946410459      8.72188105782288
  H   -4.64757383939117     -1.08902228461774      6.65297800484024
  H   -5.04978095008876     -2.62245055996803      7.44822843477072
  C   -3.47997638552680     -0.98976613212777      8.96277689266400
  C   -3.17694867314543     -0.39154418941235     10.31529505415315
  H   -3.62436208474637      0.61093191884701     10.39666528606066
  H   -2.09079195913388     -0.33779855205937     10.45748195029023
  H   -3.62545369176251     -1.01307405931416     11.10663364398229
  O   -2.66656996989514     -1.41725012347529      8.18309777523586
  O   -9.18234379086892     -1.73707996944127      3.23479264293600
  C   -9.52135115856444     -2.46177199633582      4.34402872101006
  C   -3.87740545901352     -1.92270517226711      0.20629786404280
  H   -5.73644366180166     -2.93746413457226     -0.17527841653420
  C   -11.01850856872146     -2.54923084114017      4.47348109259833
  H   -11.27846429622849     -3.25454031408661      5.27190217360440
  H   -11.46947922189645     -2.85987639512002      3.51925596292509
  H   -11.41844660932894     -1.55134021222866      4.71510835744798
  O   -8.71338330007980     -2.94649975517902      5.08920193668248
  C   -3.17768874611925     -1.02785255288129      1.05425540292106
  H   -3.37176570283490     -2.35681242585026     -0.66022811701996
  C   -3.79892816025678     -0.46960850053991      2.15378659193660
  H   -3.27305193969342      0.21956912238963      2.81600610128150
  H   -5.24801915133170      1.81375511022903      6.11850953293679
  H   -2.13599268325772     -0.77927501272518      0.83404351870141
