71
Coordinates from ORCA-job 1026_0.0
  C   -0.58138916267891      1.36745815262698      1.80649647255915
  C   -1.66341597675538      0.43798937201044      1.86579307088959
  C   -1.74827186221953     -0.61713667898491      0.95540657025480
  C   -0.75591107815495     -0.74785280296635     -0.07245548060202
  C   0.31275322680372      0.21388870189806     -0.13407989014283
  C   0.37509325837479      1.26046720959068      0.83101730562793
  H   1.18737481218483      1.98935814884270      0.79934967346770
  H   -2.75245269760502     -0.34120520703603      7.27616003242902
  C   -3.47095436838617      0.32292133261621      6.79543657914640
  C   -4.07775061922189      1.36349244008893      7.51681143378666
  H   -3.81740217753674      1.49935383173351      8.57029091586164
  C   -4.99773305521275      2.22658838342979      6.91531239625598
  C   -5.33565604850776      2.05743521413270      5.56046537767240
  H   -6.05422878683467      2.73108434421215      5.08467177420952
  C   -4.74421537857471      1.02965576070458      4.83777252595531
  C   -3.81639682353718      0.16784143524066      5.45027565198611
  C   -2.87334652268887     -1.52240113505303      1.14112637768836
  C   -3.73920377956969     -1.38424508436463      2.16371892065633
  C   -3.64172433737810     -0.29231434757771      3.18900353364295
  O   -2.58269507369620      0.66632170804505      2.80856451966965
  C   -4.95008226650138      0.57911378256264      3.39849210690047
  N   -3.34497230139565     -0.77352768026823      4.52132033377950
  C   -6.21581401373038     -0.30674151300576      3.33441788759231
  H   -6.13684245967701     -1.17538678187302      4.00558131741794
  H   -6.41071676663596     -0.66488616832149      2.31071022421301
  H   -7.08699954771227      0.28369672553544      3.65581897157013
  C   -5.06890374463846      1.71974401937826      2.38176658221548
  H   -4.23152888892353      2.42546812843900      2.45844926385266
  H   -6.00589063970624      2.27393840812212      2.55047551508187
  H   -5.09905452335869      1.32666786805249      1.35222727182993
  C   -2.15773182144817     -1.58160343763301      4.78186605399846
  O   -0.55514711536022      2.41901519098633      2.70027933587143
  C   -0.33539948563844      2.14537078795528      4.02931430374480
  C   -0.57089073333239      3.37240905869167      4.86433780496586
  H   -1.65855765531080      3.51453199916358      4.97450809083554
  H   -0.16340363634738      4.26752420720010      4.37317175862147
  H   -0.12681002713053      3.23182899532372      5.85725231185152
  O   -0.00939712678424      1.06034720998372      4.42471952944665
  C   -2.36379947403218     -2.67683219846913      5.81418110815375
  H   -1.30909421732009     -0.93899947251316      5.07720497179978
  H   -1.87502169840398     -2.04537283042983      3.82243808288429
  H   -5.45386605345288      3.03252221900323      7.49556079231090
  H   -4.54919089517916     -2.10155359291481      2.29836341257030
  C   -0.77883580952010     -1.78623496571136     -1.04873869589070
  C   1.29306778633376      0.10773194894959     -1.14962484069782
  C   1.21748852015880     -0.91619812392132     -2.07041223441752
  C   0.18270047866582     -1.87655423569090     -2.03194885879897
  H   -1.57422191687690     -2.53198468454222     -1.02770753414464
  H   0.16765160019396     -2.66719094540832     -2.78142597691445
  C   -1.37405682960797     -2.95188504142998      6.76345824656061
  C   -3.51889965409095     -3.47787155402227      5.82337099040231
  C   -3.67454536796184     -4.50953739068534      6.74303834387073
  C   -2.67093002257333     -4.77904700139469      7.69250480047727
  C   -1.51061439830293     -3.99010607804152      7.69409442588170
  H   -4.31418339671494     -3.27875634615993      5.10030629246485
  H   -4.57480113820944     -5.12817174884021      6.75553252866690
  H   -0.70916833781075     -4.16535059793963      8.41243149820553
  H   -0.46468611456810     -2.34302139782678      6.78386118142264
  O   -2.93098889208347     -5.79519963050781      8.55664827103039
  C   -1.98482979635725     -6.17609219832224      9.54681035852924
  C   -0.89079284944418     -7.08828943701158      9.00443433901115
  H   -2.57568826083185     -6.70842891666713     10.30859992073778
  H   -1.55786807941810     -5.28235579069073     10.03710759979462
  H   -1.33357854757454     -7.98425686696633      8.54201528091556
  H   -0.22872031253219     -7.41353468177550      9.82355890681610
  H   -0.27255687768583     -6.58379797638669      8.24604110794514
  H   -3.01168788234382     -2.35170110299510      0.44512435947288
  N   2.24304884113165     -1.01009850748875     -3.12446690615279
  O   3.12482621011995     -0.16437908728691     -3.13856923342661
  O   2.14754481670441     -1.93018916798574     -3.92303325255310
  H   2.10965777441550      0.82747582259053     -1.21499571173170
