100
Coordinates from ORCA-job 1027_0.0
  C   -2.63636845968766     -2.05977993294972     -0.60084357621251
  C   -2.69602381072952     -0.94023717060107      0.24277375198271
  C   -1.80831185095888      0.12832655970941      0.02129435923444
  C   -0.89474576244800      0.06356918747053     -1.04023649250411
  H   -0.23028712025056      0.91542377524675     -1.20328424775731
  C   -0.83750034413630     -1.04376666013987     -1.90068014492593
  C   -1.72872383036035     -2.10633263356830     -1.65410819908982
  H   -1.70756036418351     -3.00844966477457     -2.26798365098063
  H   -3.57108702692505     -0.62368522724348      6.38944292469709
  C   -4.36660501902727     -0.08408972668444      5.87158811129452
  C   -5.40166067601251      0.52208207824955      6.60188789883095
  H   -5.39465479348015      0.44646185306502      7.69294383099216
  C   -6.42710129905053      1.22253914042572      5.96339577973271
  C   -6.44376150432306      1.31190242321419      4.55875364665487
  H   -7.25590286375127      1.84362487864827      4.05422864072784
  C   -5.42820341289398      0.71842244650395      3.82233942773246
  C   -4.38656475216225      0.02827094056066      4.47597190525262
  C   -1.89762981760621      1.25102723105185      0.94309159989906
  C   -2.79331674473009      1.24796821910530      1.94359386537493
  C   -3.73970710608193      0.10134107900479      2.21654178718461
  O   -3.60753864058116     -0.94664058530813      1.24617741476643
  C   -5.26594821199730      0.55595022265310      2.31663664694757
  N   -3.48112896797343     -0.47005722813228      3.54837066366186
  C   -6.19641436420935     -0.58455161961521      1.84470398187345
  H   -5.97243064813799     -1.52553386978821      2.36864272775202
  H   -6.10336404560345     -0.75951503782096      0.76373445154566
  H   -7.23848599639483     -0.31014269635444      2.07112303882496
  C   -5.57171975383652      1.82110588823603      1.50333265300539
  H   -5.02983653099874      2.70410076889564      1.87131615052571
  H   -6.64868859589119      2.04771495338947      1.55475345181096
  H   -5.31617195921884      1.67575403295467      0.44172528451484
  C   -2.25911945324966     -1.16179587869114      3.88473639486873
  C   0.12317357091491     -1.09802607151752     -3.03384174922700
  C   1.42548154843043     -0.56766295941679     -2.90162481795773
  C   -0.24810435893580     -1.67712528821379     -4.26473767128233
  O   -3.42993393498922     -3.16863048654478     -0.34146695064466
  C   -4.76409903741346     -3.11055696245319     -0.63704373106221
  C   -5.45531360790553     -4.36514386889654     -0.17114250916415
  H   -5.48246903506049     -4.37016209567582      0.93051661884570
  H   -4.89580682836947     -5.25717824994663     -0.48918736052987
  H   -6.47901882912221     -4.38867614490289     -0.56373203064914
  O   -5.28059103642223     -2.17433151388036     -1.18286861937953
  C   -1.14928125052173     -0.27337890518239      4.47206976488754
  H   -1.88217945252885     -1.66133712185220      2.97974573272229
  H   -2.48769324374282     -1.95863360053892      4.61438292180185
  O   -0.07196977964991     -1.09061548906504      4.95272775039415
  H   -1.51420231692594      0.28223967423335      5.34722306794062
  H   -0.77442158037638      0.43091738688323      3.71788477036542
  C   0.93002802925300     -1.37689070398222      4.08958598724738
  C   1.96842407694549     -2.25405108222954      4.74557166946593
  H   2.35815914811865     -1.76451700293311      5.65147454228509
  H   2.78402140881968     -2.45047316756966      4.03929044508531
  H   1.50858002447119     -3.20323170427267      5.06263106349576
  O   0.96875440877784     -0.97374527326785      2.95385832234385
  H   -7.21625099280740      1.69768471361508      6.55106872251234
  H   -1.20913244784795      2.09064507950991      0.81079047753578
  H   -2.85894367971678      2.07925029786272      2.64946367356632
  C   2.31683026326684     -0.60216063448885     -3.97231466940758
  C   1.92792691944571     -1.20466607776307     -5.18867971727389
  C   0.64418013576334     -1.73972872820124     -5.33579781101024
  H   -1.26109394069167     -2.06746687515858     -4.38897937146982
  H   0.33388464559580     -2.19907438976052     -6.27826430585186
  H   1.73206895357507     -0.16225257287592     -1.93550667387115
  C   3.05630072377449     -1.15275228951902     -6.12272269046426
  C   4.14541405132571     -0.52583354317336     -5.47711463461737
  C   3.77612187807446     -0.12402080581633     -4.04080940310199
  C   5.32970674836253     -0.30838750441126     -6.18367358710462
  C   3.15864098191814     -1.59070690903993     -7.44797779383951
  C   4.35787691007183     -1.38927934103062     -8.13799324250867
  C   5.43372571301409     -0.74780013281792     -7.51170332556817
  H   6.17492642688795      0.20797771193703     -5.72322017633333
  H   2.31224148499302     -2.07545931319583     -7.94210509393648
  H   4.45329256841050     -1.72509348337984     -9.17415365138755
  H   6.36298797248832     -0.58256648619332     -8.06371882299112
  C   3.91617691715173      1.42355832238916     -3.91325384041989
  C   3.58924685277153      2.07223894866781     -2.56385115817296
  H   3.28199077156263      1.87995949577564     -4.69293683032549
  H   4.95211438636653      1.69177693743094     -4.18481687534005
  C   3.85451607492045      3.58359592787914     -2.55978759380300
  H   4.18213422406402      1.60495531541515     -1.75737585660432
  H   2.53081071966800      1.89852313191892     -2.30652515354374
  C   3.52739875605623      4.25821236692128     -1.22629791296880
  H   3.26643159452465      4.05689212842467     -3.36741915293317
  H   4.91439202159524      3.76700578040610     -2.81595086282581
  H   2.46424358837350      4.12851686692092     -0.96085561817386
  H   3.73160951736514      5.34071462886114     -1.25905033023530
  H   4.12505553652019      3.83204985212941     -0.40250687013908
  C   4.59577568923426     -0.90568214123853     -2.96790047810379
  C   6.09827042024449     -0.62405562204412     -2.85817191177030
  H   4.44785405191176     -1.98290271926229     -3.15796002437904
  H   4.13253483006452     -0.71542058163470     -1.98425443143660
  C   6.76008511404816     -1.41357611575863     -1.72093961722756
  H   6.27796106368339      0.45382463635432     -2.69474830965232
  H   6.60191586872607     -0.88046216133488     -3.80537559376481
  C   8.26410241051698     -1.16316613477864     -1.59707362372588
  H   6.57711134091641     -2.49273635274215     -1.87582012026983
  H   6.26389180863006     -1.16140125912594     -0.76563128985207
  H   8.79539246809050     -1.44170606734251     -2.52312453945126
  H   8.70521498525225     -1.74745991590155     -0.77321252180690
  H   8.48003947496165     -0.09875109991746     -1.40198868115325
