41
Coordinates from ORCA-job C:\Users\AIElement\Documents/102_0.000
  C   -2.32026369657583      2.65867672645963     -0.52040682693312
  C   -2.71128911142017      1.26715639303749     -0.85925303627978
  H   1.59992888984443      5.61948653448803     -0.56536524691609
  H   -9.70563399014463      1.25036305591757      1.54931706343369
  C   -1.32314794728899      1.59136590949102     -0.25210481352031
  C   -3.75609678147533      0.50080121144678     -0.07138039081044
  F   -2.90803647338858      3.29233846860286      0.51744091595159
  C   -0.04629359945867      1.44873471034158     -1.05800409873826
  H   -2.68766846288358      1.05572509953471     -1.93634081463131
  H   -9.47958173210658      2.79332561358255      0.69114851389945
  C   -5.19062941335471      0.63478006205659     -0.62906013894283
  H   -1.23659837338074      1.33053944999169      0.81084695025566
  C   1.17706688199930      2.13542357179600     -0.41253563985405
  H   -3.47750511279389     -0.56812879249455     -0.06637046074290
  H   -3.74079795624414      0.83668068211943      0.97870393212239
  C   -5.74503012015567      2.03530836825085     -0.59379865791970
  H   -5.18786078401911      0.27852211479960     -1.67688677052455
  H   -5.84393836068720     -0.05629544722050     -0.07375398426135
  C   -6.75609400977709      2.49712063237538      0.15852524068998
  H   -5.24586585839227      2.75528046838584     -1.25411615724316
  H   -7.01517529953994      3.55900159418084      0.04815974113321
  C   -7.60866581131993      1.74481948784877      1.14547815688825
  C   -9.10148887044137      1.76100078548628      0.78162934415973
  H   -7.26418189402407      0.70350413244659      1.25222446123145
  H   -7.48330814232406      2.20963621088116      2.14195233478823
  H   -9.28108354610912      1.25831497633297     -0.18278340652975
  H   0.17622164471968      0.37368259375506     -1.17916511799271
  H   -0.20454864769066      1.85557017694613     -2.07061030923422
  C   1.05241123052304      3.62983415444322     -0.27105313515786
  H   1.32597697660721      1.69517832861064      0.59271610433333
  H   2.07404573319002      1.87194123173140     -0.99428562074630
  C   1.85440349052572      4.57415235545052     -0.78773032027780
  H   5.23604309700254      4.85075284814520     -1.60723745525416
  H   4.24397021353202      6.01279197519156     -0.69453060815928
  C   3.09153988180059      4.39646214588232     -1.62723987008765
  H   4.57307540016243      4.40459768589943     -0.01295262411902
  H   0.19978254834107      3.97407066284965      0.32729662509733
  C   4.35691441986663      4.94534479243990     -0.94890902962798
  H   3.24264696025703      3.33683439964411     -1.88883428988017
  H   2.94596154263679      4.92978306659026     -2.58571984306007
  F   -2.10396491601207      3.54228156228136     -1.51918071653950
