61
Coordinates from ORCA-job 1033-2_0.0
  C   -1.88174275156496     -2.92658278587504     -0.75404752735638
  C   -3.12683426597867     -2.83439411502381     -0.06713437479528
  C   -3.50846060220545     -3.81835354449438      0.85710501347588
  C   -2.65579990837308     -4.90282085534401      1.10016703493320
  H   -2.92126758457552     -5.68425951581047      1.81263741437244
  C   -1.44330075390087     -4.97578225058558      0.42854067552817
  C   -1.03731010763463     -4.00329337448831     -0.49561729861807
  H   -6.71143047395790     -3.08924103190875      3.73666552588115
  C   -6.97248619040550     -2.14528774384496      3.25503733739197
  C   -7.92754884672651     -1.28885060625478      3.82337348256168
  H   -8.41188677933030     -1.57636987965659      4.76031909028206
  C   -8.28059435804079     -0.08179582767194      3.22209497068330
  C   -7.65956641463375      0.29342185129076      2.01602135638547
  C   -6.72492961455842     -0.54049979552851      1.41261817259133
  C   -6.37913254771592     -1.74902597405156      2.05322262033291
  C   -4.82304037848194     -3.68952898425439      1.59950244190322
  C   -5.27639555602823     -1.83342158301691     -0.01186035255090
  O   -3.88999511823554     -1.75432710981491     -0.35810354620890
  C   -5.85196557658757     -0.35332667114739      0.16995636049069
  N   -5.41554097241483     -2.41022395049984      1.31059751339268
  C   -6.59850074094857      0.15713543627291     -1.07125357469603
  H   -7.48738438857193     -0.44623791653590     -1.30167556258719
  H   -5.93792850838366      0.14176684311716     -1.95212629475223
  H   -6.92878924961086      1.19138409525603     -0.90619589081476
  C   -4.70231939997302      0.62039661951890      0.51643372656019
  H   -4.11473700247674      0.26375562321516      1.37457257957069
  H   -5.12858520771831      1.60105455368142      0.77673009385726
  H   -4.01924204128422      0.74564362607449     -0.33612424955971
  H   -0.07689416381714     -4.12623388811269     -0.98998173599739
  H   -4.63104482323825     -3.75305428995983      2.68426927977529
  H   -5.48850025441528     -4.54185886394938      1.34252982423313
  O   -1.62776716770102     -1.93553644981816     -1.63496369589152
  C   -0.40141417787701     -1.94483180823893     -2.35838061420124
  C   -0.37579945616130     -0.72613662401824     -3.26000624019741
  C   -5.98874837171025     -2.66850593266035     -1.09186602799431
  H   0.44793851503804     -1.93017130045929     -1.64999660021034
  H   -0.32387435352372     -2.87645876821132     -2.95000796366525
  C   -5.46438108296429     -2.76249074730619     -2.39049882450071
  C   -6.13441571042740     -3.49082487192680     -3.37779606073331
  C   -7.33882440842031     -4.13600741052561     -3.08312160862169
  H   0.56611003236108     -0.69796103063229     -3.82979900617942
  H   -0.45307013058066      0.19845280860879     -2.66756654694718
  H   -1.21361676186564     -0.74977573817528     -3.97391431135896
  O   -8.00285699467540      1.46528899898070      1.34737141895563
  C   -8.13096058321666      2.66632523847599      1.99205131130670
  C   -8.53670432701321      3.73250007729405      1.00471261327058
  H   -7.72874378603799      3.89004651254526      0.27229888063416
  H   -8.73509351678213      4.66903797026405      1.53980805529934
  H   -9.42814900597482      3.41378431297643      0.44362289717319
  N   -0.54468574062350     -6.11048045229431      0.69339520247467
  O   -0.91121680058708     -6.95012477090241      1.50238966939052
  O   0.51763109498885     -6.14686468868758      0.08813615987908
  H   -9.01987430718249      0.57220600205128      3.68100359567757
  C   -7.86729360736319     -4.04987142566721     -1.79169088762821
  C   -7.19683431374414     -3.32311811364631     -0.80323725350444
  H   -7.86127768158993     -4.70742646838425     -3.85491231001212
  H   -8.80625596010431     -4.55414508312270     -1.54802090752948
  H   -7.62444840513823     -3.26598656368391      0.20010766562033
  H   -5.70952754393259     -3.55614389092524     -4.38315445471499
  H   -4.52036419453914     -2.26633152649829     -2.62366768498604
  O   -7.93296667086305      2.82888365399133      3.16378942292895
