66
Coordinates from ORCA-job 1034-2_0.0
  C   -2.02907219409436     -3.05921036119715     -0.86037347445630
  C   -3.22377215533994     -2.90799494522514     -0.10000814245064
  C   -3.55434475690392     -3.83016106122607      0.90452386216883
  C   -2.68805768283589     -4.89857473611646      1.16865174197094
  H   -2.91185512573130     -5.63118277459022      1.94444037049100
  C   -1.51741526613587     -5.02182912553209      0.43251859791227
  C   -1.16897609807367     -4.11748866979550     -0.57943030724294
  H   -6.72158374548720     -3.03051506229528      3.83412241113217
  C   -6.99504744246614     -2.10191103798301      3.32991738972939
  C   -7.98232715360932     -1.25916705619241      3.86229162348558
  H   -8.48217756875726     -1.54334461490430      4.79206112287794
  C   -8.34919680285871     -0.06953451939972      3.23409657016079
  C   -7.71113983002907      0.30215585165553      2.03611034258681
  C   -6.74550226698287     -0.52052909661381      1.46749994123799
  C   -6.38246252510202     -1.70972417092505      2.13737211071514
  C   -4.83738334799870     -3.65801725885967      1.69124765438796
  C   -5.33320629152441     -1.83440713362161      0.06683517619986
  O   -3.99676663902628     -1.83985598192027     -0.41992205166582
  C   -5.84881611979159     -0.34231139591817      0.23998218614446
  N   -5.36942622878157     -2.34522581053899      1.43301923674618
  C   -6.54238855203984      0.18999394238150     -1.02073898086118
  H   -7.46810571431787     -0.35544731959804     -1.25298415364429
  H   -5.86828586209894      0.10464948005201     -1.88784008660748
  H   -6.80398598147059      1.24881773203577     -0.89023173752586
  C   -4.66546463619325      0.57799916807511      0.61542348291222
  H   -4.10779116410120      0.18075949805997      1.47580710800139
  H   -5.04943404244722      1.57352820519436      0.88513769282969
  H   -3.96702322901020      0.68371397258961     -0.22761727836752
  H   -0.24212988950476     -4.27931302910487     -1.12421142433888
  H   -4.61996443489441     -3.74952493565315      2.76846251356747
  H   -5.55135402965646     -4.47242598905991      1.43759514189359
  O   -1.84168429401569     -2.14463171677265     -1.83683100803065
  C   -0.66148642404152     -2.20669195474256     -2.63236551824673
  C   -0.70709447459033     -1.06786673256066     -3.63200390100185
  C   -6.20893440489185     -2.67680844946276     -0.84636320968796
  H   0.22907807391484     -2.12681734463138     -1.98148750392217
  H   -0.60959687342589     -3.18387994429971     -3.14804291415405
  H   0.19696590826691     -1.08066413295359     -4.26046985426250
  H   -0.75937395411635     -0.09724004172334     -3.11524074607592
  H   -1.58615584089168     -1.15775097630453     -4.28904574974411
  O   -8.06573631101757      1.45307847824714      1.33844774528809
  C   -8.23651938225436      2.66110265008565      1.96065655309955
  C   -8.64770393007727      3.70159251743434      0.94888446582667
  H   -7.82798592195069      3.86971459820653      0.23205518502737
  H   -8.88188700400800      4.64023720577777      1.46543593683334
  H   -9.51787055562626      3.35152980194534      0.37325690603499
  N   -0.60510427078251     -6.14112297043320      0.71712901558453
  O   -0.93227030019388     -6.93509485702390      1.58658525821032
  O   0.42699089098982     -6.21139427292244      0.06477824520064
  H   -9.11427775552118      0.57292924989617      3.66638559573863
  C   -6.59735381204226     -4.07574073183014     -2.90991110522468
  C   -5.81545589555767     -3.20957232629772     -2.01582016119314
  H   -7.22769799506031     -2.83185707983404     -0.47521870282075
  H   -4.79065587331796     -2.97683737525178     -2.33011758347613
  C   -6.23915031657169     -4.17942865008339     -4.27805967846340
  C   -6.94577834615005     -5.03569540202225     -5.13514324095678
  C   -8.01673506539981     -5.78443847114741     -4.65407602520182
  C   -8.39587597453100     -5.68875973793902     -3.30766740737719
  C   -7.68738262545408     -4.84662134322577     -2.45551075204602
  H   -6.63696728095305     -5.08660105113575     -6.18145387996421
  H   -8.55912793230862     -6.44832354308758     -5.33252078358674
  H   -9.22987943702766     -6.28102974936299     -2.92398669655775
  H   -7.96041277223732     -4.79855713924832     -1.39844832607508
  O   -5.22010224561603     -3.46755823356554     -4.82626153388270
  H   -4.89393284431194     -2.81414687229054     -4.19395805219618
  O   -8.06703798196205      2.84581483478713      3.13352078731364
