69
Coordinates from ORCA-job 1035_0.0
  C   -2.07805068148748     -3.06014870346260     -0.84915205230316
  C   -3.29783349820064     -2.86929715393308     -0.13546550550475
  C   -3.73263287424089     -3.81555948684031      0.80360290702640
  C   -2.97115728622236     -4.97143998180087      1.02188508114647
  H   -3.28112679823552     -5.72961026615566      1.74154039146010
  C   -1.79092665557289     -5.14766238325379      0.31421165263815
  C   -1.32513163423209     -4.20836557455213     -0.61621026450172
  H   -6.86684907446749     -2.86674913292848      3.71925260235551
  C   -7.05891318159121     -1.90497716868557      3.24053941016473
  C   -7.93356236319080     -0.97528689416697      3.81584162774746
  H   -8.43224200965083     -1.22333670708089      4.75684831320743
  C   -8.19326831876665      0.26202870634041      3.22156358084414
  C   -7.56063372022045      0.60686545540700      2.00560010540736
  C   -6.70597324558924     -0.31817929196352      1.39754368360365
  C   -6.45107137483806     -1.54611685248916      2.03151959608467
  C   -4.99850326085677     -3.57228015339525      1.59904825318800
  C   -5.36345383086974     -1.70119030221317     -0.03362447065156
  O   -3.97881250413964     -1.73180340369018     -0.40870772726284
  C   -5.81982672158095     -0.18440423483986      0.15863978901691
  N   -5.54712929904027     -2.28242599600455      1.27810014166969
  C   -6.52713935539178      0.38655893119719     -1.08025142889669
  H   -7.45553139831301     -0.15416871468082     -1.31439046029626
  H   -5.86484942224843      0.34236562708416     -1.96019808559998
  H   -6.79025530631744      1.43731096428984     -0.90153043751549
  C   -4.59962929146949      0.69696248791906      0.50861512346651
  H   -4.03627062237371      0.28235120901888      1.35710800417238
  H   -4.95671979800834      1.69969330077342      0.78684295262987
  H   -3.91387997830155      0.78516862639604     -0.34656383179200
  H   -0.39167325652249     -4.41144503726503     -1.13537105039730
  H   -4.75607845775743     -3.59426706967575      2.67620099595365
  H   -5.71221812502797     -4.40919227702491      1.42729933578713
  O   -1.75427952614078     -2.08379592275995     -1.71996662176190
  C   -0.54595657911926     -2.18537654584703     -2.46649497716143
  C   -0.43251889086327     -0.95522088430882     -3.34548512753310
  C   -6.11879805839795     -2.44110814941376     -1.12847082346006
  H   0.31410896573462     -2.25895512897207     -1.77476572035049
  H   -0.56074795862146     -3.10812598204540     -3.07665354610220
  H   0.49229750753187     -1.00024179068305     -3.94147749123537
  H   -0.40948268028856     -0.04005453098493     -2.73405901250011
  H   -1.28856764092261     -0.88895844662182     -4.03450346528945
  O   -7.72360354906080      1.80473751943174      1.38199378787323
  C   -8.58027501801183      2.78983899198583      1.94532857852145
  C   -8.54949028330803      4.01333896319133      1.04896096954137
  H   -7.52810409706984      4.41796418387640      0.97428988984523
  H   -9.20438042854208      4.79878910793235      1.45774454543306
  H   -8.89826878433779      3.76505759101428      0.03449384090084
  N   -0.99188839052355     -6.36189282158615      0.54695340288042
  O   -1.40934333607013     -7.16977529133531      1.36343555920757
  O   0.04275380563738     -6.49048855681935     -0.09169639409477
  H   -8.88236430689405      0.95257548415597      3.70588557702781
  H   -9.60850067252543      2.39046924401393      2.02813219014066
  H   -8.24028640670569      3.04441545277365      2.96662259267873
  C   -7.98400662852887     -3.90311160076110     -1.96237282774514
  C   -7.19340561083326     -3.22087543764107     -0.92612071950232
  H   -5.72675956735726     -2.28010956604570     -2.13720649089225
  H   -7.53230089921654     -3.34012408024428      0.11092051560034
  C   -8.72495082700413     -5.06817891103701     -1.63093805023288
  C   -9.50724969643487     -5.71232068644416     -2.59658964912958
  C   -9.53703791216798     -5.20207711386151     -3.88937163040894
  C   -8.81507371242583     -4.06481740386838     -4.26140180312879
  C   -8.05156144662210     -3.42946670141111     -3.28875948104386
  H   -10.07322006763211     -6.60610849007054     -2.33825413150199
  H   -8.87544206657834     -3.69597627850564     -5.28422455585701
  H   -7.50784260487442     -2.51948095587854     -3.55093454025074
  O   -8.71373297631641     -5.61667142465855     -0.39324421168736
  H   -8.05693896549615     -5.17842440591160      0.16316771018405
  N   -10.36493240411885     -5.89133169394633     -4.90333283316774
  O   -10.37045543422685     -5.42836477172675     -6.03308163732326
  O   -10.98934950694043     -6.87808148730878     -4.54889165132247
