70
Coordinates from ORCA-job 1036_0.0
  C   -1.96993197872078     -2.98018269737776     -0.90716163814545
  C   -3.21296837593650     -2.84468751390034     -0.22086518484495
  C   -3.64269512752282     -3.83052791571867      0.67962510065540
  C   -2.85283419011189     -4.96961431172614      0.88405443909627
  H   -3.15813793088383     -5.75524062886917      1.57566879232734
  C   -1.65053880116730     -5.09217502418648      0.20230839035813
  C   -1.19035060170066     -4.11311444304692     -0.68944544247557
  H   -6.90119807316519     -3.08977295487266      3.52482401301362
  C   -7.09651287822313     -2.10877274875612      3.08858832137147
  C   -8.01888396550182     -1.22984414534719      3.66989256417305
  H   -8.55406029685181     -1.53866267869545      4.57211824645932
  C   -8.27948967483068      0.03250797772727      3.13081566387662
  C   -7.60022735841341      0.45519702055494      1.96500744698914
  C   -6.70078127891894     -0.41902735286965      1.34653294096361
  C   -6.44018290736243     -1.67220324796971      1.93044990189781
  C   -4.93457016100564     -3.64883041355142      1.44916513272211
  C   -5.29817473454651     -1.70842033668722     -0.10273693753344
  O   -3.91449549033963     -1.71676333758514     -0.47674137272296
  C   -5.76279282756132     -0.20602459831546      0.15697483953955
  N   -5.48096636517217     -2.34225983378728      1.18674059875402
  C   -6.41377981570472      0.44047198641150     -1.07531304131286
  H   -7.33019424752470     -0.08321352252653     -1.38274507924527
  H   -5.71313381051572      0.44401205282213     -1.92597662162735
  H   -6.68320481543922      1.47989699408941     -0.84677870264734
  C   -4.56111584180016      0.64931852901281      0.61619464011171
  H   -4.03658684699770      0.18119447465423      1.46208232213822
  H   -4.93048425987309      1.63374217519561      0.94057245686880
  H   -3.83664984608533      0.79029010536590     -0.19929595165466
  H   -0.23798795766419     -4.27323722703596     -1.18883267745269
  H   -4.72285292366678     -3.73024923008820      2.52972307241089
  H   -5.63669438040864     -4.47425194113398      1.20329968835938
  O   -1.64968636610200     -1.96727472468405     -1.73792115394252
  C   -0.41159699795793     -2.00516186241040     -2.43851292316824
  C   -0.30243686517774     -0.74078961322279     -3.26830493203420
  C   -6.06333406282989     -2.39235398706885     -1.22631816810569
  H   0.42357888165173     -2.07839326382846     -1.71671775835953
  H   -0.37294095642210     -2.90495996581610     -3.08137889291638
  H   0.64526022015241     -0.73661005998015     -3.82909632965986
  H   -0.33086168918648      0.15151603538819     -2.62420544236429
  H   -1.13377558328365     -0.67388970847401     -3.98693978962471
  O   -7.76048503542649      1.68255135321806      1.40106967301628
  C   -8.65419807210157      2.62285751192316      1.98246643231923
  C   -8.60167445057413      3.89636458599142      1.15973331622017
  H   -7.58345318564841      4.31551444768158      1.15279458582322
  H   -9.28410977020513      4.64980813777407      1.58342963363604
  H   -8.90261025334542      3.70283316148750      0.11838918458156
  N   -0.82032541203632     -6.28626715264949      0.42399116676756
  O   -1.22678900800877     -7.12351991639250      1.21636096354009
  O   0.22939057439804     -6.37121640392357     -0.19813696426722
  H   -9.00434549017580      0.68244333827353      3.61912897137518
  H   -9.67962909184400      2.20794357223702      1.99735962469441
  H   -8.36198037510243      2.82126672342236      3.03066333944579
  C   -7.99130182159767     -3.86903751179959     -1.98845276746748
  C   -7.13338555544025     -3.18065187826379     -1.01845956972668
  H   -5.71130033848469     -2.16908327867867     -2.23308069031320
  H   -7.41182179376148     -3.33985323268439      0.02981485090907
  C   -9.28903974896549     -4.28053977367950     -1.57824625172817
  C   -10.12187706111432     -5.03139000371021     -2.41655839704869
  C   -9.65735617288140     -5.35391649222541     -3.68418657231296
  C   -8.40779408695814     -4.95211261747787     -4.15309052346681
  C   -7.58406710311214     -4.20766946579744     -3.30631992432448
  H   -11.11041822349534     -5.34015326466336     -2.08247366175066
  H   -8.09714176760315     -5.22548117857408     -5.16215878105747
  O   -9.78716848433760     -3.97319534412103     -0.35855909414780
  H   -9.24602927225455     -3.29722420074677      0.07213338318839
  N   -10.52563387787602     -6.14309205908448     -4.58494955010354
  O   -10.09543479049167     -6.39858640243026     -5.69962908046909
  O   -11.61500025435193     -6.48999466876505     -4.16027385578253
  O   -6.35813460806628     -3.79786802975475     -3.71367539072530
  H   -6.17824428636448     -4.14552801827600     -4.59784458307338
