70
Coordinates from ORCA-job 1036-2_0.0
  C   -2.25409929836866     -2.95792203371449     -1.15425176591420
  C   -3.40717108221098     -2.79727004589879     -0.33108311389548
  C   -3.74318653762413     -3.76878331429640      0.62557286157285
  C   -2.92768469094284     -4.89762210235846      0.77559573690434
  H   -3.15643093493745     -5.66790296256499      1.51259513781695
  C   -1.80089226309166     -5.03356011880106     -0.02412033366744
  C   -1.44661457234027     -4.08128148526603     -0.98927166095751
  H   -6.66157972193202     -2.97497942541832      3.79332545539666
  C   -6.91138288202026     -2.00392191952833      3.36271472499559
  C   -7.79666496893817     -1.13371861360318      4.00885936335574
  H   -8.24839503605991     -1.43868349995755      4.95690884200254
  C   -8.12590560989984      0.11660171081462      3.47762146628967
  C   -7.55864681631411      0.53326783671315      2.25239792546156
  C   -6.69960550561450     -0.33506302138192      1.57126920380164
  C   -6.36365467353067     -1.57305955312210      2.14866084872705
  C   -4.97505666872135     -3.57908723917236      1.48713734631550
  C   -5.44352267628904     -1.63052102536596      0.01387218339782
  O   -4.13276050479182     -1.67334073332242     -0.54403138953952
  C   -5.88202240701286     -0.12974245421370      0.29410824522822
  N   -5.43559502017209     -2.22313855926705      1.34466563147576
  C   -6.64687253043399      0.48924485265572     -0.88432395590261
  H   -7.59019620686676     -0.03618651715311     -1.09239510154582
  H   -6.03151089263376      0.45698828824930     -1.79780078562458
  H   -6.88641631524365      1.53751207690044     -0.66173671232932
  C   -4.64087702831361      0.72998129640046      0.62194802560191
  H   -4.03865228741032      0.27239744132731      1.42044428876653
  H   -4.97335231372932      1.72174674016191      0.96316112213915
  H   -4.00043553391120      0.85328762245153     -0.26391476795756
  H   -0.55374159732933     -4.25297948008286     -1.58549543290792
  H   -4.71255505278549     -3.75969123907942      2.54265058575308
  H   -5.74833404468192     -4.33190242072670      1.21601010471382
  O   -2.05192918059136     -1.98334484612084     -2.06636785466588
  C   -0.91289852403995     -2.05034460027386     -2.92056040877379
  C   -0.92963223799211     -0.83331632695779     -3.82414249012589
  C   -6.41078206764425     -2.37470599668736     -0.89129086184115
  H   0.00757545212849     -2.07750327089323     -2.30817012224653
  H   -0.94519485306583     -2.98402311531384     -3.51318805343992
  H   -0.05839264158059     -0.85197722992831     -4.49726875914843
  H   -0.89301372228431      0.09314652845198     -3.23081705433584
  H   -1.84296438239275     -0.81451448872522     -4.43853309310848
  O   -7.79288186857152      1.74679591282278      1.68320617730286
  C   -8.65378452841299      2.67914040323333      2.32199081486989
  C   -8.69564981815275      3.93907170470055      1.47762129293969
  H   -7.68987991283775      4.37633914587180      1.37907813230266
  H   -9.35531517987218      4.68736937881008      1.94433648618970
  H   -9.07756696344236      3.72134475455477      0.46807328510980
  N   -0.94056932268166     -6.21629555675555      0.14336687224105
  O   -1.27104283163406     -7.04580236145173      0.97752814681490
  O   0.05432758458559     -6.29825302434713     -0.56285047625259
  H   -8.81920813203469      0.76025478390511      4.01764172866047
  H   -9.66592147843887      2.24525614161605      2.42935149277339
  H   -8.28002832281993      2.90194124493843      3.33899364615210
  C   -6.95657686376785     -3.53193001616994     -3.08689200826913
  C   -6.10921675385201     -2.81755888244504     -2.12536957174927
  H   -7.40267074569904     -2.53141172143573     -0.46479637938169
  H   -5.09643824405445     -2.58616154303577     -2.47676860128767
  C   -6.33064893684417     -4.27128648386162     -4.12748967775047
  C   -7.07191738016831     -4.89050806758681     -5.14105774567686
  C   -8.45527293943413     -4.78543029290254     -5.09760087810375
  C   -9.12719993192901     -4.10126507256473     -4.08571551749012
  C   -8.37607116705185     -3.48278405092101     -3.08433156000407
  H   -6.57277127600437     -5.44867118043689     -5.93067404419167
  H   -10.21693857037135     -4.05892925092281     -4.09633686629839
  O   -4.98738721735316     -4.41403236008547     -4.19350976249613
  H   -4.57706613621510     -4.11607736894218     -3.37015335701562
  N   -9.25555946847561     -5.43399017406895     -6.15889218963358
  O   -10.47147977549537     -5.33979778261291     -6.08342738079944
  O   -8.65400970285877     -6.01979439852783     -7.04344186752002
  O   -8.98408100981367     -2.79738587573834     -2.08364634532600
  H   -9.94025527468375     -2.79392476057059     -2.22773922789861
