73
Coordinates from ORCA-job 1037_0.0
  C   -1.98614859488746     -3.13834882228345     -0.75848075399195
  C   -3.22129896060485     -2.93591633892890     -0.07459121127276
  C   -3.65391447422270     -3.84444463684607      0.90288582960831
  C   -2.87723057381857     -4.97587803001375      1.18519469732289
  H   -3.18642353683603     -5.70557334349103      1.93405238002521
  C   -1.68388289980575     -5.16573644527529      0.50322130186010
  C   -1.21843446007530     -4.26146392123764     -0.46178945315526
  H   -6.86909065153491     -2.81522522289882      3.71055291016381
  C   -7.08095939984558     -1.89080689192514      3.17042020492361
  C   -8.00515447101515     -0.96308700043125      3.66569859793060
  H   -8.52133153407099     -1.17456418264547      4.60625406210201
  C   -8.29402214071976      0.22569227893652      2.99110983586796
  C   -7.64003043475254      0.52164554847217      1.77363700516168
  C   -6.73250966296991     -0.40200746043901      1.24671412839153
  C   -6.45186119474344     -1.58127312192726      1.95866237285858
  C   -4.93497330544861     -3.58510475208914      1.66885057511666
  C   -5.31360079807302     -1.81746016498142     -0.06935696556070
  O   -3.91944084510354     -1.82887316392389     -0.41475141679972
  C   -5.81376324046199     -0.30715542142495      0.02803947959099
  N   -5.50110461581963     -2.32416622349627      1.27372314548385
  C   -6.49384634887936      0.17722140939036     -1.26154179762729
  H   -7.40365572487141     -0.39580168068425     -1.49119376151347
  H   -5.80302235194248      0.09319664879662     -2.11627536199196
  H   -6.78088318076339      1.23152493119739     -1.15464045270664
  C   -4.62974821697593      0.62596280825254      0.36826518057294
  H   -4.07953940158571      0.27013946716285      1.25149636757780
  H   -5.02256765802079      1.63036189994913      0.58623659313721
  H   -3.92197633719517      0.69233195972389     -0.47091887615812
  H   -0.27407933491438     -4.47267872784642     -0.95731428004003
  H   -4.70621047901038     -3.54737227202699      2.74872849680173
  H   -5.63112216829407     -4.44284465188982      1.53240250345245
  O   -1.66395751523626     -2.19752647737040     -1.66887424827893
  C   -0.44767760955080     -2.31883896135564     -2.39773554453246
  C   -0.34314636802993     -1.13369317029764     -3.33778460755702
  C   -6.02851319999296     -2.64188438723181     -1.12953488687967
  H   0.40707427268176     -2.34434110743711     -1.69585318517366
  H   -0.44292782190117     -3.27149486920975     -2.96029753707528
  H   0.58895983783278     -1.19436727460442     -3.92095357748693
  H   -0.34157157108834     -0.18811335086752     -2.77400747956973
  H   -1.19248976487840     -1.11647444467980     -4.03799928568132
  O   -7.83334719369212      1.67179175557689      1.07204892075054
  C   -8.75437996197905      2.64536934878426      1.54401991892181
  C   -8.76322333768598      3.80324040502921      0.56389409323732
  H   -7.76206960981093      4.25473869234498      0.48382444647412
  H   -9.46797351902118      4.57962102998688      0.90091777448255
  H   -9.07157306579653      3.46634412943547     -0.43808579438175
  N   -0.87179016855624     -6.35630868495267      0.79950755064881
  O   -1.28997066919036     -7.13602515560054      1.64290770148923
  O   0.17451379409707     -6.49717452354048      0.18211681696566
  H   -9.02266724096069      0.91602552473696      3.41401424575066
  H   -9.76254924116140      2.19846784348647      1.63115754281437
  H   -8.45619452399252      2.98945611461630      2.55233870671517
  C   -7.85697244026743     -4.17450626595065     -1.92051854462624
  C   -7.09223724585879     -3.43056709653099     -0.90457006261360
  H   -5.62330430100854     -2.53217292384203     -2.14018263253156
  H   -7.44971793747310     -3.50745434314686      0.13078847870897
  C   -8.51797778122717     -5.39738845038587     -1.55342696186616
  C   -9.27465501721776     -6.09554604090114     -2.47482324042611
  C   -9.41311971496456     -5.63657371965440     -3.80928868867939
  C   -8.75024692102374     -4.42290011538418     -4.19903051206976
  C   -7.98957065985665     -3.72461462151706     -3.22824252475837
  H   -9.75672664907208     -7.02313406907498     -2.15790610331251
  O   -8.41877665902491     -5.90524671873098     -0.29620375374734
  H   -7.74435219295164     -5.42513383200678      0.20070274073746
  H   -7.51753689029280     -2.78141647540825     -3.51568408239373
  C   -8.88857468597621     -3.95738917743105     -5.53846626620869
  C   -10.18285088219018     -6.33654813555091     -4.78253501612752
  C   -9.64047375951739     -4.65905545139786     -6.45651315020857
  C   -10.29258931636342     -5.86061789877648     -6.07246055333690
  H   -8.38439371076584     -3.03049258536378     -5.82761810806740
  H   -9.73775574881275     -4.29406156562325     -7.48224446449978
  H   -10.88711024579158     -6.40959066864327     -6.80781516811606
  H   -10.68724576516703     -7.26126675670397     -4.48835429462217
