42
Coordinates from ORCA-job C:\Users\AIElement\Documents/105_0.000
  C   -6.36509010450461      2.63077741117490      1.22922700901897
  C   -6.85053881428258      1.77655778021434      0.22096242523891
  O   -2.76939792148899      2.02457018177938      1.14748413913897
  H   -7.08120652485999      3.24194306971720      1.78249991896908
  C   -5.00549338639814      2.69366249529437      1.50553929856294
  C   -5.94418722961260      0.98506387131269     -0.49721015529478
  C   -4.10740396584308      1.90047069271145      0.78056863479413
  H   -4.61648696173927      3.35618829320614      2.28139081619660
  C   -4.57188995486679      1.04036637416175     -0.21224869271367
  H   -3.88641145944250      0.40252441801485     -0.76999327986934
  O   -8.19398725420616      1.78711336371582      0.02265464469920
  H   -6.28493696704555      0.30846372370209     -1.28111021715241
  C   3.81670555024283      2.76440135971902      1.39514017944981
  C   2.43070351261817      2.68172364974726      1.28057496506508
  H   4.49967287559276     -0.49169123799350      2.18919859256204
  H   4.33191130868573      3.71470441546458      1.24068477896655
  C   4.58443618629583      1.63397144933094      1.72156797452689
  C   1.79849506055415      1.44790311398130      1.48016027806008
  C   3.93672572433493      0.40593792432244      1.93250442795249
  O   5.92588385191499      1.82512929751966      1.81271237829017
  C   2.54695429622265      0.31963689032209      1.80859396969282
  H   2.02966390130418     -0.62952611301061      1.96249399946968
  H   1.85419234511707      3.57571577957303      1.04357045061770
  O   0.41925334998406      1.26060182472017      1.40329986365645
  C   -8.74808456825669      0.96397801027062     -0.97827139511000
  F   -1.73546289132008      0.17618037514637      0.33846758043685
  F   -0.50495177807878      3.32987263747523      1.37562321795725
  C   6.75929869847616      0.73132618955376      2.12179920332528
  H   7.78839894598121      1.11571141284685      2.13706983320715
  H   6.52530796925624      0.30051247905908      3.11287244447349
  H   6.68826176220104     -0.06864511640949      1.36182706971859
  H   -9.83261489923536      1.13891951478421     -0.96372303119914
  H   -8.35870529269543      1.21685125334968     -1.98175439864830
  H   -8.55684912548931     -0.10755643194169     -0.78404396210201
  C   -1.60691513671631      2.10023816331640     -1.09822547134861
  C   -1.77832176046522      1.54144133222765      0.36705071437193
  F   -2.30388424254978      3.22602096571557     -1.31101275263334
  F   0.70131915828994      1.46053993363155     -1.34504205068252
  C   -0.10030475428172      2.38782465625300     -0.79890909306335
  F   0.32591415405235      3.61079637163586     -1.13347933920403
  C   -0.36636622428730      2.13146643117627      0.73326200962020
  F   -1.83049743345796      1.23462179320757     -2.09490697901786
