90
Coordinates from ORCA-job 108_0.0
  C   -0.78065981001784     -1.49531054796878      0.53525780788109
  C   -1.34602110049929     -0.50156042824931      1.35801159148873
  H   -1.61889073970138     -0.75742232020090      2.38408263800497
  C   -1.57145166456319      0.78617142413838      0.88360965360094
  H   -2.00412874982515      1.55875423822712      1.52302148497975
  C   -1.25392654323078      1.11823033379962     -0.44478464852308
  C   -0.71118988398925      0.13241840381088     -1.28479188939611
  H   -0.46725253748113      0.35091827000668     -2.32450222512600
  C   -0.48315328679114     -1.15488395027307     -0.79147527944342
  H   -0.06769853382375     -1.90656657040452     -1.46298700092490
  O   -1.51036191199555      2.39635272807733     -0.82390703918630
  C   -1.24812114111550      2.80363279554791     -2.15655744828878
  C   -1.65523694750413      4.25920917211026     -2.29233432363255
  H   -1.81662260575576      2.17155122838588     -2.86560545145547
  H   -0.17332336436611      2.67366501330211     -2.38813946156559
  H   -2.72665228560739      4.38477501080056     -2.07201287090011
  H   -1.46558862415570      4.61523340050117     -3.31723484839684
  H   -1.08478837419512      4.88935687892688     -1.59233513977984
  C   -0.68319420571276     -2.87767899355262      1.06783050572590
  N   -1.74318247584113     -3.47198782211027      1.56024408531221
  C   -1.37969395409892     -4.73958784575109      1.94762765493758
  N   0.41955857010247     -3.73261349684870      1.10783226586524
  C   -0.03121967531539     -4.93472866453608      1.67825737585112
  C   -2.40099447905227     -5.64139730351837      2.52432394577531
  C   -2.10163664329242     -6.86639665307473      3.15323474195362
  H   -1.06820112344965     -7.19866315471001      3.24367493687427
  C   -3.11786355123374     -7.66674893158577      3.68174744535106
  H   -2.85791279892919     -8.61209602171164      4.16665702752838
  C   -4.45466134177792     -7.26643166705480      3.59979462518005
  H   -5.24712867857852     -7.89611869116009      4.01368499490510
  C   -4.76503065594913     -6.04843383715872      2.98537215515058
  H   -5.80598194458938     -5.71935831503345      2.91631424414024
  C   -3.75343874900591     -5.24661732953568      2.45655693118791
  H   -3.98764516661182     -4.29380705808266      1.97953965590077
  C   0.79589759389925     -6.15593087689401      1.87234791109317
  C   1.58641595718614     -6.33454499569510      3.02141033887866
  H   1.65263791724599     -5.52648332682964      3.75047794850550
  C   2.28629085633601     -7.52660841622856      3.22621014993444
  H   2.89340189297348     -7.65048103426870      4.12736668880712
  C   2.20702763302534     -8.56031045817425      2.28726498370965
  H   2.75155608691949     -9.49449014563889      2.45097515139933
  C   1.42317817362231     -8.39505194779317      1.14099892326671
  H   1.35229224724024     -9.19894395255953      0.40324780523477
  C   0.72192772854994     -7.20420032295990      0.93750528235925
  H   0.10283892202429     -7.07980610595279      0.04619754945176
  H   2.38310747685825     -5.60741032497565     -3.18102511063157
  H   6.23109469412857     -7.87307254835734     -4.43315379358554
  H   1.20529209243255     -4.06946496444447     -1.61145275163397
  C   2.74788798741437     -5.45755918715116     -2.16264683945797
  C   2.09855318006873     -4.60374532872630     -1.28163013300972
  H   4.10200670710553      1.79474568788182     -2.00462966322204
  C   3.83242204137849      1.58061706765646     -0.96697329099594
  H   6.45183762466866     -7.02347213192807     -2.06628181898808
  C   3.83832346474645      2.60633952996427     -0.01452276398131
  O   4.47011047494651     -6.96119100438174     -2.68467630455704
  H   4.11183540206106      3.62400153512426     -0.30605851630841
  C   6.02202589644456     -8.52804106517039     -3.57320692349880
  C   3.47957785297014      0.28300326725392     -0.59621035269357
  C   3.90470595139139     -6.15096781663027     -1.75721432018393
  N   2.02887482254927     -2.11051739452179      0.29670542648347
  H   3.46085481798772     -0.52307078399718     -1.33236885692782
  C   5.63244110335757     -7.70834839448655     -2.35752361480937
  C   2.57228620893241     -4.42341634940169      0.03029289299969
  C   3.49027516526796      2.32699699837785      1.31054535494892
  H   6.92429885648215     -9.12218941592012     -3.35943505789959
  C   3.14405226845486     -0.01110798931306      0.73879963329108
  C   1.85509255577197     -3.41261224522810      0.93843666216534
  H   5.35015524062762     -0.73355375327897      2.45298151221075
  C   2.73351558258238     -1.38674079674811      1.09129701029031
  C   3.15086643466441      1.02608098455082      1.68919413045869
  C   4.38887102266890     -5.96951780884924     -0.45318235173982
  H   3.47950723108802      3.12707690428091      2.05519966847454
  C   3.72051195723238     -5.11048067866910      0.42754806587502
  H   5.20974708481674     -9.21597737738306     -3.85458201311762
  C   4.98328101333887     -1.02961715806029      3.43758472200168
  H   2.86808499369232      0.82155856565121      2.72324367436024
  N   2.48296994686426     -3.33758335390154      2.26177957705594
  H   6.65802353837942     -0.14752743731518      4.47446620792937
  C   3.01353761643174     -2.17129016913299      2.35908633120550
  H   5.27469018009766     -6.49951871425163     -0.10303134975713
  H   5.42684902022166     -8.36444146572252     -1.49041286327099
  C   5.72222825283432     -0.70299320694273      4.57741260929540
  H   4.09317032848093     -4.99526385589809      1.44579310974903
  C   3.78397783008462     -1.75574641457995      3.55256805826978
  C   5.26754725482777     -1.08394487563386      5.84352431639262
  C   3.34185700325349     -2.14758045287862      4.82994207469369
  H   5.84288618905618     -0.81935836620667      6.73471392497589
  C   4.07494626806375     -1.80615161174415      5.96687895578176
  H   2.41418350413684     -2.71698486714371      4.91610137018367
  H   3.71566583006742     -2.10619894388529      6.95471252756135
