36
Coordinates from ORCA-job C:\Users\AIElement\Documents/109_0.000
  C   0.93357626421122      1.63674152608354     -0.27541947995602
  C   -0.14264844943891      0.91987688215061     -0.79947188736466
  O   -1.17453456379684     -1.13332117506210     -1.40282459369426
  C   0.94694529472263     -1.18148421974398     -0.21464701105403
  C   2.02636588748314      0.95507132402876      0.27146100612311
  C   -0.14906573875961     -0.47943851048671     -0.77057719785982
  H   2.87635975890439      1.50890604703431      0.67683080807878
  H   0.92273321315704      2.72928594480394     -0.30467077109847
  H   -0.99159618089441      1.42893657585230     -1.26107729078727
  H   -3.44380422269171     -1.64480490054710      1.02261079282632
  C   0.98843321806114     -2.64342741925459     -0.16712175670742
  C   2.03147498528627     -0.43754156180822      0.29314485187831
  H   2.88228713307074     -0.97713557835801      0.71228862293762
  C   -2.32633602509250     -1.59222012505279     -0.78458082001635
  C   -2.43639215415093     -1.35376987239808      0.70143373032457
  H   -1.69322085603819     -1.97525692922824      1.22283436451217
  O   -3.15286000932009     -2.12223797377310     -1.46384758519718
  H   -2.24736691973660     -0.30164548396753      0.96241032908074
  N   0.00281377077382     -3.48882180722152     -0.20909844190276
  C   1.98031871718761     -4.56331662634421      0.01859431645965
  O   2.22859880163722     -3.22179272075537     -0.02301913451857
  C   0.02099636439203     -6.02061043396079     -0.08742661008810
  C   0.59207068725283     -4.73971099989996     -0.09853777191681
  C   2.87328742023228     -5.62139693127802      0.14512981682539
  O   0.54863195048848     -8.42997699637125      0.03090243805715
  H   3.95036103738541     -5.46911689653563      0.23043732869941
  C   0.91159321973496     -7.09045108201536      0.04128234701411
  C   2.30760715714799     -6.89630191790172      0.15497423827218
  H   -1.05240420931654     -6.16417567936837     -0.16746494606202
  H   2.93745038208648     -7.78312305052634      0.24698798569024
  C   -0.70700849654302     -8.91241128741950      0.25710429940553
  H   0.05152511518680    -10.83904892299732      0.85024398390720
  H   -1.69286496377380    -10.80595193566810      0.39311584690553
  C   -0.69433976653695    -10.41772695053049      0.15896826137913
  H   -0.40355839339935    -10.72144128074358     -0.85926674960557
  O   -1.67034942891303     -8.23413903073520      0.49241667945216
