49
Coordinates from ORCA-job C:\Users\AIElement\Documents/110_0.000
  N   -0.32715051810821      0.68748484960779     -0.55450134838149
  C   -1.35463687113508      0.02450198808927      0.11894472164266
  H   2.06643456863272      3.12239375162983     -0.69232240546600
  O   1.85248565175172      0.22624516273386     -1.16870552396869
  C   0.81235344469220     -0.11034934129672     -0.64826381996073
  C   -0.82748929702434     -1.34920467042404      0.44751567311155
  H   2.76409588521390      4.84628793242019      0.96467344864306
  O   -2.44426572304400      0.49916665715936      0.35244359556027
  S   -1.63127466241185     -2.56329156667517      1.41143694792451
  S   1.53928191094679     -2.77014823384313      0.26625608961300
  C   -0.42175631071672      2.05488350075165     -1.06390353887569
  C   0.45793103161706     -1.42940915250804     -0.00612338719779
  H   -1.27831589842420      5.02729759404252      2.46905697686142
  C   -0.00025124157628      3.11171758194400     -0.05940764435615
  H   0.21267593813971      2.10392534372436     -1.96013100198544
  H   -1.46786659197766      2.20817776332727     -1.36459495871650
  C   1.33238780957818      3.54860874373665     -0.00290872728680
  C   -0.54202630208591      4.61304769016861      1.77490301593786
  C   -0.93368177468215      3.65086492720122      0.83963626561647
  C   1.72371134842212      4.51148397843689      0.93193821652513
  H   1.09218946383189      5.80103990928551      2.55199138108892
  H   -1.97042153139257      3.30453496833066      0.80847360296976
  C   0.78693000984440      5.04630697147567      1.82213899009425
  C   -3.40431590259774     -2.38776207897670      0.93500314292913
  C   2.72453905619870     -2.66825517762963     -1.14176849419793
  C   -4.23644638410047     -3.20530334537218      1.91087099389854
  H   -3.68044172904932     -1.32717606368658      0.96879977890799
  H   -3.53881611983861     -2.76515919587582     -0.09004582806813
  H   -4.14776177610919     -2.81975973374625      2.93967790185977
  C   -6.51589776863476     -3.78240807193234      2.19704169389674
  O   -5.59444208510897     -3.10837797494721      1.46943538776995
  C   3.69626948397123     -3.83163674983881     -1.01465176005065
  H   2.16788517715957     -2.73803505015626     -2.08794346871035
  H   3.24865899505309     -1.70582560967719     -1.11408016133239
  O   4.58241659828570     -3.74259618001276     -2.13404917538281
  H   -3.92896711346578     -4.26446539763365      1.93212803760196
  H   4.27292877442931     -3.77965857776360     -0.07613798380784
  H   3.17879162384106     -4.80530797947482     -1.02564031523965
  C   5.53087226481274     -4.70370203459680     -2.23289318411863
  C   -7.89869628713373     -3.59838413075083      1.62187010854927
  H   5.76837778867454     -4.43757410229354     -4.35531483566173
  O   -6.23474627709656     -4.43615377051844      3.16900533115083
  H   -7.92848321183426     -3.97889757302092      0.58880815541868
  H   -8.62771089782306     -4.13545568376853      2.24047943306715
  H   -8.15105038995355     -2.52744767420365      1.58100864926096
  C   6.39422338839596     -4.48562159936194     -3.45086647235412
  H   7.12259846904821     -5.30099127409207     -3.53602475275474
  O   5.64441444023286     -5.59784622421689     -1.43374179385388
  H   6.91914954255133     -3.52082509577065     -3.36787695817171
