78
Coordinates from ORCA-job 112_0.0
  C   -4.66814937698175      2.26993360992481     -0.86659120191738
  C   -5.58251376070981      2.73339469551426     -1.81844089538135
  H   -6.33822686156595      2.05462580114183     -2.21856059404065
  C   -5.52007191054951      4.06780582020999     -2.22748006830464
  H   -6.22972056699938      4.44433181819502     -2.96744610322147
  C   -4.55971451791002      4.92566312402016     -1.68303437874772
  H   -4.50513835664502      5.97542944707604     -1.97788181239377
  C   -3.66403029472362      4.42745116872029     -0.73246564539370
  C   -3.69856242831252      3.09975200753557     -0.30298971656965
  H   -3.00708014720393      2.72899710261516      0.45589039486827
  C   2.22329841130515      6.08041876474659     -1.39776502995625
  C   2.33094665830401      7.24453352711080     -0.61669856629405
  H   1.42017174549658      7.76770680500617     -0.31976456752039
  C   3.57090428006641      7.74180330598347     -0.21625678882063
  H   3.61005991699338      8.65275421786569      0.38153402479195
  C   4.74492027144499      7.06680771064528     -0.58991129910911
  C   4.65113266270361      5.89960419180833     -1.36905910276600
  H   5.57286802275381      5.38297891187291     -1.64389903873261
  C   3.41266812399057      5.41586943983847     -1.76795464911216
  H   3.37419882987111      4.49984220537076     -2.35753571296410
  H   -0.75116698285915     -6.12183506957310     -2.66923648702542
  C   -1.62853241597448     -5.57919474775199     -2.31166804509737
  C   -2.58137024173594     -6.27619649329056     -1.54736145027512
  C   -3.71237915593862     -5.59401369276087     -1.06854206048942
  H   -4.47324656184676     -6.10663271870756     -0.47960347948549
  C   -3.87306727841086     -4.23870737370539     -1.35249149624617
  H   -4.75021589596701     -3.71029814772823     -0.97482258666747
  C   -2.92879428431200     -3.52964937285790     -2.11637760030448
  C   -1.79892082202915     -4.22983862254187     -2.59204175748705
  H   -1.03239035282454     -3.71546033211797     -3.17151483732794
  S   -2.44161835199735      5.52371941407738     -0.02320224289878
  S   -4.77458778468448      0.57710815372734     -0.30293152571783
  O   -2.87604102351798      6.90491169643507     -0.16191670226352
  O   -1.95845521813966      4.98414518442998      1.23611497278127
  O   -6.14358738751010      0.10140621451953     -0.42740419869237
  O   -4.00348388322787      0.41605586344512      0.91758005893004
  O   -1.27684183349372      5.22166048422697     -1.22732745597882
  O   -3.88509974125004     -0.08439842838832     -1.59922864764062
  N   -0.03992999144596      5.72238299882885     -0.83983457607338
  N   -3.69370444631253     -1.43896273752612     -1.35418141587456
  C   0.87819898913073      5.55252505383007     -1.72294239546306
  C   0.57950110846099      4.85794435970275     -3.06284542494127
  F   -0.41347275780825      5.48223905571540     -3.70896400409200
  F   0.22619978584973      3.57945229880606     -2.87911247470602
  F   1.64211318092289      4.86750163349575     -3.88152775646237
  C   -3.11946814447213     -2.07314663451615     -2.31242027618192
  C   -2.69016109622030     -1.36103882172980     -3.60590986581732
  F   -3.73280528521677     -0.74459593754575     -4.17758072261372
  F   -2.20183158352622     -2.22141428665402     -4.51273489690112
  F   -1.74137091777570     -0.44763891489764     -3.36649102749068
  O   5.99521777729160      7.45944177736704     -0.25343645985764
  O   -2.32933854594704     -7.58746259233733     -1.32700708778776
  C   6.19076545199482      8.60825054115096      0.54939759629714
  C   7.69010328274180      8.74590274672254      0.74693735938730
  H   5.68579433620915      8.50067373516110      1.52688159773196
  H   5.78743694694803      9.51172348818757      0.05612727184307
  C   -3.19999992170807     -8.34769280102716     -0.51030319077108
  C   -2.61384234092067     -9.74586825565093     -0.42796810020163
  H   -4.21716049946500     -8.38716272781712     -0.94156257079109
  H   -3.27691960712189     -7.90914134651333      0.50145671898501
  O   7.89171718953594      9.90735111258608      1.55298515025857
  H   8.20623138131830      8.85352253567115     -0.22050848641140
  H   8.10499624061962      7.85459096611946      1.24441076674636
  O   -3.47796346753988    -10.49568543973987      0.42723467456043
  H   -1.59223924356442     -9.71980042224654     -0.01545203728718
  H   -2.55603522853774    -10.21249734806319     -1.42418863650691
  C   9.17575264790699     10.21767024005813      1.85395596224350
  C   9.24649966307958     11.45649037273244      2.71168335340586
  H   8.75793339445253     12.29966236148582      2.19910682697461
  H   10.29532165729392     11.69842529797636      2.92120770864983
  H   8.70294539910882     11.29055730686630      3.65510477580203
  C   -3.16537270807226    -11.80105929969580      0.61042584393821
  C   -4.14506878556098    -12.46643102163144      1.54480594578628
  H   -4.13274796851311    -11.96087611733534      2.52315757250255
  H   -3.87737722480500    -13.52299124935740      1.66515945479809
  H   -5.16756289088121    -12.37800432546411      1.14594826498943
  O   10.11290559932399      9.56566268129687      1.47125283256673
  O   -2.22002286238237    -12.32742597065160      0.08233802223763
