27
Coordinates from ORCA-job C:\Users\AIElement\Documents/113_0.000
  C   -2.09439125414168      3.82329985518074      0.07675376488637
  O   -3.37087762670056      4.10785711707576     -0.24346212160421
  H   -2.52955425778642     -0.43798251204432     -0.36769670722682
  H   -0.43694765370242     -0.61360245796659      1.07869010236386
  C   -1.65914642528947      2.50396934220861     -0.53302891756457
  C   -4.16657918865788     -3.92498769651336      0.25029003377345
  O   -1.63968937924667     -3.26802492663613      0.75743216791353
  O   -1.40230490305546      4.54377589793851      0.75394922809112
  C   -0.30380370122451      2.03465486383164     -0.00714401629798
  H   -2.45645150307025      1.76584562477960     -0.35392577885750
  H   -1.62265365266426      2.63587089595025     -1.62847795285710
  S   0.41089821359849      0.57673368357642     -0.85409224570337
  H   0.43857725215674      2.83579756231612     -0.14063009125012
  H   -0.34488642309695      1.83372514015278      1.07534086801540
  H   0.29567016732884     -1.67379074841875     -0.11940245283141
  C   -2.28734390615096     -2.51075575817035      0.07636902922177
  O   -3.57752242583170     -2.72174310383168     -0.24610943054221
  C   -0.39788371467771     -0.82780587623149     -0.00132624555007
  H   -1.73602653920436     -1.36079150494707     -1.63072651142970
  C   -1.77389236124479     -1.22107443528693     -0.53625473334269
  C   -3.88844107840674      5.34409501196979      0.25162858468171
  H   -4.92236309630282      5.41032352067937     -0.10986673231506
  H   -3.86697219484559      5.36528519272897      1.35221644895649
  H   -3.29803399040303      6.19475643108403     -0.12243082775145
  H   -5.20176456790306     -3.93231451287511     -0.11355741107780
  H   -3.62540964703545     -4.80906877975304     -0.12074902153855
  H   -4.14874614244128     -3.94509782679777      1.35094096983691
