38
Coordinates from ORCA-job C:\Users\AIElement\Documents/114_0.000
  C   -1.51228423917334      2.82194246727525      0.01437924158452
  C   -2.16638266885615      1.58312330938655      0.00415735486047
  H   -1.89293331527761     -0.56364719631895     -0.01553477417852
  H   -2.11845762782152      3.73036785550424      0.02323534261457
  C   -0.11919824606782      2.90341586871327      0.01329908433042
  C   -1.39326677794380      0.40605598010302     -0.00735821036359
  C   -0.00636391874483      0.47331026473026     -0.00826914278827
  H   0.35677880172340      3.88391195098334      0.02130687852481
  C   -3.65469916978618      1.57205183877597      0.00607593843972
  C   0.64355277747887      1.72241349782697      0.00207067486539
  O   1.99806518335955      1.68771514288362      0.00031034207351
  H   0.60471579457896     -0.43162657132441     -0.01708735868537
  O   -4.35177028423880      2.56223863843443      0.01757616869246
  O   -4.16230964835235      0.32095874750869     -0.00712932180393
  C   -5.58411569732671      0.21863363490093     -0.00693468736664
  H   -5.81446005206819     -0.85437974215896     -0.01775212311755
  H   -6.01253038356188      0.69181871322294      0.89035156754974
  H   -6.01395815458373      0.71003057175477     -0.89369581460290
  C   2.73309095967194      2.89368561757459      0.00822870981501
  C   4.21712964555190      2.60668828071511      0.00481978318592
  H   2.47169543087754      3.50656534084733     -0.87648803699252
  H   2.47362684863975      3.49348272502621      0.90254091856030
  C   4.72489966908091      1.30111010853799      0.00978196655023
  H   4.72997606109947      4.71332658039521     -0.00613663387044
  C   5.11385282260430      3.68819905212398     -0.00179021269771
  H   7.18103071039526      4.31733650928237     -0.00806536078661
  C   6.99698523955351      2.16287451554337      0.00216299136076
  C   8.46042346135705      1.86814251616938      0.00122662272760
  C   6.49009911431598      3.47329231020411     -0.00295146974528
  C   6.10344091790704      1.08271896315168      0.00835552357804
  H   4.03309810881423      0.45846763020734      0.01455868226524
  H   6.51008089024689      0.06926403122325      0.01211724249395
  O   9.21259416249886      2.98768575465247     -0.00409731867667
  C   10.62611826715786      2.79713772845775     -0.00521510563800
  O   8.93601184633117      0.75570167575705      0.00469842445371
  H   11.07071396341631      3.80041097693066     -0.00983661988253
  H   10.94776900197187      2.24071938141628      0.88878651295621
  H   10.94544050517025      2.23354532958191     -0.89554778028604
