78
Coordinates from ORCA-job 115_0.0
  C   1.01447394461588     -0.31001087454986      2.42951570074925
  C   0.15481548607208      0.80861898183814      2.24984752795516
  C   -0.60922189822692      0.90646300306575      1.07871801719782
  H   -1.26506649572043      1.77504886207732      0.95962270591492
  C   -0.54829440893580     -0.04417665473635      0.05475499827228
  C   0.29330956661898     -1.14249852256422      0.25179580384976
  H   0.34052039744776     -1.92262274388432     -0.51498708315330
  C   1.05702036996694     -1.30570219973948      1.41548853894608
  C   -1.34426225166329      0.12020875119835     -1.21768147923012
  H   -2.30622511126681      0.62383334780506     -1.03253403692864
  H   -1.55383314796719     -0.85104992277968     -1.69272638140883
  H   -0.79530541092429      0.73183546478365     -1.95621120190612
  C   0.02425101048211      1.91284979644505      3.27347873146973
  H   0.99422044128609      2.21824671555856      3.68410666875720
  H   -0.60394802994114      1.61004087618262      4.12920425018743
  H   -0.45011254369853      2.79723932495178      2.82308735119855
  C   1.86575342729300     -2.56992358096166      1.56731075936969
  H   1.80527114218587     -2.95589416831578      2.59565939864856
  H   2.93295228319951     -2.41548460942969      1.33311365865256
  H   1.49565007222289     -3.35055930099861      0.88634650555502
  N   1.79583113665703     -0.46339768304844      3.60749055783161
  C   3.25421728212943     -0.51576389684971      3.61180163926183
  C   1.27525397616389     -0.38449402520561      4.96484305077386
  C   2.38412963317787     -1.03912364805271      5.79757005202561
  H   0.32265444804322     -0.92869397777069      5.05045562800019
  H   1.10902418858822      0.64730500741596      5.32398415745808
  N   3.59088073268808     -0.73074725226794      5.02452879731707
  C   2.46303968972813     -0.50983641820700      7.22586043604351
  H   2.18991238185261     -2.12683583066053      5.87190556484953
  O   1.28983453626455     -0.90814129244902      7.89393909961081
  H   2.56236521509977      0.59544994731752      7.21419757721042
  H   3.36271427608688     -0.91725770289568      7.73188326356091
  C   1.21494516915698     -0.49995276824821      9.24106740133698
  C   -0.07477482292183     -1.02544338524053      9.84540732917942
  H   1.25426779933528      0.60830777476809      9.31027272415435
  H   2.09209191508215     -0.88200282362209      9.80633152203100
  H   -0.94659837765709     -0.63635954189476      9.29620715266065
  H   -0.16210135736502     -0.71988481155911     10.90018395381443
  H   -0.10426236830582     -2.12542869273433      9.79670136895034
  C   4.84101097423303     -1.36316884597472      5.34701496381301
  C   5.03221999052335     -2.76395787971135      5.20761682277682
  C   6.27767145724535     -3.32125677233197      5.52633689428164
  H   6.41333169409255     -4.40101209145800      5.40456816011950
  C   7.34853127230005     -2.54770138288283      5.98845073704291
  C   7.13937109289224     -1.17302972371544      6.12910741984241
  H   7.95752552022839     -0.54304072445062      6.49363450432997
  C   5.91245426340032     -0.56596450061869      5.82209082302138
  C   3.93734773839142     -3.70021374025652      4.74883104970784
  H   3.22577542729585     -3.22268246340664      4.06623117080085
  H   3.35425778590918     -4.08169507804688      5.60547419605231
  H   4.36485826122301     -4.57474822738072      4.23529330021072
  C   5.78671691440547      0.92698584346659      6.01249147035821
  H   6.21922291118236      1.47156349747485      5.15531268110374
  H   6.33895672327434      1.25236910618046      6.90820893452964
  H   4.74129593266141      1.24148613674154      6.10227164844711
  C   8.66984971393591     -3.18124532509586      6.35257793056913
  H   8.86642679268410     -4.08236786800060      5.75087246868694
  H   8.68402329659500     -3.48910150795671      7.41350922876761
  H   9.50836775751383     -2.48263714255432      6.20621223271778
  C   3.93198404018856      0.72879623871220      3.00903130097436
  C   3.79186570346441      2.02024133190178      3.52911208016904
  F   3.06164553862955      2.23019040130366      4.63614821358783
  C   4.40388722038257      3.13205772382668      2.95357120227532
  F   4.24314861690363      4.33353966086694      3.50695759570672
  C   5.18195014888605      3.00335061108703      1.78936218125757
  C   5.32818482831646      1.71644688047311      1.25216036106262
  F   6.04650209413979      1.53677192518226      0.13686909150034
  C   4.71684895031600      0.61520314951836      1.85658918132196
  F   4.90297354061535     -0.58140787981824      1.27931570329478
  H   3.61440399780793     -1.35649244217857      2.99643598897447
  O   5.70416553812605      4.11390848445340      1.22576656233577
  C   7.13078858459024      4.18925212099197      1.06404616615960
  C   7.46388139116279      5.57305888946337      0.54692907328953
  H   7.47176994638242      3.41053418165501      0.36241530505445
  H   7.61318306152417      4.00283864221201      2.04141704059627
  H   6.97555146113762      5.75240623478912     -0.42352582233971
  H   8.55239452351004      5.67385342603382      0.41211852158114
  H   7.12396099707758      6.34647758476269      1.25280190585017
