78
Coordinates from ORCA-job 116_0.0
  C   1.12465837459531     -0.24556031600524      2.43295442093889
  C   0.26684792714809      0.87652759532485      2.26097984885241
  C   -0.46737160113583      1.00578664100447      1.07439947871937
  H   -1.12240175314437      1.87625200618798      0.96319950195194
  C   -0.37818949699515      0.08440266977607      0.02573634642767
  C   0.46408653367111     -1.01486827962322      0.21205335816422
  H   0.53449087546335     -1.77215428609635     -0.57564314223117
  C   1.19839568657233     -1.20944097031147      1.39019212316776
  C   -1.14913606099796      0.28181288655032     -1.25759278443999
  H   -2.15566795598562      0.68816417880549     -1.06783240926927
  H   -1.26337539772782     -0.66315930964510     -1.81129122478067
  H   -0.63583658056831      0.99382130440742     -1.92873765705811
  C   0.11042766730917      1.95346521648837      3.30974287807023
  H   1.06993270053681      2.24022697722444      3.75701507103875
  H   -0.54534953682837      1.63166769468690      4.13736406712812
  H   -0.34526531996100      2.85240396401217      2.86857000393992
  C   2.00695374731262     -2.47520296562050      1.52671959438197
  H   1.90597080166565     -2.89926084672670      2.53692938041716
  H   3.08196920131997     -2.30744164444695      1.34414309889569
  H   1.66885509891308     -3.23115885570914      0.80249325176012
  N   1.86836579885510     -0.43512217376133      3.62790747505793
  C   3.33061086446606     -0.48650295207757      3.67956688528071
  C   1.30449267479143     -0.37990665154101      4.96804822799760
  C   2.37868998381101     -1.06395278138762      5.82124580501941
  H   0.34374398829233     -0.91500541634087      5.01155832078959
  H   1.13820454692507      0.64514137247814      5.34619738191675
  N   3.61300532838079     -0.74212142795213      5.10095347385702
  C   2.40774355381842     -0.57271376311423      7.26492412419661
  H   2.17440411714174     -2.15194916221095      5.86011674327755
  O   1.20828660864766     -0.97939222511063      7.88049842265336
  H   2.51371541319822      0.53179760904407      7.28608158957220
  H   3.28549796774391     -0.99915611268648      7.79321497586580
  C   1.09315725805187     -0.61189091502635      9.23587266464470
  C   -0.22238236358659     -1.13829063528303      9.78119301559379
  H   1.14385945009574      0.49319382558643      9.34134274865391
  H   1.94621296478530     -1.02228196565818      9.81810364306558
  H   -1.07081269299164     -0.72004946939788      9.21695497789188
  H   -0.34025169028401     -0.86536272786505     10.84197229421702
  H   -0.26443192204635     -2.23564901447875      9.69590339473672
  C   4.84418608484051     -1.39415946265286      5.45336536682292
  C   5.02930547725238     -2.79234354909577      5.28617106745845
  C   6.25534282772844     -3.37024551773955      5.64281059115985
  H   6.38643458003708     -4.44800359165977      5.49961791279595
  C   7.31176363483956     -2.61937924034847      6.16982511579153
  C   7.10943262435949     -1.24602564501878      6.33523040959601
  H   7.91702689476333     -0.63351896960868      6.74978543169410
  C   5.90262116421464     -0.61937727937206      5.99149642186594
  C   3.94639956455491     -3.70483409691484      4.75653950651192
  H   3.27300446092328     -3.20215010566601      4.05349812067922
  H   3.32037809573551     -4.09880756858714      5.57646829993023
  H   4.38712814841221     -4.57262745522815      4.24255983769693
  C   5.77941433821515      0.86973683416224      6.20861448421015
  H   6.20505466617366      1.42899007382698      5.35779105429825
  H   6.33492317336474      1.17939273706925      7.10781844292718
  H   4.73342095089182      1.18136331538761      6.30477948599460
  C   8.61059298541022     -3.27378822319204      6.57594287218237
  H   8.80205300235001     -4.18967037635317      5.99534403668501
  H   8.59475642385314     -3.56141920146068      7.64257471231485
  H   9.46708779526985     -2.59551421625125      6.43667452442010
  C   4.02992248371178      0.76257240772891      3.12868264286011
  C   3.90138959428076      2.05373868856926      3.66590594985988
  F   3.13442328070020      2.22489622619452      4.76104422148462
  C   4.51518158223143      3.18067343104498      3.14435912606145
  H   4.37385075729589      4.15492339724058      3.61262932992665
  C   5.32132870485865      3.05239576950588      1.99845903148692
  C   5.49018452989183      1.78942085123902      1.41536075953497
  H   6.09971316648058      1.61741277726185      0.53027946586922
  C   4.84272404044340      0.69630401745467      1.99361439561981
  F   5.03335420366186     -0.49742610862130      1.39878655159114
  H   3.70695593890353     -1.31756262108001      3.06086318383167
  O   5.88609871459318      4.18842912368269      1.53447148061889
  C   6.70615215095225      4.14580946274345      0.37306787228181
  C   7.18066313437056      5.55601677117004      0.08002594792690
  H   6.12864008321389      3.73971519958687     -0.47862586350686
  H   7.56405806022237      3.46869512344707      0.54514591547063
  H   6.32512392606289      6.22488836701618     -0.10089168594981
  H   7.82321012003122      5.56151704531867     -0.81428653244647
  H   7.75833187364419      5.95665253569944      0.92728914207910
