78
Coordinates from ORCA-job 117_0.0
  C   1.10297143824215     -0.22812584383004      2.45059444011137
  C   0.27189181261093      0.91190222002726      2.27249409182983
  C   -0.46039502792715      1.04948180755820      1.08539390239059
  H   -1.09282532383750      1.93557255391252      0.96706325971119
  C   -0.39694122646731      0.11695191322204      0.04470691322365
  C   0.41082536234097     -1.00648367856257      0.24209954061975
  H   0.45444881548974     -1.77554124327501     -0.53623267827388
  C   1.14104750765535     -1.20821349489081      1.42137163716121
  C   -1.15948135840961      0.32535748707867     -1.24176536058639
  H   -2.13608929526091      0.80251715075174     -1.06182371002780
  H   -1.33745248983295     -0.62659142382657     -1.76613596149834
  H   -0.60315321324701      0.98096792479897     -1.93579625801649
  C   0.13843808033777      1.99527086206772      3.31733899624538
  H   1.10110121331676      2.25417712890303      3.77375553174545
  H   -0.53514312105376      1.69244781509597      4.13810979852254
  H   -0.28729602982775      2.90630462837975      2.87093666025729
  C   1.89623176165505     -2.50355878997551      1.58355434294665
  H   1.77264239779862     -2.90300491501360      2.60130693608191
  H   2.98117845346895     -2.39340923313553      1.40979891926842
  H   1.53159003688801     -3.25777879834068      0.87049062525442
  N   1.85620654162204     -0.42295302244905      3.63854033212173
  C   3.31832452147274     -0.47272556956544      3.67681228789795
  C   1.30120286289155     -0.37880863744876      4.98255801258379
  C   2.38071714013322     -1.07364057644948      5.82055609303731
  H   0.33957937282832     -0.91214498728578      5.02902807652846
  H   1.14059332955297      0.64429042746277      5.36928493908867
  N   3.60895062260669     -0.74675150428577      5.09214581275939
  C   2.42281126020223     -0.59684609561198      7.26865238041249
  H   2.17475867569510     -2.16183548351589      5.85012454363492
  O   1.22874686228576     -1.01000957172039      7.89054622968448
  H   2.52907480775129      0.50735731015079      7.29961057036378
  H   3.30485468639792     -1.02879932365323      7.78525058061054
  C   1.12359324451738     -0.65346995246068      9.24962301039111
  C   -0.18581695212805     -1.18861434463721      9.80117760290292
  H   1.17181380100405      0.45088645585879      9.36332892548324
  H   1.98264499188548     -1.06585733439399      9.82160797886382
  H   -1.03983165808462     -0.76914366161729      9.24633433015468
  H   -0.29671848024318     -0.92410684636206     10.86484221702154
  H   -0.22448831056772     -2.28547020784617      9.70788780374662
  C   4.84524838896081     -1.39480898816617      5.43216092607466
  C   5.03548620096006     -2.79046386679947      5.25398921086489
  C   6.26716300144345     -3.36551942597977      5.59755284844311
  H   6.40179469270259     -4.44182448021533      5.44651670337335
  C   7.32376469800750     -2.61360756747329      6.12198084129232
  C   7.11599618215181     -1.24208374024968      6.29857030682977
  H   7.92373809646343     -0.62861057541150      6.71150915701339
  C   5.90447067140277     -0.61842802638829      5.96748700058375
  C   3.95226972194468     -3.70459157998240      4.72740607150006
  H   3.26839023571749     -3.20000331273068      4.03591313330968
  H   3.33680228930942     -4.10858747639056      5.55051897872368
  H   4.39256720780575     -4.56627589646922      4.20259992378358
  C   5.77672927277400      0.86872182304765      6.19339024664534
  H   6.18524106177962      1.43280690888116      5.33759395535923
  H   6.34474968930025      1.17711450388497      7.08516634232385
  H   4.73081210993201      1.17532052936934      6.30597139219755
  C   8.62974651579107     -3.26240349470372      6.51395876123607
  H   8.79434877503009     -4.20488864690029      5.96903782916751
  H   8.64768518521011     -3.50071213873953      7.59256864745837
  H   9.48675377690997     -2.59909038134588      6.31623917012285
  C   4.02314510297512      0.76998950379492      3.12472610374263
  C   3.90048210862225      2.05872893994200      3.66636078107171
  F   3.13907761270048      2.24802522012648      4.76654332590841
  C   4.52706189979967      3.17336908709317      3.13417224829784
  H   4.39783215356625      4.15280375483869      3.59656275329964
  C   5.33316978757907      3.03311063908098      1.98942833938551
  C   5.49032577794916      1.76254243217298      1.41621499059471
  H   6.10913687891986      1.61254686352942      0.53203342333147
  C   4.83611658712548      0.66661725525511      1.99178476282040
  H   4.96654623051445     -0.31983287297051      1.53646080387695
  H   3.69011914966079     -1.30200798164790      3.04136627059697
  O   5.90514067698583      4.16942078103555      1.52541386586627
  C   6.72550549077163      4.12391185704321      0.36668590757100
  C   7.20430647155752      5.53327779019555      0.07443840132577
  H   6.14941968560800      3.71968194758077     -0.48730264230400
  H   7.58230851512501      3.44470375133221      0.53822839459325
  H   6.35023928814567      6.20420764164756     -0.10639207786958
  H   7.84813170973183      5.53895722863502     -0.81905700549618
  H   7.78130998530132      5.93202084896267      0.92316655282976
