47
Coordinates from ORCA-job 11_0.0
  C   -3.68022914821009      0.50498369736520      0.69227526843200
  C   -3.73263239087777     -0.88838686356092     -0.00650163629890
  C   -2.10851131486525      0.43589745193040      0.73580553561764
  C   -2.21366957215530     -0.70287447934619     -0.34068567065710
  C   -4.49112185380998      0.72075384088768      1.96034104804304
  C   -1.48219782699342      0.15476784573472      2.10872763047307
  H   -1.64082072829111      1.35185180917451      0.33546759068477
  C   -1.28228936532133     -1.91292092962769     -0.38627610016141
  H   -2.16770797255655     -0.20726829175127     -1.32560231289819
  H   -3.97949452390060      1.26704564589434     -0.04385006262675
  C   -4.08590506806831     -2.05889257799868      0.89823714781587
  H   -4.40742459007041     -0.92661751397792     -0.87251151371129
  O   -5.14191819921281     -0.14593188907012      2.48397047261661
  O   -4.45750441280814      1.94520806085281      2.53821802450625
  O   -3.38062737926775     -2.51669780891896      1.76999480261999
  O   -5.28483603240695     -2.56373495398674      0.57143125731539
  C   -3.93406507248240      3.12248116088422      1.91338601286852
  C   -5.00921029661213      3.86297765354218      1.13164045623407
  H   -3.06369763465940      2.88673954949449      1.28133523836349
  H   -3.56989260387579      3.74488337568971      2.74504101903465
  H   -5.37180856153074      3.27139148565091      0.27541607723651
  H   -4.60949157395831      4.81375138428413      0.74302598925322
  H   -5.87029587435410      4.08690741065969      1.77982689820515
  C   -5.81222221983982     -3.61122629110645      1.40755059254289
  C   -5.32941831233043     -4.98385923780915      0.96672721475047
  H   -6.90391761220277     -3.52111066217436      1.30769377516260
  H   -5.53039218351585     -3.40420074892814      2.45028287916329
  H   -5.57238222457373     -5.16634493863708     -0.09235135598791
  H   -5.81945474106940     -5.76522983357971      1.57041352782852
  H   -4.24190356597300     -5.07838081418595      1.10299077114353
  C   0.05941716107549      0.29346779504600      2.14475109401974
  H   -1.80659175557420     -0.82853203831949      2.48303591055698
  H   -1.90086471877346      0.89686823153364      2.80955144023424
  C   0.22141855637253     -1.55366980400604     -0.48261728305681
  H   -1.57853934747199     -2.51872858826765     -1.26037588821132
  H   -1.45428894708738     -2.54694030854051      0.49398353015068
  C   0.83667716716923     -1.00896899960881      2.06475846729069
  H   0.35173091517263      0.77823461472542      3.09123408093440
  H   0.39207845358589      0.98130671707021      1.35165307339400
  C   0.94215245324688     -1.87551265671511      0.81164205746970
  H   0.36030835110519     -0.49440043217253     -0.74905671796036
  H   0.70025139137628     -2.12760565561963     -1.29323761194976
  C   2.14644293096907     -1.14164200438638      1.32750982844091
  H   0.81616047722786     -1.58220268384874      2.99825137751307
  H   0.98112852320384     -2.95073721324911      1.02034241343898
  Cl  2.80332879443199      0.23913578824396      0.41137068111799
  Cl  3.44669244976397     -2.09427529927087      2.08926296904680
