46
Coordinates from ORCA-job 12_0.0
  C   -3.05098046857438      0.30436922706149      0.27937361866325
  C   -2.32674728431747     -0.02966799683413     -1.05060848362217
  C   -1.66435827025255      0.31481487133287      1.04742564805369
  C   -0.94021145407349     -0.02036249690871     -0.28239533223014
  C   -0.15115777136657     -1.32684208222738     -0.25347903380269
  H   -0.29385221240978      0.79245776432511     -0.64804708403733
  O   -0.28544572664673     -2.16004023936725      0.63304438537584
  N   0.69060092596091     -1.50028629639377     -1.31210746981446
  C   1.45591316087006     -2.71069982976403     -1.52791742603941
  H   0.72741290109372     -0.77136728787091     -2.01419110944067
  H   1.27768106951646     -3.37424931009824     -0.67164984820987
  H   2.53670102096449     -2.49860093718853     -1.59494093569557
  H   1.14283590068965     -3.23038685279918     -2.44991084163804
  C   -3.84189724050533      1.60973344671958      0.25114491306208
  H   -3.69613787341724     -0.50945686901247      0.64490415819866
  O   -3.70927324284232      2.44328816571205     -0.63527796984493
  N   -4.68300999047432      1.78193658240507      1.31049732890265
  C   -5.44983451737385      2.99125132728753      1.52705984926928
  H   -4.71841955499752      1.05277955293907      2.01240595064131
  H   -5.27195015892967      3.65581636456549      0.67150488146657
  H   -5.13779561191056      3.51036981379843      2.44971561520319
  H   -6.53043740366332      2.77792175325855      1.59333223859364
  C   -1.23381485034303      1.52684104457261      1.83802610441185
  C   -1.03829424912595      2.78579118454624      1.23964687660439
  H   -1.22965126641754      2.91706069817106      0.17235789553608
  C   -0.62761855802995      3.88420610384939      1.99990692973795
  H   -0.48405583247606      4.85346600968852      1.51429943963735
  C   -0.40213872100233      3.74967199346610      3.37386211156491
  H   -0.07808339686927      4.60993868211218      3.96590383076286
  C   -0.59213757014577      2.50610415452345      3.98271698986372
  H   -0.41422879615295      2.38596166118223      5.05509167849091
  C   -1.00239479250027      1.40873900219403      3.21961154119401
  H   -1.13716426314949      0.43573325089678      3.70155683633138
  H   -1.60660698966020     -0.56833500559548      1.69805785362423
  C   -2.75732700223687     -1.24056626776343     -1.84291689901875
  C   -2.95454548310374     -2.49992637696070     -1.24597061270336
  H   -2.76468846027991     -2.63226825220757     -0.17854940608412
  C   -3.36500534441886     -3.59733283734270     -2.00780523483579
  H   -3.50993414383268     -4.56694168759707     -1.52330102891774
  C   -3.58855050863907     -3.46134458865184     -3.38193339520683
  H   -3.91245457580096     -4.32081781400094     -3.97520953479708
  C   -3.39683793652866     -2.21734479771112     -3.98937829711633
  H   -3.57324790432819     -2.09607766587240     -5.06187381866526
  C   -2.98680492045113     -1.12099499255718     -3.22469968486742
  H   -2.85066390839555     -0.14763473228633     -3.70554154802557
  H   -2.38414672345141      0.85428256240350     -1.70020168057628
