42
Coordinates from ORCA-job 14_0.0
  C   -2.72897480808570      1.37825575206429     -1.24386073996701
  C   -2.24541457677433     -0.09073550182315     -1.13777459006991
  C   -1.19235802384008      0.39467545930784     -0.06074316209750
  C   -1.39437877240638      1.83551268302643     -0.59524197646123
  C   -3.93049739593764      1.72022909608616     -0.37787086181873
  O   -4.76896002178186      0.70102556924407     -0.02338883344493
  C   -4.51088739788887     -0.63941437749221     -0.25382303437942
  C   -3.29692539032524     -1.09094907550097     -0.78286646595032
  C   -0.37844256429056      2.28067200714525     -1.63443818299992
  C   0.21338114739887     -0.11019864187286     -0.08497398349863
  C   1.16194602950201      0.56257099277019     -0.86271474452596
  O   0.84423725401315      1.67010250717842     -1.63020751889416
  O   -4.18891440605482      2.83141795547652     -0.01196516610234
  O   -0.58588149560946      3.14784962279022     -2.43474912513073
  C   -5.54591969055461     -1.51256497466336      0.09865943032996
  C   -5.36623151898168     -2.89109469355649     -0.07675660964932
  C   -4.15360530034103     -3.37192032339916     -0.60898415182557
  C   -3.14770913535233     -2.47854672405232     -0.95580107187794
  H   -6.46167166880767     -1.08261784827114      0.50168406792706
  H   -2.21324003730608     -2.85935487405850     -1.37784925417940
  H   -4.03437084319520     -4.44840523755617     -0.74440000445344
  C   0.65467827016125     -1.23179262298065      0.63948081534576
  C   1.97238656455315     -1.66813927211781      0.58227836043828
  C   2.90733708322162     -0.97416778313493     -0.21092167362327
  C   2.49797566267031      0.15310488270666     -0.93547584586608
  H   -0.06263388141594     -1.76991805968438      1.26581335230968
  H   2.31137236160106     -2.53963058435407      1.14524213422338
  H   3.17632777471837      0.73163457725765     -1.56075213076262
  O   -6.29741103955072     -3.82348405612156      0.23175577963429
  O   4.17060058317153     -1.45954927540155     -0.21186546094729
  C   -7.53791600106764     -3.41372673718220      0.76740366051662
  H   -8.12307829555047     -4.32800915004981      0.93473212190929
  H   -8.08892432787234     -2.75750625153425      0.06977211659290
  H   -7.41373644745196     -2.88587517402239      1.73016985737816
  C   5.16166521023259     -0.81263098250708     -0.98172414567402
  H   6.09194811901885     -1.37655162306534     -0.83055467927163
  H   5.31769989728523      0.23136049586022     -0.65509212646531
  H   4.91099976654530     -0.81567903302779     -2.05792094942489
  H   -2.92856633409783      1.78369832621422     -2.24875639193700
  H   -1.48174250059959      2.65030531609549      0.14136462769090
  H   -1.71091912418841     -0.39197051853037     -2.05264207258870
  H   -1.63061472476478      0.28700815273696      0.94408862959103
