40
Coordinates from ORCA-job 16_0.0
  C   2.53108870543992      0.33624603192434     -0.15577107846805
  C   2.56240444107279     -1.01645312781365      0.29198499573713
  C   1.36743500314739     -1.67376633024582      0.51080559604159
  C   0.15363912969979     -0.97586931884044      0.28321609157956
  C   0.09409081320833      0.36809571331437     -0.16069886210542
  C   1.34432337470249      1.01670524680332     -0.37850603907409
  C   -1.20932168363618      0.91835048834611     -0.33327675989229
  C   -2.33189504994090      0.14882024697882     -0.07121244150935
  C   -2.24347980307111     -1.20296945455168      0.37222718226060
  C   -0.99449166425474     -1.76591533376328      0.54813330888543
  H   3.47998450331702      0.85339878657925     -0.32548139473179
  H   3.52437403838758     -1.50994791098222      0.45617850609777
  H   1.36315029000206      2.05610945849263     -0.71877798590796
  H   -1.31981859981555      1.95307566569722     -0.67043707959349
  H   -3.32299272924405      0.59166306926977     -0.20634307749440
  H   -3.15813874491973     -1.76987918592274      0.56672707087915
  C   -0.53532227663061     -3.14366616688474      0.96903119014627
  C   1.03205969369103     -3.08059794223544      0.95271015696203
  C   -0.50957675646128     -4.25977997679433     -0.14220606502527
  H   -0.99851924954586     -3.48464412413846      1.90846223228393
  C   1.07595932588661     -4.20742643453172     -0.14598779437491
  H   1.54091429298387     -3.36957792067670      1.88606764192217
  C   -1.17882634867260     -5.55232058357458      0.20308165697278
  H   -0.91328778457414     -3.88663477079480     -1.09570852616915
  C   1.82611965510150     -5.44946986454017      0.21908011633808
  H   1.45407349449331     -3.82493207779101     -1.10626971798083
  C   2.76035264065408     -6.03687331706830     -0.54127261948783
  C   -2.08359464943013     -6.17936944047376     -0.56127678734782
  C   -2.76799898429206     -7.47022580651016     -0.22087654852186
  H   -2.56712299817254     -8.24273712804501     -0.98483385626426
  H   -3.86541415344403     -7.34608991834501     -0.18745082290711
  H   -2.43916824247841     -7.86271033276345      0.75429276217472
  C   3.52600214724238     -7.27593498446300     -0.18146643523754
  H   3.23420618064841     -7.66495402364796      0.80676748117405
  H   4.61415363742428     -7.08496491627639     -0.16643641040405
  H   3.36278740527194     -8.07675161969345     -0.92501080881332
  H   1.59086526964856     -5.89447672516713      1.19587782488696
  H   2.99652009594612     -5.58683422989037     -1.51575915827360
  H   -0.90588906685764     -6.00306188430545      1.16722571832288
  H   -2.35690535252789     -5.72424985667449     -1.52361926308072
