48
Coordinates from ORCA-job 17_0.0
  C   2.62166648258631      0.19673642184666      0.06664233287805
  C   2.64947051988905     -1.21158300636360     -0.13432423967573
  C   1.45643281773788     -1.87455344855536     -0.34503601779801
  C   0.24911184477276     -1.12893847898957     -0.37283521995373
  C   0.19791685886492      0.27686933735369     -0.21180041844943
  C   1.44208857879247      0.92565196120937      0.03508069276078
  C   -1.10623937437344      0.89083512804958     -0.26759762618860
  C   -2.22237456092141      0.06401418991735     -0.40394822180682
  C   -2.13499970615107     -1.35172840845908     -0.52463495351493
  C   -0.89524621725007     -1.95381209629235     -0.53125918549385
  H   3.56231390407470      0.71882304755825      0.26463813091108
  H   3.60267123901902     -1.74687841294980     -0.10260181099473
  H   1.46182691850362      1.99938894664674      0.22905494511298
  H   -3.21452478501980      0.51737702636408     -0.44047393747891
  H   -3.05505440161224     -1.93457030212130     -0.62629120075381
  C   -0.44208621940076     -3.39326172573252     -0.62574603874375
  C   1.12416440000976     -3.33924302124059     -0.53451501261907
  C   -0.49431449084358     -4.24748295073718      0.68270216445990
  H   -0.84066012874249     -3.91355463183590     -1.50872053094073
  C   1.09367941263244     -4.23810051254901      0.74302567333562
  H   1.66386289535033     -3.78351646712853     -1.38351219458725
  C   -1.19240782026084     -5.57557642650448      0.68154984323533
  H   -0.89758738323738     -3.65097558460670      1.51882251390220
  C   1.79262222499470     -5.56654355373225      0.72239055414115
  H   1.43769232631741     -3.68405734610941      1.63342184585569
  C   2.63759645444935     -6.03834956681795     -0.20311316070861
  C   -1.94784232860191     -6.10431509071666     -0.28957795816134
  C   -2.64413399606177     -7.43245548287400     -0.21695412407762
  H   -2.30813391884029     -8.10554988036251     -1.02620218627856
  H   -3.73627871831363     -7.32054045320324     -0.34130490941047
  H   -2.46216557609408     -7.93918079495035      0.74400175368646
  C   3.32419283968660     -7.37239730333286     -0.14581463161560
  H   3.05185460083567     -7.93541432838565      0.76087695763825
  H   4.42317962670738     -7.25928330295928     -0.15941087152233
  H   3.06648005455772     -7.99323249584945     -1.02273649872108
  H   1.58556076153108     -6.20030845736824      1.59612541879641
  H   2.86869160333452     -5.42378472808558     -1.08207564264535
  H   -1.07143846020031     -6.15355577449115      1.60880667985394
  H   -2.09029356397063     -5.54325247649561     -1.22162141870062
  N   -1.21249455297558      2.29915630964438     -0.15174618229657
  C   -2.45751970842792      2.83881209797108      0.35537248442414
  H   -2.77910865300341      2.28180967359353      1.24773484830969
  H   -3.29024539610927      2.82044788218737     -0.38294195170330
  H   -2.30505032357589      3.89199192887872      0.64435573796111
  C   -0.68075185635973      3.08172687763703     -1.26128376355749
  H   0.26907759035182      2.66269257128052     -1.61755458517908
  H   -0.49761176577214      4.12031342314010     -0.93763318734013
  H   -1.38011004887989      3.11407968652190     -2.12567489634528
