47
Coordinates from ORCA-job 18_0.0
  C   2.36531423424372      0.53134197390410      0.03050389576730
  C   2.43271999707308     -0.84910355027662      0.36054666311277
  C   1.26185309411883     -1.53800891278571      0.64832660942166
  C   0.03798410235278     -0.83066730533011      0.59641982964135
  C   -0.04553114432010      0.53331457033541      0.27455537604055
  C   1.15533735538690      1.22275877293519     -0.01345521066108
  C   -1.32564129043190      1.13621913089098      0.25932232773698
  C   -2.44617412980156      0.36206751719125      0.55798226817579
  C   -2.34593402714391     -1.01987142959944      0.87362079563050
  C   -1.09589577438860     -1.62294860743034      0.89277402719154
  H   3.27916873259234      1.08656662575993     -0.19501054875529
  H   3.40601786691630     -1.34603530947923      0.38753304977594
  H   -3.42297101602930      0.85167136609451      0.54208164518301
  H   -3.25397551408292     -1.58627692517304      1.09555352537973
  C   -1.43231390580453      2.57783373812851     -0.07519495626173
  C   1.07756840290212      2.66434025604461     -0.35075986595717
  N   -0.21234925637940      3.23780179526707     -0.35486538748087
  C   -0.26656276263802      4.66246801993356     -0.68779949056568
  H   -1.31269088888351      4.98025657933795     -0.64174440842226
  H   0.14239722552352      4.83267345510623     -1.69477837081692
  H   0.34381129302030      5.24004648503696      0.02174960196164
  O   -2.49451574026022      3.17247283456160     -0.10934339384353
  O   2.05098389659801      3.34691314635396     -0.61454560553529
  C   -0.61238526747161     -3.03422995809682      1.12328276408707
  C   0.95516000887505     -2.97023835324083      1.02783028971280
  C   -0.64463523744587     -3.99736461627736     -0.12645795734568
  H   -1.02231268492844     -3.50127223714173      2.03196994903319
  C   0.93883233313256     -4.04338923919761     -0.12453970872511
  H   1.51493283588571     -3.29765857231093      1.91838023303890
  C   -1.41457847328642     -5.27114196459756      0.01577907930850
  H   -1.00222644111950     -3.45908997970134     -1.01714567515540
  C   -2.35320786192490     -5.69565945951624     -0.84169484779326
  C   -3.14382803995893     -6.96347393992842     -0.71502763275731
  H   -2.98731594302409     -7.61953228182336     -1.58992223769460
  H   -4.22801931617497     -6.75524391553277     -0.67448290364187
  H   -2.87058483596852     -7.52998555845233      0.18907185285370
  H   -1.19003040761207     -5.88725918007411      0.89684494001729
  H   -2.57422707320559     -5.07415920100297     -1.72079875055251
  C   1.59162708288263     -5.34692569298045      0.21596647207409
  H   1.35750122485804     -3.66148759406367     -1.06813892306852
  C   2.47710102601970     -5.98821186604851     -0.55859532879138
  C   3.13971511959887     -7.29263960408139     -0.22867492799467
  H   2.81485874254226     -7.68142684007969      0.74919966684531
  H   4.23937858652090     -7.18913410453561     -0.20839342993395
  H   2.91469107331497     -8.05816368707349     -0.99267772209299
  H   1.31819745753128     -5.79468062511125      1.18157940303348
  H   2.74986534039505     -5.53565575593867     -1.52223698117609
