36
Coordinates from ORCA-job 2001_0.0
  C   -4.20430120301873      1.52866383100571     -0.42027985464399
  C   -4.40877619075636     -0.01478154390485     -0.44175534148747
  H   -3.33040830933169     -0.79616384550190      1.40265810506633
  C   -2.96138426721744      1.35952641933280      0.48738910880870
  C   -3.18510603146823     -0.20135975887157      0.49084885569854
  C   2.21261144422919      2.58978627705786      0.42908426320974
  O   1.54816282880538     -1.39449024560984      1.00857415148574
  C   -1.64744066075096      1.17821359144094     -0.29685616995855
  C   -1.85431924815008     -0.41001389466869     -0.25709330570819
  H   -2.90450454088712      1.97439602387901      1.39658901451967
  F   -0.91534092512875     -1.18724405355139      1.88978897501676
  C   -0.43229512282196      1.01111185676814      0.59860505082013
  H   -1.84109848467703     -1.05993787447462     -1.14295655559631
  H   -1.50219196839713      1.76270419768614     -1.21492976838790
  C   -0.67667193059285     -0.54067958195432      0.72092965245798
  C   0.89282448858523      0.71536514580922     -0.18437365686315
  C   0.69818152873204     -0.83038469123871      0.07135812621494
  F   -0.28592511450626      1.81427507816633      1.68547149896445
  O   2.03779741766481      1.21579548735719      0.41043800290810
  F   0.85564712412010      1.01461150323901     -1.50626767849506
  F   0.65594908587551     -1.57214068689396     -1.06405525712173
  C   2.88934327963642     -1.55382958218184      0.70457891104833
  O   3.36205811043050     -1.26773264826384     -0.35518517934999
  C   3.51627137646487      2.92664579229680      1.09714648328691
  C   3.60511051304127     -2.13498987547785      1.89366264715430
  O   1.42112830207537      3.35207781625821     -0.04210026056087
  H   3.49622778458868      2.58316580381575      2.14339584310218
  H   4.34079448565938      2.39958221547905      0.59285895493988
  H   3.67591411415504      4.01086360397131      1.06119580510343
  H   3.11802624897102     -3.07071419278367      2.20764015409975
  H   4.65572663479172     -2.31698608811158      1.63777132365762
  H   3.53688655345724     -1.43430695818640      2.74086597203121
  H   -5.02557194064886      2.07221789646977      0.07010858928527
  H   -4.01150325329208      2.00825854260413     -1.39326657312830
  H   -4.32387506435875     -0.50071719433534     -1.42693426983033
  H   -5.35402706527947     -0.34141836662703      0.01672438225193
