36
Coordinates from ORCA-job 2002_0.0
  C   -4.25073700368694      1.34614929641112     -0.67635415815953
  C   -4.44199607633828     -0.17655002208357     -0.38303975078891
  F   -3.43272471343429     -0.67330943301975      1.82107443425588
  C   -3.05998217896772      1.39726097793552      0.29433602994793
  C   -3.24177976906440     -0.15289266534005      0.57501624781470
  C   2.43548170080026      2.57630115822607      0.48948994170591
  O   1.55858111933105     -1.28524035831872      1.05248441966021
  C   -1.70105145781926      1.12984294369923     -0.34315082820750
  C   -1.89315914385612     -0.43509931888960     -0.08302595681243
  F   -3.10732685080477      2.34559862716541      1.27227376813596
  H   -0.82963262826019     -0.88326146320109      1.86421598369865
  C   -0.53573951156152      1.14195983330914      0.65297574100451
  F   -1.87763835762084     -1.37444714179191     -1.07441798735835
  F   -1.47900347198095      1.66285226076801     -1.57827270621462
  C   -0.70724023850127     -0.41498630359257      0.88013832501460
  C   0.84438403450750      0.88425695237022     -0.00404233323054
  C   0.64487070838274     -0.65325412394013      0.17385882868650
  H   -0.56783007929816      1.88554250549939      1.45851700543564
  O   1.93189706378302      1.34524261250851      0.77994017077624
  H   0.94124700331253      1.24286600389495     -1.03677726919177
  H   0.59515611405563     -1.20147837133571     -0.77746355038057
  C   2.78691512277114     -1.55788196812226      0.54395842790075
  O   3.09514178584785     -1.30903439056943     -0.59308895152467
  C   3.64418320043324      2.86936772117800      1.34176836984323
  C   3.66949056542893     -2.19664012141122      1.58564477493222
  O   1.96340975686489      3.30077437714933     -0.34596554358327
  H   3.42974532052852      2.65911280200646      2.40022429795879
  H   4.47230019464930      2.20983111172905      1.03572750240076
  H   3.94182805546336      3.91663118199945      1.21018303853563
  H   3.17517781833823     -3.08243155199255      2.01307663635203
  H   4.62864694600643     -2.47674416556769      1.13373997086457
  H   3.83620303407021     -1.48589229484489      2.41038748117834
  H   -5.07852435953235      1.96510850919337     -0.30414475065332
  H   -4.01899052289165      1.62799746347811     -1.71214333428035
  H   -4.34979038496525     -0.86513767179489     -1.23344733876411
  H   -5.36758279599087     -0.39305497270532      0.16794306304686
