75
Coordinates from ORCA-job 2005_0.0
  C   -2.23686360480002     -4.23638125478817      1.44606809372151
  C   -3.13401654680989     -3.31540833580168      0.89859272205784
  H   -3.31276441622334     -2.36646520063635      1.40525468474944
  C   -3.80031478424651     -3.61010836986040     -0.29574836112421
  C   -3.55534642487439     -4.83990006738559     -0.93847956633703
  H   -4.05779044425425     -5.10169641202662     -1.86904253811771
  C   -2.65521261063641     -5.73815301091913     -0.37013738694742
  H   -2.47472310844421     -6.69035371110088     -0.87549548029320
  C   -1.97649042386998     -5.47042456504345      0.82781572438334
  C   0.86555827530071     -4.89001520797708      5.03978924662627
  C   -0.10457260492389     -4.15487338562779      4.36058267764022
  H   -0.42476145447563     -3.17133736815005      4.71354703411530
  C   -0.70249635347351     -4.66092323950204      3.19539459567017
  C   -0.35283606719745     -5.91730989138867      2.68613122220195
  C   0.62015480903883     -6.65120690423908      3.38834823626932
  H   0.90614539222457     -7.63686668213916      3.01255673559101
  C   1.22357825377559     -6.15638860573355      4.53850648585226
  H   1.97329027588679     -6.74546532296114      5.06971997179328
  C   0.00751810981752     -6.99726710131430      0.42465056716020
  C   -0.11859340655073     -8.37499223876332      0.24690781581230
  C   0.70893850937857     -9.08445209739033     -0.62417944843403
  H   0.58537987537122    -10.16408966774669     -0.73959738182567
  C   1.68338302416798     -8.37023945039008     -1.32730713292606
  H   2.35109896928323     -8.89138030669275     -2.01837168660393
  C   1.81340953101098     -6.98220728719453     -1.15236435415959
  H   2.58195929066855     -6.44044076535825     -1.71036324974407
  C   0.97691668276869     -6.28032158511647     -0.27506147933439
  H   1.08663504150465     -5.20064214092174     -0.14452797966975
  O   -1.63481798625248     -3.85268037651738      2.61025489128527
  C   -1.02492697160032     -6.49747909501377      1.44043209975032
  N   -1.72492076278727     -7.76878407579850      1.76454725004011
  C   -1.22035672197554     -8.87889718243085      1.11479764152589
  O   -1.61888668084610    -10.02142864833780      1.25277173281809
  C   -2.77227773995620     -7.88812207707050      2.75907889702682
  C   -4.16432542825116     -8.00850053202625      2.14282417869897
  H   -2.73428134320247     -7.01593903317729      3.42969726965191
  H   -2.57912245323056     -8.78701452336141      3.36642226463794
  O   -5.08349406201264     -8.13571359458729      3.23621978542403
  H   -4.22614064549227     -8.89923284413906      1.49831237284302
  H   -4.42440839190584     -7.12767332460770      1.53630896178198
  C   -6.39612327163743     -8.18686906057906      2.92842276767470
  O   -6.81519303093189     -8.11858208755740      1.80001218125360
  C   -7.23792597043833     -8.34256559055238      4.17265141385021
  C   1.56036036424196     -4.30593270267671      6.25716999824392
  N   1.86029389319427     -5.28313072822092      7.29745067719462
  C   4.30883994840258     -5.10765747043097      7.59902894025953
  C   0.65807590683835     -5.74662702903463      7.99481363410033
  C   2.92795874195038     -4.84556674251126      8.18908050673103
  H   -8.30075614191136     -8.32491972047142      3.90267598749317
  H   -7.01253425776735     -7.53600620025454      4.88725246777148
  H   -6.99434694744274     -9.29456451216968      4.67045550629522
  H   2.85842583893572     -5.39837157750250      9.13737029261951
  H   2.84330889184469     -3.76852180206766      8.45463898073860
  H   0.95869353603112     -3.45461721741566      6.64961956368974
  H   2.51332881752766     -3.86394459342446      5.91890452079944
  C   0.81903059958395     -7.11269787706213      8.65758827773119
  H   -0.14893466783454     -5.81463533260083      7.24848173198607
  H   0.31747237290864     -4.99632956092250      8.74535822789893
  H   1.08164717551848     -7.87835089338179      7.91063781936828
  H   -0.12179999390966     -7.41302435109718      9.14651941156734
  H   1.60308553654834     -7.11340988612231      9.43189970305626
  O   5.27254848186823     -4.61987853553970      8.54279153590885
  H   4.45897683725671     -4.60466318612038      6.63056206121039
  H   4.46229231537397     -6.18611832103468      7.43040512613268
  C   6.56301718297489     -4.60179382348729      8.14576975539812
  C   7.45908868826779     -4.06938342867764      9.23817707841058
  H   7.16288877425360     -3.04086133824518      9.49795068229598
  H   8.50181380291990     -4.08475410711610      8.89886615749412
  H   7.34759887866275     -4.67836775956606     10.14872626671059
  O   6.92422997611779     -4.96644054610063      7.05496453055335
  O   -4.65026155542592     -2.66262417460882     -0.75658181871435
  C   -5.37197449247356     -2.89668346872573     -1.94739997265841
  H   -5.99169189770212     -2.00546119727144     -2.11564235003831
  H   -6.03059232840188     -3.77965167195510     -1.86200146597463
  H   -4.70105660724974     -3.03362802225775     -2.81467731066405
