83
Coordinates from ORCA-job 2008_0.0
  C   -3.01771640958360     -4.35064619150584      1.33791932642565
  C   -4.19966142001918     -3.71726827285775      0.94158812930821
  C   -4.82406323571759     -4.03039774615129     -0.27178212659905
  C   -4.23015938038407     -5.01992098740398     -1.11143230575960
  C   -3.04762938080794     -5.62485702224793     -0.68414354945768
  H   -2.60631781758071     -6.40218187511351     -1.31442189713998
  C   -2.41486088587068     -5.32248437957845      0.53383272410682
  C   0.45310357709097     -4.32721324462173      4.64285690206292
  C   -0.76823562862620     -3.89939664707740      4.12757687874163
  H   -1.34969183343182     -3.12490974206347      4.63387851276927
  C   -1.29370736485406     -4.44525406343090      2.94620659197551
  C   -0.60046433448968     -5.44216352545786      2.25423659212653
  C   0.63171223827017     -5.86411202493335      2.78593353959048
  H   1.18534278508581     -6.64288150271360      2.25434266362183
  C   1.18128116969442     -5.33482232095614      3.95392537839880
  C   -0.13740179182886     -6.24506799471123     -0.10775563996797
  C   0.07698417374710     -7.59411328014282     -0.39126476654692
  C   0.98855493365374     -8.00691193907822     -1.36375843198633
  H   1.13402913398902     -9.07175886927007     -1.56171621809007
  C   1.69374646546492     -7.02086422113678     -2.05983320305080
  H   2.41655963236893     -7.30551570372715     -2.82901775714814
  C   1.48040109567530     -5.66081850808361     -1.77865749217951
  H   2.04100750426013     -4.90368509254589     -2.33386952191183
  C   0.56251063881118     -5.25818925752945     -0.80030406265561
  H   0.40199675691921     -4.19821941071320     -0.58740186281797
  O   -2.49710742283024     -3.94929472336119      2.53659132017065
  C   -1.18239243445486     -6.09493503337033      0.99952516769388
  N   -1.50890759366856     -7.52661216500974      1.25896049250557
  C   -0.79682182776525     -8.42225880425473      0.48857820705855
  O   -0.89072451297659     -9.63624511728259      0.54269691294913
  C   -2.44043271517205     -7.96633488225397      2.27688142664854
  C   -3.79054461387533     -8.39681939809227      1.69049902145063
  H   -2.59326340457378     -7.14665262951541      2.99446472619711
  H   -2.00017958286024     -8.82072891979417      2.81601301950772
  O   -4.66266036642912     -8.86099435146739      2.73307104239594
  H   -3.64842400002474     -9.25297758298722      1.01769529777794
  H   -4.26330302586115     -7.56349460611311      1.15301001214900
  C   -5.42540231500014     -7.94590319156497      3.36573107718527
  O   -5.41192745280760     -6.76634494939024      3.10709793827870
  C   -6.28699654433395     -8.59935314238534      4.41922176465567
  C   0.98449461394950     -3.70719748561128      5.92440987166177
  N   1.04015304964224     -4.65013144642960      7.03723133077828
  C   -0.24290913946123     -4.97800513432379      7.64248151663229
  H   -6.85921862925121     -7.83304472889654      4.95600001672064
  H   -5.65753303776950     -9.16787174143641      5.12111476851725
  H   -6.97348150889490     -9.31813350742351      3.94459653458290
  H   0.37193539895401     -2.80838878348782      6.15904685243972
  H   2.01201938142090     -3.34584307203255      5.74815065604409
  C   -0.08046423326061     -5.98042034085080      8.77995256005479
  H   -0.89084051365854     -5.40912829616019      6.86029320938667
  H   -0.77868864122745     -4.07298493322682      8.01452233286172
  H   0.39557657208646     -6.90610706777417      8.41995657665963
  H   -1.05640101447015     -6.23768805932612      9.22145834939426
  H   0.54993351845051     -5.57014565102255      9.58841245203198
  N   -6.04313940484078     -3.41038535338744     -0.64591633013773
  C   -7.00951722332399     -3.08877808372042      0.40947161732263
  H   1.68089546254447     -4.30263099575964      7.74961707592487
  C   2.52414509782337     -5.81188506222452      4.45183517368610
  H   2.89498659904501     -6.65566513282706      3.85132929206698
  H   2.46286316628730     -6.11475273397425      5.50762638111981
  H   3.28011478630789     -5.00765240254810      4.39618156598719
  C   -4.88286498761119     -5.46344740577557     -2.39709452200046
  H   -4.57915917786546     -6.48822820992958     -2.65896750775274
  H   -4.61094940253074     -4.82060998294948     -3.25387517573212
  H   -5.97939861402314     -5.43129210567593     -2.30486442855337
  C   -5.98825457212777     -2.48417175056025     -1.77423219481018
  O   -5.98499865415697     -0.38127760029708     -0.60424924748778
  C   -5.26419981523878     -1.16138364820627     -1.52860479884740
  H   -6.00946251559937      1.36102287515162      0.44077735462084
  C   -5.36653796864177      0.83520096840619     -0.28091762420898
  H   -5.23401385687745      1.48349773585466     -1.17197641221783
  H   -5.16217698756958     -0.62269443772480     -2.49686712661683
  H   -4.23525934875189     -1.35531785269944     -1.15832201394927
  H   -4.36825197314184      0.68556522208221      0.17964462600058
  H   -4.62068740447878     -2.96919928633130      1.61300456247198
  C   -7.52175248213984     -4.32686171305444      1.14371884700420
  H   -7.85178642804169     -2.58182254081156     -0.08686093472255
  H   -6.61926789952261     -2.34518864089746      1.13130386968513
  H   -7.98849523762782     -5.03149319356038      0.43601444377895
  H   -8.28007237226273     -4.03411462187801      1.88869088699067
  H   -6.72199820474749     -4.86213087902103      1.67843396315084
  H   -7.02136316896097     -2.26344016588315     -2.09222252255553
  H   -5.49273603763778     -2.97243943389992     -2.62785167842480
