66
Coordinates from ORCA-job 2011_0.0
  C   3.37535222364113     -0.25184324562864      1.08879847818288
  C   3.31654177875299     -1.45616424995754      0.16426375429611
  O   1.99942098167050     -2.07439212508446      0.21825566132840
  C   0.88856438764011     -1.31856852187262      0.39991405839219
  C   0.94735901367511     -0.05512653767795      1.02327798819138
  C   2.26023200004972      0.40012147985667      1.45970052923346
  C   -0.24618236526679      0.66459500605125      1.24600893098968
  C   -1.49354783741077      0.17011323242338      0.87144702817097
  C   -1.53271639554328     -1.09746774524043      0.26923434495704
  C   -0.35246153499945     -1.85486883874185      0.02752342645785
  C   -0.76336035434397     -3.09787533058752     -0.59379155208668
  H   2.32014557813553      1.27323903398683      2.11685315655214
  H   4.36393295168105      0.06277181379980      1.42982104330335
  C   4.30644406168779     -2.51827350939695      0.67329635342513
  C   3.87788036796931     -3.58907647108655      1.46958188002100
  H   2.81579255030412     -3.69914520013635      1.69072552836819
  C   4.80081554516033     -4.51208685585643      1.97348741412437
  H   4.44852671239198     -5.34563843746207      2.58736704591615
  C   6.16355198649860     -4.37167560069526      1.69932592586615
  H   6.88332712090749     -5.09350748238387      2.09454065816791
  C   6.59926763102057     -3.30078362207296      0.91219574587030
  H   7.66261257245983     -3.18147996433140      0.68708246352937
  C   5.67748578294324     -2.38346601864842      0.40180825751369
  H   6.02915881465643     -1.55906019559477     -0.22381831179784
  C   3.58930861799036     -1.09609578074517     -1.31005584122766
  C   3.78763586495243      0.22015636750259     -1.74547657481764
  C   4.01138563887964      0.50052866276512     -3.09450852966389
  H   4.17083533991679      1.52457414800098     -3.43879721975799
  C   4.02919397106205     -0.53484501005708     -4.03419890858151
  C   3.82102092768043     -1.86094045887757     -3.62528987259221
  H   3.83182663311755     -2.66828291375706     -4.35202170745547
  C   3.60732226259040     -2.11937884376393     -2.27046282103257
  H   3.45343493576455     -3.15383198148546     -1.95436164207626
  C   -2.18090526144186     -3.03714139870581     -0.70657123716019
  N   -2.62920853002370     -1.82800837618431     -0.17485451644368
  H   3.76505910548388      1.04117543444288     -1.02640934303553
  O   4.26310136359528     -0.11283003692852     -5.33471837675938
  C   4.35990322984114     -0.90435857456112     -6.43834387670564
  C   4.62674469486002     -0.04606560626132     -7.65081891528620
  H   3.78490344803200      0.64611912270854     -7.81110057306685
  H   4.75508968449121     -0.68785233638961     -8.53070454554065
  H   5.52666853412434      0.56758223872823     -7.49131212752136
  O   4.24646734461190     -2.10139608659400     -6.44414837028748
  C   -2.91583648298314     -4.08572780564558     -1.27354503275670
  C   -2.21204634552474     -5.20547012465456     -1.72394569408956
  C   -0.81151123748930     -5.28131204052954     -1.61604847094199
  C   -0.08057290455934     -4.23443322724208     -1.05221567720634
  H   -4.00351477932578     -4.04149130299652     -1.36436697831701
  H   -2.76396205228242     -6.03778788422160     -2.16883870896458
  H   -0.29165024842683     -6.17151270819874     -1.97884695810570
  H   1.00520862683623     -4.28984213021340     -0.96341032443605
  C   -4.00483461020850     -1.38803752591790     -0.14046656234395
  C   -4.41942194530460     -0.64645617590534     -1.41408873064651
  H   -4.15995735315597     -0.73122004631089      0.72865164572784
  H   -4.66464988764054     -2.25755044823693      0.00162130529507
  O   -5.78531936710497     -0.28752526185982     -1.24653353522327
  H   -4.28248178073819     -1.30131033820184     -2.29196279074500
  H   -3.78588567909890      0.24692792277651     -1.55266459875022
  C   -6.50142389090776      0.37190941800328     -2.19983217193435
  C   -5.78872070772223      0.71271895768620     -3.49322340846599
  H   -4.90933045826466      1.35047206567695     -3.31042422712483
  H   -6.49360480868897      1.24334630459928     -4.14402384305657
  H   -5.43384719804550     -0.19597024860745     -4.00503664470533
  O   -7.64747931142393      0.64492531060947     -1.97374983560974
  H   -2.39901855281412      0.75124013282866      1.05394290582111
  H   -0.18030040433590      1.64082797306270      1.73500352661876
