113
Coordinates from ORCA-job 2012_0.0
  C   -1.02437093487976      2.50417078158346      1.45735768920986
  C   -0.48782154401899      1.34262129531354      0.53111749656564
  C   0.10910381788166      1.97051170688672     -0.72879231893454
  C   0.28614806370167      3.15377727061132      1.92356670694058
  C   1.35686966019853      2.26253853863182      1.16651403197526
  C   1.24093277382522      2.55986148242398     -0.32970173490431
  H   -0.38215282794176      1.99901948245966     -1.70134784651477
  H   1.92247135572298      3.19281204417806     -0.89858598840835
  C   -1.81111345995812      3.62441053446342      0.79060555191188
  H   -1.62213180386851      2.03825269595793      2.25303188549502
  N   -1.03813875617372      4.79382956350177      0.88193309367847
  C   0.19873076868879      4.60927318921247      1.50030956181659
  H   0.45966358988946      3.08658023845651      3.00777715065922
  O   -2.89947119649237      3.57195735204676      0.27320407076583
  O   1.03400008135777      5.47204173007248      1.64779460150887
  O   0.70514006139111      0.99493924709553      1.27041919767695
  C   2.72309706345474      2.29113991733621      1.80573773734084
  O   3.66852846806661      1.64431119057595      0.94659396793225
  H   2.70073884455159      1.79139810488834      2.78463269697490
  H   3.03276443712530      3.34006496534539      1.94500098336434
  C   4.65721873868016      0.96973481003651      1.52950438360175
  C   -1.47140068483239      6.07074615953094      0.33963882054741
  C   -1.00713321947907      6.26369013547669     -1.10066436746413
  O   -1.49458932065894      7.54118011384856     -1.51694760698602
  C   -1.16968461322150      7.93321101888443     -2.77067032608241
  C   -1.74029562010279      9.29587054620087     -3.07652238234178
  H   -2.83474071305856      9.28167344827641     -2.95648205981359
  H   -1.47661703036939      9.58347257204624     -4.10136966063512
  H   -1.34485690327056     10.03630277806121     -2.36355878528450
  O   -0.50711262396418      7.25811992989937     -3.51673193123580
  H   -1.40827413309611      5.47584600841305     -1.75847419143898
  H   0.09194319017988      6.24012519232315     -1.17155804165592
  H   -2.56938516683383      6.10069472290615      0.38540915214716
  H   -1.05716736423448      6.86853454092938      0.97280954731595
  O   5.45175710229743      0.49228230307870      0.53422359864940
  C   6.62368145733759     -0.14796473183476      0.88519770096586
  O   4.82356761378176      0.78776307053868      2.70166678540052
  O   -1.39905008784382      0.33056935776129      0.43198704514900
  C   -1.18809145731302     -0.71252702075454     -0.46394320913801
  C   -2.26550555817691     -1.09270342539587     -1.26286939227696
  C   -2.14668267378342     -2.18012529582500     -2.13761052782568
  C   -0.93494643900289     -2.88295279029140     -2.21102450336831
  C   0.14673245791960     -2.49263418729140     -1.40444010838927
  C   0.02267936124598     -1.41617683087745     -0.53073657462912
  H   -3.20105071954492     -0.53376779560949     -1.19004659271073
  H   -3.00347189586048     -2.46325237114246     -2.75022998887976
  H   1.08416496906336     -3.04862869124995     -1.45564197668311
  H   0.85993183551305     -1.12362891091242      0.10280538560092
  O   -0.71508880787149     -3.95580897659441     -3.02412045716183
  C   -1.71075124769653     -4.36854355546402     -3.93186057755824
  C   -1.11288444536375     -5.51712164817136     -4.72535260914582
  H   -1.99866335149376     -3.54706646358393     -4.61508664453133
  H   -2.62549240045611     -4.70379198088859     -3.40669189210978
  O   -2.10726290292911     -5.94668893550350     -5.65778902061776
  H   -0.82903694177859     -6.34797983841887     -4.05931015413611
  H   -0.20318537510709     -5.19421949964678     -5.25572219226311
  C   -1.74389090819624     -6.92169493070547     -6.52206806819033
  C   -2.87946941875459     -7.27260734691887     -7.45174219655663
  H   -3.74682858348238     -7.62265091472897     -6.87036724645213
  H   -2.55525274651137     -8.05413860706583     -8.14931074611226
  H   -3.20105771676358     -6.37844187878367     -8.00813203009488
  O   -0.64855546445717     -7.42346210037252     -6.52292975140166
  C   7.73450156046113      0.61681923399070      1.29822826089354
  C   8.95160017412325     -0.01607831065307      1.61879277813121
  C   9.00227559147582     -1.41827344906878      1.48511654798117
  C   7.91756994868280     -2.16315196861743      1.05068776967751
  C   6.69126179090195     -1.54652406389966      0.73983930432656
  H   9.93777482924612     -1.92077739270384      1.73208181758813
  H   8.01969315842656     -3.24478581548860      0.94885582862929
  C   5.52223708069967     -2.28563562607166      0.25770864112293
  C   5.42041287463035     -3.62040965190591      0.10383795090041
  C   4.17121885706684     -4.21317940442941     -0.42723042635841
  O   4.28002439273478     -5.55001728541316     -0.54126214969724
  C   3.13863423204118     -6.24001853947232     -1.05162877303702
  H   2.26276710475230     -6.08109410929613     -0.40370158722914
  H   3.40859097709002     -7.30324570636672     -1.07308587081225
  H   2.88926114753499     -5.88950337538294     -2.06506904633381
  H   4.64777380872978     -1.69195638008557     -0.02104280503285
  H   6.22485692989377     -4.31880924932909      0.34433870628139
  O   3.17205342799210     -3.59695559180249     -0.72951913218680
  C   10.24186645504370      0.68207979634788      2.07996822681495
  O   10.99983303353807     -0.17570590055582      2.87844897578694
  O   10.00315255267730      1.93044694613696      2.72991401398412
  O   10.89942478281965      2.64828781551873      1.81616724513204
  C   11.15864531335822      1.42578479734675      1.04828322266202
  C   10.52136445298064     -0.38649594498921      4.20176473676602
  H   9.53263749862380     -0.87918221192380      4.21078812589980
  H   10.45171655322721      0.56685242009364      4.74901885116705
  H   11.25277948074228     -1.03996004093690      4.69654829531565
  C   10.68742762972255      1.58115583688323     -0.40816263885326
  C   12.66038613242568      1.09319860139644      1.07440787924823
  C   11.45823551424581      2.76339677075765     -1.03781027904354
  C   13.42041372750124      2.27981742766762      0.44043437358204
  C   12.97111626966360      2.47059989175365     -1.02099956307321
  H   14.50505716021200      2.08144810078765      0.49062822562311
  H   13.23377401980409      3.19635001603348      1.02317807975344
  C   12.94255192473782     -0.19090712529006      0.26823840394483
  H   12.96822652448095      0.96281872480919      2.12030549170257
  C   12.49508873636864      0.00066071945894     -1.19313304673591
  H   12.42208833265890     -1.04969026314886      0.72316488915076
  H   14.02242891383958     -0.41539496240664      0.31410449766811
  H   11.23749154543867      3.68857456272520     -0.48125317490448
  H   11.10387724964458      2.91646016544553     -2.07166359632218
  C   10.98302422104278      0.29334641737639     -1.20721227921352
  H   9.61131908173555      1.80473403939118     -0.42003576506548
  H   10.62383974028681      0.42401861465668     -2.24252096039791
  H   10.42878738539272     -0.56267478119760     -0.78866104637279
  C   13.25866912982692      1.18422882678149     -1.82115673990870
  H   12.69742846183444     -0.91991891814378     -1.76723834032202
  H   12.95443160322660      1.31478533808406     -2.87472072316855
  H   14.34292077496018      0.97468008157240     -1.82677227573621
  H   13.51672202375740      3.31870923610080     -1.46905888288251
  Cl  7.50975723466519      2.34683237624193      1.32490282169263
