44
Coordinates from ORCA-job 2013_0.0
  C   -1.02894006295887      2.54567454180944      0.00708220320301
  C   -0.91575683116058      1.00758649763870      0.26469208434263
  C   -0.19434573257324      0.30445577551403     -0.90910883046648
  C   0.44548083490460      2.99204471479946      0.23876650256106
  C   1.12027407044477      1.62795535374772      0.58782252706849
  C   1.28220591361851      0.74324395295609     -0.66337823689751
  N   -1.21260644221757      2.99578976546379     -1.36098550619139
  H   -1.76389173901725      2.99963311578946      0.68987734922544
  N   -0.09565132788351      3.60966183657872     -1.84248075203923
  N   0.85016819342508      3.62841574799654     -1.02384032496139
  H   0.59469813916275      3.70361020548105      1.06459193276743
  O   0.06574538743320      0.97630026022261      1.30344813650697
  C   -2.48177232666090      3.22179464027737     -2.02346633609026
  C   -3.33209630835598      4.31571357935529     -1.39414192471405
  H   -3.05193903668274      2.27826129740789     -2.05279874097157
  H   -2.23353798933191      3.48754820700185     -3.06325446226389
  C   -2.83097031267635      5.62477374412545     -1.27973846630654
  C   -3.60715826406566      6.63263065158302     -0.71341642648424
  C   -4.90339946892863      6.35366249454456     -0.24767000165883
  C   -5.40829645765590      5.04999669627582     -0.35586340036233
  C   -4.62403241810612      4.04260695113914     -0.92349869093343
  H   -3.22997843113617      7.65348404237854     -0.62410877691802
  H   -1.82375894104458      5.85062231023637     -1.64113455201518
  H   -6.41309408906669      4.83053844139705      0.00775925854344
  H   -5.02495102059879      3.02760862223104     -1.00368041760044
  C   -5.69282255337000      7.47541484928954      0.34505902567401
  O   -6.91622719044666      7.08655060789366      0.75590293138614
  C   -7.74092450164381      8.10134963963632      1.32713770611049
  H   -7.26950564404170      8.53086357688390      2.22470030767747
  H   -8.68813523183340      7.61416597392413      1.59088409299910
  H   -7.91697842925575      8.91467830346193      0.60633000885131
  O   -5.29270561574544      8.61224134976947      0.44943144235616
  C   -0.47650027611890     -1.18986713489333     -0.90512794455963
  O   0.56412357805278     -1.91056854751105     -1.35518791343040
  C   0.37180208342301     -3.32458717184785     -1.43294986874886
  H   0.12692894816702     -3.73950006085779     -0.44345367678585
  H   1.31758239320820     -3.74232145227836     -1.80015882580266
  H   -0.44866548948484     -3.56901889734863     -2.12504305264515
  O   -1.53072676154902     -1.68155673457950     -0.57947052554800
  H   -1.83368818025868      0.50769770375888      0.59338803653122
  H   2.01067081257219      1.71229010526593      1.22327719916167
  H   1.71652976493704      1.28548964489779     -1.51309934760679
  H   1.91992165966673     -0.12096057753970     -0.43956899153911
  H   -0.56583470514616      0.67437537612349     -1.87877475142479
