44
Coordinates from ORCA-job 2014-2_0.0
  C   -0.67887030464716      2.36261094731596     -0.43616491513056
  C   -0.59325061416937      0.99685646973705     -1.16697973731331
  C   0.09627590095067     -0.02270261720403     -0.22080512519434
  C   0.80655185796086      2.82998501515554     -0.51510905371675
  C   1.45145349416517      1.64470981535662     -1.27507475720067
  C   1.58429493054991      0.42944483681719     -0.33182824995731
  N   -1.30264392585318      3.43621097381597     -1.20130466572056
  H   -1.10996916569200      2.28442887604015      0.57539781942339
  N   -0.39044025352544      4.30032829992670     -1.70600689640488
  N   0.77770614113639      4.05547100962015     -1.34415328099626
  H   1.30288451787610      3.04868863526315      0.44211995842795
  O   0.40225017706637      1.23723624685481     -2.15711210596116
  C   -2.67192788543343      3.50573689751054     -1.65399592414800
  C   -3.54527993207071      4.55198916096335     -0.97285679223511
  H   -3.12293818474685      2.51111332577923     -1.49653410199727
  H   -2.68552376942092      3.67546967624613     -2.74429263817324
  C   -3.12752322391712      5.24995991536752      0.16766479993283
  C   -3.96829605777193      6.18274454874136      0.77635307911198
  C   -5.24326890392792      6.43968427930011      0.25254379407928
  C   -5.66570830158928      5.74614832750638     -0.89453216060642
  C   -4.82237700397826      4.81458827348821     -1.49609005163092
  H   -3.65039303812568      6.73233717885295      1.66487804348215
  H   -2.13004177836185      5.07010961905088      0.57344568650854
  H   -6.65516543717434      5.94594514126847     -1.30816565561546
  H   -5.15963274754296      4.28251943976408     -2.39133173130902
  C   -6.09664755266367      7.45409857047503      0.93891693222156
  O   -7.27947077529941      7.63957379451064      0.31759614603979
  C   -8.15893651174475      8.59376206321538      0.90941624606836
  H   -8.40483972897672      8.31248056072987      1.94515731369360
  H   -9.06498318461782      8.60118649268651      0.29029793213920
  H   -7.69910062277159      9.59420726309883      0.92508047011448
  O   -5.78059598886372      8.05270569203017      1.94195325735252
  C   -0.21845428959697     -1.45389178566235     -0.63243371386585
  O   0.80864940287772     -2.29111137435613     -0.41651610144087
  C   0.58412498809046     -3.66853175705297     -0.73132727789316
  H   -0.31396322576714     -4.04505208316102     -0.21947714729183
  H   1.47714478940923     -4.20833120551581     -0.39269942942004
  H   0.44732725680145     -3.79939055646617     -1.81581695248288
  O   -1.28609011714996     -1.81058811297282     -1.06915787633345
  H   -1.51907200282495      0.62742645517081     -1.62461226040462
  H   2.34813717440050      1.91775077432553     -1.84523558018034
  H   2.19853020939743     -0.35130630654462     -0.79748835209164
  H   2.03299719072406      0.67994107235163      0.64032907493916
  H   -0.28673350318114      0.07827615059892      0.80951198118115
