44
Coordinates from ORCA-job 2014_0.0
  C   -0.78669572397442      2.45282542006129      0.44446089942733
  C   -0.52986232569021      1.16806761752124      1.30153242425948
  C   0.08875891540752      0.01468488193309      0.47259934237050
  C   0.66262416187215      2.99878650940660      0.27555941269653
  C   1.47926888586186      1.88784616484805      0.99926576767429
  C   1.50230900437103      0.58915020975581      0.16329275853208
  N   -1.15855246360677      2.29686867211048     -0.95266737996661
  H   -1.47552717964380      3.13016977282721      0.97347104792381
  N   -0.17100340029313      2.74836185085513     -1.78269216967954
  N   0.85451369013303      3.12537791742996     -1.17538495780058
  H   0.85489834805213      3.97204355717802      0.75084388299792
  O   0.59285805784255      1.57775658216925      2.08471198674658
  C   -2.52436387649172      2.29015542222622     -1.45206426382687
  C   -3.31416085336655      3.54925907074034     -1.13306073515466
  H   -3.03616713827018      1.40146118503640     -1.05416801923091
  H   -2.44133362796619      2.16259492579236     -2.54302598316443
  C   -2.85853500339454      4.81038527384055     -1.55745462459656
  C   -3.58850054310522      5.96106037143728     -1.27013079475766
  C   -4.79326012306100      5.87687885258010     -0.55180675434463
  C   -5.25468503205796      4.62282874131811     -0.12621047944558
  C   -4.51658272584520      3.47284879156831     -0.41527558072748
  H   -3.24507853356703      6.94454795299326     -1.59779198589584
  H   -1.92357258494977      4.88585975329041     -2.11988261173039
  H   -6.18893350226918      4.55496958002723      0.43291874731558
  H   -4.88149286817277      2.49757687421589     -0.07956537809483
  C   -5.53496465130003      7.14317674599492     -0.27328962038615
  O   -6.66533547617423      6.93641465652613      0.43142567312190
  C   -7.43704911545582      8.09659826951474      0.73784884940590
  H   -6.84929736358386      8.81274609732358      1.33269650837486
  H   -8.30389429122214      7.74537778885739      1.31184949016928
  H   -7.76771708823868      8.60196645052320     -0.18283667055334
  O   -5.17469021100895      8.24069117454321     -0.63250756348736
  C   -0.76581153534491     -0.51506864963829     -0.65814926518687
  O   -0.04280777663872     -0.87139615171495     -1.73031684284400
  C   -0.75813441705783     -1.44141946086984     -2.82781747075638
  H   -1.35557819367118     -2.30525375915662     -2.49989815581655
  H   -0.00025597914186     -1.75116321863916     -3.55806784857889
  H   -1.43312881754463     -0.69787002350012     -3.27881397012755
  O   -1.96309044221555     -0.67887690599270     -0.57612087159471
  H   -1.36188829834709      0.87509389074237      1.95224004005201
  H   2.44976187128982      2.21696183169741      1.39022150873325
  H   1.66213781021270      0.78059341030057     -0.90484973135991
  H   2.29573585521660     -0.08521243429969      0.51308321405354
  H   0.18407456241180     -0.83594566337482      1.16869817525342
