150
Coordinates from ORCA-job 2015_0.0
  C   0.42662470715695      0.46510947262929      0.80095389696711
  C   0.90131912119732      0.17683811031053     -0.68723384349857
  C   0.53673717023249      1.39086389182840     -1.53925251088977
  C   1.40535775597962      1.56396942315932      1.22901504065414
  C   2.27878531684180      1.71462955666991     -0.08902731579328
  C   1.38811847751622      2.34965569641470     -1.15834774678552
  H   -0.31570491592405      1.45284676155264     -2.21520635442314
  H   1.40771322487100      3.39939593801429     -1.45375491589040
  C   -0.95790324484445      1.06789751575722      0.96743011291624
  H   0.51101927456789     -0.47999512699081      1.35436029095924
  N   -0.79288052135351      2.37562682952566      1.44905881436605
  C   0.54267137240279      2.75497465964246      1.60724559675027
  H   2.05874998399783      1.28663942542120      2.06916654023928
  O   -2.02847279150203      0.56125132977551      0.72942570249220
  O   0.90914607429154      3.85017813825693      1.96647564024728
  O   2.31150985412205      0.35165882057218     -0.50898674461048
  C   3.65734284919306      2.29122622574985      0.14083864789391
  O   4.35863275289658      2.41218161808680     -1.09512782448321
  H   4.22774397841978      1.64850158654992      0.82636403762986
  H   3.56077215933191      3.29953003715064      0.57159782130674
  C   5.37768478202991      1.54213347097670     -1.32679767693437
  C   -1.90514342414774      3.28033263860440      1.68932331558928
  C   -2.23921678391536      4.09691031295923      0.44437540503969
  O   -3.32671463918098      4.95901188501636      0.78956158761283
  C   -3.81334926045988      5.74285958576219     -0.19960817598634
  C   -5.00458960929156      6.59381156309048      0.26754119696897
  O   -3.35748941915938      5.72957248571828     -1.31591343233276
  H   -2.53203335352288      3.44489464557650     -0.39351798478316
  H   -1.37512651063276      4.69904661612297      0.12122782855436
  H   -2.77399812494587      2.67693333937502      1.98846057810915
  H   -1.62471189171678      3.95221054750300      2.51315169185912
  N   5.79389348363812      1.70968142633521     -2.62771616359930
  C   6.85090358896521      1.07450461558587     -3.29313518410583
  O   5.83482571685577      0.77876199110265     -0.51208497545271
  O   0.56594203666618     -1.09624911293571     -1.07998203842731
  C   0.05149709869937     -1.36289729293820     -2.33295693683151
  C   -1.26953469648668     -1.79541889593711     -2.42150017273778
  C   -1.81868074746890     -2.15987706132562     -3.65343151097561
  C   -1.04346781911637     -2.07536080279362     -4.81624558672392
  C   0.28527364769595     -1.63122459562080     -4.72805181898919
  C   0.85400507482301     -1.28172586013667     -3.49324982503836
  H   -1.85482889488864     -1.83215870628691     -1.50004487951317
  H   -2.85674248198004     -2.49366814570044     -3.70760516489562
  H   0.88174990035919     -1.55873193111930     -5.63848688471522
  C   -1.61499951935377     -2.46807295158998     -6.16341135633284
  O   -2.90651566854302     -1.82171418791174     -6.28883906080792
  C   -3.31339618819248     -1.45418343610347     -7.51899056798697
  C   7.68150921658582      0.10922184863457     -2.68060406190376
  C   8.70705410547248     -0.47224419082385     -3.41443564695375
  C   8.95486715028141     -0.13747134856557     -4.76177106929900
  C   8.10866061320688      0.82839709322671     -5.35181142927607
  C   7.07392561575420      1.42703951966201     -4.63192371189871
  C   -4.55106301271937      7.41035870731801      1.53718562908023
  C   -6.14972921357480      5.61520449236087      0.62286024016726
  H   -6.38555822071645      4.97618254516596     -0.24335713756849
  H   -7.06105790480812      6.16491129619423      0.89811958496848
  H   -5.87914116827321      4.96766975899212      1.46876361389127
  C   -5.43692068511916      7.50011157736496     -0.89544623752737
  H   -4.62282167440901      8.15880861788046     -1.22814574488408
  H   -6.29057516058725      8.12693883166219     -0.59962902260506
  H   -5.73401656151598      6.89149601659425     -1.76174641426225
  C   -3.32526933444958      8.30171190977769      1.29590935226251
  H   -2.47182743661648      7.70772521694042      0.93352929044987
  H   -3.01190678929464      8.78708075434110      2.23333286256296
  H   -3.52995741116444      9.09720783191464      0.56644359746118
  C   -5.72290179743135      8.17730377869680      2.14196946837030
  H   -4.30069706894306      6.66144496513116      2.30228253864124
  O   -5.81208149707869      9.44278202755092      1.68527034038651
  C   -6.88541445336670     10.23034671631242      2.20412245699184
  H   -7.85814666479988      9.78189879376037      1.94982650938689
  H   -6.78953877538816     11.22087707220084      1.74197246376717
  H   -6.81692488701200     10.30991137498013      3.29968249931631
  O   -6.50382141811769      7.71616786435047      2.93991483868662
  O   2.12162216492721     -0.85113463316057     -3.32014691149772
  C   2.97756286060985     -0.72875174005121     -4.43507527930400
  H   3.93554897186231     -0.35615945940778     -4.04943811135972
  H   2.58416625213493     -0.01107794365232     -5.17794405564493
  H   3.14417106581257     -1.70114457547678     -4.93237967499788
  C   -1.80604330890789     -3.97980299859258     -6.36114338066125
  H   -0.97109067875123     -2.08725405276949     -6.97024520708131
  C   -0.49809324495266     -4.77543092636163     -6.33262432649050
  H   -2.30319583458982     -4.12282533493397     -7.33550696829942
  H   -2.49645376427673     -4.35246315178103     -5.58463293200454
  C   -0.73378926746746     -6.25490796046330     -6.61938233588026
  H   -0.01334542480555     -4.67714213475643     -5.34823064353468
  H   0.20443004997250     -4.37741783502583     -7.08602389169498
  O   0.50041085531783     -6.98949453855951     -6.67458740958535
  H   -1.19303658918667     -6.39818103085714     -7.60887252226527
  H   -1.38465763820148     -6.69961461344792     -5.85119741222752
  C   1.00292745374675     -7.46745324071730     -5.51959918572284
  C   2.27999527132403     -8.29306571171145     -5.74154737751179
  O   0.46652832749193     -7.29160560524302     -4.44868266448434
  C   3.16796462804593     -7.58987986552108     -6.79006034348629
  H   2.70570670325341     -7.59763840675975     -7.78722036607019
  H   4.15075665775151     -8.07928441548051     -6.85531616394207
  H   3.34201753960790     -6.53924609881144     -6.50744096669573
  C   3.03752503520904     -8.38445942048081     -4.40501992561945
  H   3.38715641978494     -7.38837164149073     -4.09089984043532
  H   3.92139176706287     -9.03279071133220     -4.50420242078261
  H   2.40321043042807     -8.77040916015431     -3.59581809042780
  C   1.81093805586655     -9.70430063473372     -6.26972291710714
  C   2.96181362539982    -10.59857431046370     -6.75324908325200
  H   3.52116460631477    -10.14237997599575     -7.58253839894877
  H   2.55190169309200    -11.54892493633037     -7.12538881370825
  H   3.67581812192140    -10.82817658526713     -5.94446598211067
  C   0.94727911115136    -10.45622291828847     -5.23897863101307
  H   1.16695882025812     -9.51022064459175     -7.14203095001237
  C   0.03366929562327    -11.49838300125022     -5.87084905097546
  H   0.31042464849090     -9.75967256169177     -4.66725592055171
  H   1.58375315875525    -10.94853862573259     -4.48377857283235
  O   -0.70954765560341    -12.26389790858447     -5.03385744158144
  C   -0.66695393237554    -12.12310341758904     -3.62168526156856
  H   0.32817791229258    -12.36374409552563     -3.21113065610363
  H   -1.39434666902067    -12.84181293529429     -3.22054991802714
  H   -0.95411130092407    -11.10970716174617     -3.29562326768428
  O   -0.07675646484334    -11.66983592028178     -7.05672553194077
  O   -2.66446790451626     -1.63437524539495     -8.52394851687567
  C   -4.66104323754719     -0.80147358403677     -7.49777827391661
  C   -5.37094909567174     -0.57334783533662     -6.30258300655206
  C   -6.61994800582785      0.03267950124591     -6.34541318453923
  C   -7.19963278432994      0.42940785821162     -7.56936838566618
  C   -6.46805853134547      0.19399111791728     -8.75598400151984
  C   -5.21112354835331     -0.41517523066847     -8.72265867159440
  C   -8.50715839623930      1.06854894656165     -7.68652724712412
  C   -8.94810061894795      1.40705095352328     -8.92720135496277
  C   -8.18320484574224      1.16540559380970    -10.14971877960569
  O   -6.95076882899179      0.54731991577336     -9.97394901913324
  H   -7.16167652923232      0.20610913770072     -5.41403621398659
  H   -4.93212080873598     -0.87173397965515     -5.35068448455560
  H   -4.66513106393757     -0.58706744525062     -9.65111665217364
  H   -9.91579770654918      1.88821219740077     -9.08156503849475
  C   -9.33097668793866      1.33831814822752     -6.45843327775674
  H   -9.54970973020114      0.40397603758576     -5.91485819543286
  H   -10.28524492460169      1.81674632932168     -6.71835134972886
  H   -8.79345845223110      1.99904757296739     -5.75781157491830
  O   -8.52521369445691      1.44960261300105    -11.26574049599602
  H   5.27400518268660      2.40429762691660     -3.15272526842378
  H   7.50770347820875     -0.16804515751589     -1.64360403456936
  H   9.33895729916551     -1.21501443987250     -2.92359001722469
  H   6.45503893222073      2.17097000115863     -5.13875081102066
  C   10.01183994471667     -0.71127278973756     -5.58162605430286
  C   10.13051899893622     -0.29341671195493     -6.87248831005592
  C   10.94417309848489     -1.73908040903990     -5.00278342766915
  H   11.68439753652135     -2.06688660191234     -5.74555696423030
  H   10.38934110558593     -2.62598298159403     -4.65334633961185
  H   11.48473496158100     -1.33543718867622     -4.13033038579584
  C   9.25176653229997      0.70105793912227     -7.47770467271016
  O   8.26068919771638      1.21688835867512     -6.64124626289462
  O   9.30146280681623      1.10871378033654     -8.60729712531158
  H   10.90316212881558     -0.68711631347341     -7.53531569934202
