46
Coordinates from ORCA-job 2016_0.0
  C   -0.23570159483862      1.46055584834370     -0.58114120635196
  C   0.12302029483443      1.09388699185289     -2.08025953182229
  C   0.35320146346700      2.39643611422504     -2.83456069140887
  C   1.11834795536872      1.99806586342254     -0.08860134193882
  C   2.02139857456510      1.81830377705713     -1.38508153994379
  C   1.53931916803155      2.84436851722601     -2.40730590459253
  H   -0.36829974276257      2.89834351260580     -3.47895423576372
  H   2.03499974275027      3.78754380058639     -2.63442915314407
  C   -1.22380284837087      2.59618635591610     -0.36463742187345
  H   -0.58267649305125      0.55928239531470     -0.05633564436312
  N   -0.50445909775286      3.68891439820483      0.14414561454741
  C   0.84931052923982      3.42859696407194      0.34565498513322
  H   1.55286577825810      1.42495088933812      0.74403616385299
  O   -2.41395917406534      2.58906354087871     -0.56260365480366
  O   1.64629689136021      4.23003775148512      0.78296959164701
  O   1.45124154945837      0.60614745982045     -1.89515260642141
  C   -1.10605962297825      4.99105458039929      0.37543809930616
  C   -0.72305238618670      6.01347432468620     -0.69570680169355
  C   -1.37048670732351      7.36977897067538     -0.42722268800769
  O   -1.03956716450297      8.19835798574614     -1.51889329344929
  C   -1.63759670561844      9.47953636140497     -1.49849635637788
  H   -2.19509157052621      4.83563728588833      0.37445286449501
  H   -0.78315436758604      5.35734748201568      1.36249992957222
  H   -0.52521637601733      0.33700650613342     -2.53679453798019
  C   3.50068340081661      1.71951603252397     -1.09862534268458
  O   4.22761034021299      1.72754986455255     -2.29588107279420
  H   3.68567156818077      0.79122140280792     -0.51814455406321
  H   3.77954475649874      2.57629311208243     -0.44921638291434
  C   5.62441622954307      1.63271025470405     -2.11970652758276
  C   6.29782787230106      1.66090100202740     -3.47930053176788
  H   5.87904031259945      0.69524382040805     -1.58043143530938
  H   5.98875993826303      2.47011174071268     -1.48633003632044
  H   5.94881828788070      0.82122092080373     -4.10035159551065
  H   7.39134942436977      1.58501585935689     -3.37021403715754
  H   6.06406921788623      2.59794790058639     -4.00869916234247
  H   -2.47183793280371      7.25319491999760     -0.34831204012598
  H   -1.00317081135604      7.80020367377386      0.52726184871534
  O   -1.13507655065015      5.52385351859264     -1.95407819646836
  H   0.37592593581870      6.15372905319546     -0.66973333374233
  H   -1.05742020251102      6.27280722810993     -2.56478631543045
  C   -1.19569810595409     10.25303787178370     -2.72689222360032
  H   -1.34298594248744     10.01820525694589     -0.57387896520025
  H   -2.74327653146744      9.38266829898784     -1.47309292374787
  H   -0.09968954044754     10.35865886462594     -2.74499258491669
  H   -1.64318144536260     11.25939526526752     -2.72936942992408
  H   -1.50628831708368      9.73383646085459     -3.64741579572924
