80
Coordinates from ORCA-job 2018_0.0
  C   -0.91769220356538      1.55443496309579      0.41325510464591
  C   0.09103806848702      0.76367939537504     -0.53917253060919
  C   0.24056985994753      1.60884064606169     -1.80847575717050
  C   -0.06836767665277      2.76498433712233      0.82474562789287
  C   1.26717203042648      2.48091948835581      0.02799325799818
  C   0.97535257707226      2.67104234633629     -1.45424391506137
  H   -0.24410709986426      1.41246178677107     -2.76550123133979
  H   1.23839970242697      3.54611272888402     -2.04962684585651
  C   -2.17097159134504      2.13958013288659     -0.21620753423341
  H   -1.19876776576513      0.90016332507246      1.25151387568480
  N   -2.06857754622911      3.54450981005499     -0.17783806374680
  C   -0.86301214044821      3.98924972067295      0.40860700200031
  H   0.15118548691544      2.81668531744078      1.90066701037345
  O   -3.10638827439385      1.52635998081801     -0.67315493125309
  O   -0.53706726921724      5.14299647346624      0.53954095850315
  O   1.31719888400606      1.06233479954571      0.14641923223320
  O   -7.02403183422828     12.43564332624839      1.40176060241988
  H   -6.88068464853301     15.15855157392197      0.85082884167682
  C   -6.33129832971182     13.08495852568643      0.65801965765680
  N   -5.70322454794644     12.59222087274813     -0.50835287978533
  H   -5.42969886692251     15.66921735354556     -1.04657800068790
  C   -5.96522119676349     14.55209471774386      0.80360577093709
  C   -4.92144963306067     13.57076428070211     -1.15898379638597
  O   -4.24861821725674     13.38579305995973     -2.14474502807142
  C   -5.06024858473056     14.86932322326336     -0.39092159234196
  C   -5.01402667359465     14.93590323600725      2.01145502794072
  C   -3.75049156517204     15.38502214350773      0.33718668450391
  O   -4.34671586983673     16.06374776896803      1.44714202234129
  C   -3.89752589844119     13.90055885389938      2.06837210049243
  C   -3.10681472009827     14.17649082582641      1.02323401972677
  H   -3.83884822163136     13.06138703882940      2.76252033322742
  H   -2.25025595444065     13.61377002100507      0.64958674808490
  C   -5.79390455931763     11.23350053189385     -0.94628407605910
  C   -5.93492356870508     10.94316351621510     -2.30908211064557
  C   -5.73748161603301     10.18298531730890     -0.01767839584441
  C   -6.01409771478682      9.61417976783560     -2.73166855718698
  C   -5.96700268846368      8.55218969369791     -1.81781574879796
  C   -5.82696393916070      8.86294921530357     -0.45549767134073
  H   -5.63847864619663     10.39920021948236      1.04512321413109
  H   -5.96712039213761     11.75110791394723     -3.03954467915528
  H   -6.11953393869019      9.40328468913137     -3.79988784241871
  H   -5.77751793947501      8.05570151527892      0.28012785569576
  C   -3.06710332002697      4.42544548036523     -0.70213626387813
  C   -2.69437258673699      5.54137511541712     -1.46684722794456
  C   -3.67227253869189      6.40070380577194     -1.96406899016218
  C   -5.03733152451352      6.17039966602128     -1.72528316570498
  C   -5.39044332703421      5.04668853909834     -0.96569998018737
  C   -4.42222307626469      4.18011263439645     -0.45237392309436
  H   -1.64111753544473      5.74381345701566     -1.65862568966062
  H   -3.36618440247546      7.27249921372804     -2.54910095728511
  H   -6.44593762164441      4.83939162112279     -0.76698220070539
  H   -4.72279972722409      3.31033690393164      0.13109780476675
  C   -6.09223165230073      7.10986519047556     -2.28122385584393
  H   -6.05681507475767      7.08760365075488     -3.38378143751818
  H   -7.08940485862170      6.72681077433341     -2.00277186522059
  H   -5.52822246960328     15.19660192565526      2.94322842485267
  C   -2.83515246622671     16.27531541146417     -0.47110128184907
  O   -3.61214305141685     17.27867904292702     -1.10823452448418
  H   -2.31236534940915     15.65106382311368     -1.21642267838311
  H   -2.09187321368836     16.71857984596789      0.21235461806851
  C   -3.06175747934221     18.27843735532108     -1.85297189735515
  C   -1.54991144174272     18.32611851124447     -1.94366812989892
  O   -3.79153216010539     19.06476446964770     -2.38908941682178
  H   -1.09809699396484     18.47429774613189     -0.94979815165500
  H   -1.27252341109085     19.16341463697442     -2.59476634028763
  H   -1.14079283863135     17.39062258769577     -2.35672651194076
  H   2.16396589335976      2.95384343169958      0.44417036803951
  C   -0.09055507471904     -0.73879060197875     -0.65560185726796
  C   -1.31902532765356     -1.17868246185775     -1.43990885947567
  H   -0.13497378778035     -1.16394763682008      0.36072502929664
  H   0.81504893016267     -1.14880996106781     -1.13141472176852
  O   -1.35409458919989     -2.61301867847927     -1.38107155325962
  H   -1.27654383329236     -0.86165462350888     -2.49400933524309
  H   -2.25123859058464     -0.76579718600030     -1.02281551377253
  C   -2.22575309959334     -3.23659452611406     -2.20338231623637
  C   -2.16644957350482     -4.73415446454096     -2.01711022101092
  H   -1.14859673186115     -5.09929833310977     -2.22571939415309
  H   -2.88442206610739     -5.21692772951231     -2.69104664624793
  H   -2.39644023577456     -4.99317924741575     -0.97178829167725
  O   -2.94211906895820     -2.65166384378782     -2.97620680520474
