31
Coordinates from ORCA-job 2019_0.0
  C   -0.19390468062672      0.38961925870041     -0.20315885232291
  C   0.08285627663953      0.05743705212135     -1.72832335580518
  C   0.02686601193412      1.39747326601262     -2.45959953297350
  C   0.97534152203445      1.30121460189463      0.24871707700754
  C   1.87255999144233      1.49662872135966     -1.01697093471353
  C   1.02532163893435      2.19907816985155     -2.06624833856034
  H   -0.78696466209065      1.66989110301539     -3.13486988630290
  H   1.17821414782485      3.23969599172340     -2.36042152826188
  C   -1.45244191096751      1.20227039640522      0.11940626276166
  H   -0.24258421400091     -0.55420229886817      0.36068139142585
  N   -1.05718496634285      2.42442631782286      0.66247970827414
  C   0.32565727392305      2.58037711214739      0.76193178501452
  H   1.57285369918005      0.85911213654824      1.05947349324297
  O   -2.60990194778671      0.88014732328164     -0.03155562501605
  O   0.87821533179772      3.57188496112481      1.17776002220225
  S   1.94326804700038     -0.24410842296496     -1.64864901513544
  H   2.85518832048609      1.93325020846598     -0.80510239035931
  C   -0.64443935746183     -1.13928319711312     -2.34393370972614
  C   -2.14247960358266     -0.96891919379018     -2.61652895865977
  H   -0.48559936406609     -2.00852808147861     -1.68176132342270
  H   -0.12863840154612     -1.37887693947701     -3.28970687256303
  C   -2.00627152661689      3.45420787601327      1.07597063148754
  C   -2.44450099717429      3.30965218992596      2.53304206107034
  H   -2.87290777288651      3.38032867257886      0.40267699542764
  H   -1.51044587518591      4.42305311282728      0.91642326245965
  H   -2.94330499664935      2.34257615107750      2.70078612396127
  H   -3.15659231170097      4.10926694799203      2.79250559325329
  H   -1.58261415958910      3.38828743995574      3.21384758384989
  H   -2.54805856023209     -1.89529560139777     -3.05418691914234
  H   -2.33580314149782     -0.15855297116985     -3.33849165314931
  H   -2.70385381119192     -0.73962230458617     -1.70040309532420
