40
Coordinates from ORCA-job 2020_0.0
  C   -0.29541068592022      0.11644900166764     -0.61817804033702
  C   0.17645115120986      0.06275848293041     -2.12552781978739
  C   0.08700555130175      1.49708271358548     -2.63755840523659
  C   0.76373043373095      0.98103685957745      0.11308661380587
  C   1.76307335499898      1.44797573119934     -0.99737418279919
  C   0.97631706793630      2.27381715150710     -2.00506008296321
  H   -0.68063700313573      1.81740057111896     -3.34513330047691
  H   1.08155089917659      3.35641167770013     -2.10332888969704
  C   -1.62078899370262      0.83769602394837     -0.35267749848154
  H   -0.37651496264511     -0.90735665844827     -0.22390553031722
  N   -1.36251830476310      1.93803674170085      0.46714233086516
  C   -0.01037719549790      2.11568477668819      0.77086415004212
  H   1.30999141642887      0.42641872235568      0.88959783231309
  O   -2.72644152151507      0.54415503596548     -0.74534828457123
  O   0.43024641635491      3.02890043495442      1.42704157884830
  S   2.03137056738024     -0.15261040120109     -1.89652935446084
  H   2.68642451667070      1.89270409681029     -0.60931829101476
  C   -0.38003184731232     -1.04381131362172     -3.01085092637250
  O   -1.77739187688441     -0.89261271504115     -3.25319735463019
  H   -0.18834292587705     -2.02585933382574     -2.55497959236519
  H   0.11361338253794     -0.99264562743656     -3.99313398707087
  C   -2.40013228408252      2.85665308846317      0.90791058359021
  C   -2.99988536406860      2.43176604241501      2.24491908245305
  H   -3.18473304532909      2.87827771258608      0.13835411444440
  H   -1.95000222359985      3.85509814153852      1.00263297092433
  O   -4.00837445445471      3.39474347548258      2.55905926831920
  H   -2.23649426057956      2.41299551507932      3.03899531041948
  H   -3.44736743487827      1.42670122724788      2.18015096121243
  C   -2.62851815770133     -1.71453040770190     -2.57750071934053
  C   -4.05785996470242     -1.42026606842877     -2.94047070137090
  H   -4.35499527441154     -0.50490270197564     -2.40598411607082
  H   -4.69712166453280     -2.25240660563906     -2.62035302708193
  H   -4.16078794675730     -1.23847704402975     -4.01984445931189
  O   -2.25409532656677     -2.55494848016458     -1.79976357787319
  C   -4.64733782880426      3.23866149603239      3.74221426845929
  C   -5.68499253535839      4.31558589071195      3.94270804452581
  O   -4.39563672428966      2.34536166652635      4.50996758375891
  H   -5.20783433586287      5.30763743536388      3.91349801221050
  H   -6.18613377138416      4.16760839448217      4.90684189612770
  H   -6.42189684310926      4.28438924987502      3.12501353931113
