25
Coordinates from ORCA-job 2021_0.0
  C   -0.04565605428529      0.43624913933678     -0.15935026022905
  C   0.10023116581252      0.19753852573715     -1.72413970387122
  C   -0.16834485289328      1.54535982663088     -2.40035216749167
  C   1.18331074731277      1.31194991264192      0.13804624948302
  C   1.82176875142945      1.42417904643601     -1.30555456538146
  C   0.90555856993476      2.30370855151518     -2.14701132404967
  H   -1.09784868947450      1.82194914448458     -2.90010139230957
  H   1.07439265354761      3.35447091561998     -2.38599032563769
  C   -1.24440270696837      1.25135210170740      0.29372679259312
  H   -0.03984055045607     -0.53747349917509      0.35189781408563
  N   -0.76422169968641      2.45786230355609      0.81153753738025
  C   0.62565776346454      2.58949934854821      0.74699902934565
  H   1.90753106675874      0.85413007882451      0.82697665168653
  O   -2.41325276759786      0.94711558744553      0.22298119354850
  O   1.23330459005099      3.56756276538472      1.11480799857205
  O   1.53316956979073      0.12034027224393     -1.80511241014013
  H   2.89730827591676      1.63472261348661     -1.32119881827668
  C   -0.58343896005721     -1.03064887489791     -2.27240583388339
  C   -1.62657930098519      3.51188823060016      1.31083490103890
  H   -0.39366460602351     -1.12926825780097     -3.35198819734546
  H   -1.66857630673871     -0.96036229048757     -2.10204960084423
  H   -0.20860932950389     -1.93410246779637     -1.76721134251459
  H   -2.64642353825854      3.11132109946842      1.37642371319272
  H   -1.61429102479427      4.38025404407780      0.63289463149701
  H   -1.28012276629576      3.84378188241204      2.30043942955144
