40
Coordinates from ORCA-job 2022_0.0
  C   -0.17170853064276      0.09761740413805     -1.14482939687243
  C   0.47405078922290      0.22084141025047     -2.57036234595166
  C   0.64086126617245      1.70644838141449     -2.89524504597774
  C   0.84595504989476      0.75237394888641     -0.17993153892716
  C   2.04694312810355      1.19019560883856     -1.08287998498189
  C   1.52695517616287      2.24772114885514     -2.04290622417338
  H   1.80995320826040      3.30123450621264     -1.98669415557101
  C   -1.46964325128981      0.86876997074356     -0.93199488114508
  H   -0.35778463615926     -0.96364103374338     -0.92680047215091
  N   -1.22343009527389      1.88394762154748     -0.00762405756554
  C   0.09249064686936      1.90875937230476      0.47065262547467
  H   1.19634173033407      0.06989719772296      0.60831768534699
  O   -2.54485865193632      0.66336784618802     -1.44749754080785
  O   0.51969369377810      2.72332795596585      1.25256597748224
  S   2.22438161073807     -0.30191228643378     -2.18893734024881
  H   2.95957544072633      1.43847979231555     -0.52949206999378
  C   -2.22457583340209      2.86639034891427      0.37584536510524
  C   -3.11890280524554      2.35811751169483      1.50199323101083
  H   -2.83362421094369      3.09990241785624     -0.50940031146070
  H   -1.69275042553150      3.77177989564390      0.70076641976617
  O   -4.04475273923220      3.40882188141992      1.78835932056556
  H   -2.53068667958905      2.11925655578268      2.40286624584140
  H   -3.66317184071908      1.44913404575510      1.20005179478865
  C   -4.93834955516047      3.17526556017118      2.77787924497651
  C   -5.83964618607419      4.36734798012328      2.98500029219384
  O   -4.97721616812079      2.14161148616179      3.39523608149523
  H   -5.24080825209677      5.23642013476662      3.30054956994348
  H   -6.58905838933316      4.13294165340067      3.75046916511387
  H   -6.33283663931958      4.63897693134097      2.03900531435580
  O   -1.67084605586202      0.52981114560331     -5.10534999435743
  C   -0.06362738969252      2.40307973597741     -4.01963013963309
  C   -2.19739390966288      1.43697539857248     -4.50808511489820
  H   -3.93708396192664      1.33656485029693     -3.30479577144372
  O   -1.49588904092754      2.41609764680137     -3.88093726934986
  C   -3.67867952866770      1.63378432317516     -4.33320454460731
  H   -4.21938379526513      0.99893868317687     -5.04594939276723
  H   -3.95181751934513      2.69089780618109     -4.46304080371181
  H   -0.01258090233231     -0.38192996364011     -3.34475861008200
  H   0.24278745445762      3.45818597854443     -4.05402231926703
  H   0.19112779903162      1.91627914707268     -4.97482900751477
