40
Coordinates from ORCA-job 2023_0.0
  C   -1.07707983817998      1.34311384678488     -1.51293393575881
  C   -0.07196629939226      0.17715278856490     -1.83985617468590
  C   0.63048251904520      0.61560705953009     -3.12661096224261
  C   -0.19403856698321      2.58975114184701     -1.26230366308586
  C   1.27785262484883      2.10336022601229     -1.44140098678629
  C   1.39704472042611      1.68854841866142     -2.90075568229053
  H   0.43000917676427      0.13766366785609     -4.08741341071646
  H   1.95645547729030      2.26155846033226     -3.64349364516186
  C   -1.86735294822635      1.16165120044779     -0.21851505771305
  H   -1.79160099990817      1.45211496788978     -2.34268370165273
  N   -1.52003810332931      2.19364408704055      0.65492368485955
  C   -0.52242232402577      3.03472394376898      0.15926629921361
  H   -0.40280143398049      3.42895293035634     -1.94486698011090
  O   -2.66585504642261      0.29076331844201      0.03770561897632
  O   -0.02265501677614      3.94700203729449      0.77188902946877
  S   1.25860031692700      0.46714181618879     -0.55135469301265
  H   2.02950390301654      2.79767839646928     -1.04843213829494
  C   -0.63614916049976     -1.22998574199777     -1.82716712530194
  O   -1.65415053169212     -1.27972219742466     -2.83535680289058
  H   -1.07335436159809     -1.48574404497872     -0.85171837023187
  H   0.15267994040723     -1.96444764294876     -2.05663432158955
  C   -2.05476398353128      2.30716419660354      2.00194319454958
  C   -3.29039509553064      3.20132939762932      2.03987331033161
  H   -1.26834863555249      2.72929527840597      2.64377894956504
  H   -2.31152517476354      1.29713514417142      2.35160543539965
  O   -3.72088273643842      3.24548255316633      3.40157947088016
  H   -4.09481534616277      2.79794868612197      1.40379419278979
  H   -3.05711526617814      4.21903168053719      1.68710505672051
  C   -2.35465820399134     -2.43725012490199     -2.92697001282862
  C   -3.45690771058410     -2.32323234961628     -3.95012375475130
  H   -4.22233483164833     -1.62144174984999     -3.58139914111639
  H   -3.91081879062126     -3.30832123027674     -4.11226078904284
  H   -3.06771733261362     -1.91793136556895     -4.89619580978538
  O   -2.10799480789046     -3.40520298863096     -2.25557719608765
  C   -4.81871574630888      3.99110898563699      3.66555154524008
  C   -5.15881726937325      3.95225910702531      5.13498771229734
  O   -5.42091999902839      4.59475185408061      2.81436823325782
  H   -4.31202161086598      4.33373986257593      5.72672367275621
  H   -5.33459556156042      2.91277455632807      5.45291925119620
  H   -6.05230594506784      4.55996982642514      5.32182969763649
