66
Coordinates from ORCA-job 2028_0.0
  C   1.50014400630251      0.35627540418702     -0.19921150211564
  C   0.66639407297612     -0.75073684499917     -0.37433990582037
  H   -0.00200439469522     -1.06960227245383      0.42623318017043
  C   0.68264419450644     -1.45508169814352     -1.58709162311083
  C   1.51939480279518     -1.05311201168438     -2.63008508531640
  H   1.53107283133597     -1.60905170800375     -3.57131694594657
  C   2.33930441038309      0.07136127229797     -2.47093646043441
  H   2.98701553447303      0.40458557376661     -3.28709595163156
  C   2.32602048434158      0.77038614694360     -1.26436339543528
  H   5.52789061301958      1.22427469238139      3.77913289080621
  C   5.06910982801339      1.38762841590552      2.80029842462947
  C   3.68965658654141      1.19447306365108      2.64416683882792
  H   3.08159981565926      0.89099276617659      3.49753147339906
  C   3.09729733338567      1.39360785696368      1.39479426304062
  C   3.89390617958100      1.80637130995407      0.30782334629249
  C   5.26578749729967      2.00605363167312      0.46697041705619
  H   5.87148946774518      2.33271349321572     -0.38290711677725
  C   5.85636277172787      1.78898133130854      1.71812060964486
  C   3.11523368757323      2.02846617579055     -0.97133237682714
  C   1.59601067243432      1.25972682615884      1.05463488142253
  C   1.15940899165561      2.69053733898380      0.51868862330599
  C   2.04237024095970      3.12590639835876     -0.67204587041629
  H   0.03254532982525     -2.32517868690888     -1.71238017685488
  H   6.93164943347929      1.93824347867287      1.84706686530527
  C   1.31348241151157      3.81627739409655      1.54449913506192
  H   0.09488562345251      2.63190617033250      0.24588453807816
  C   2.66450153741872      4.45046772114527     -0.24884018846442
  H   1.45346089113002      3.30202954495006     -1.58502867455733
  N   2.21358381515753      4.75020711126087      1.03641480795021
  O   0.75797727146370      3.91358517585204      2.61659528438238
  O   3.42509726248652      5.14160580855950     -0.88530598526537
  C   0.72877248709042      0.83356774654558      2.22174871503654
  C   0.78877854791338     -0.36875398877075      2.82230052713573
  C   -0.01009462245147     -0.83009637786108      3.96992668201140
  C   0.06735879687375     -2.18215189151426      4.35972927867327
  C   2.61039719121683      5.95883185541089      1.74542804578567
  C   1.75226231691744      7.16915383907327      1.38283480735086
  H   3.65877086680604      6.16901405562608      1.48545334174296
  H   2.53625006470120      5.75615849224423      2.82237875676137
  O   0.37189831631680      6.93394164455742      1.67314292278617
  H   1.80108622780110      7.37221735454856      0.30390612484906
  H   2.11115233243231      8.04754525729235      1.94019307741052
  C   -0.01989405607130      7.10689343554938      2.96189296660927
  C   -1.44404801822762      6.66080344920720      3.15771933685519
  H   -2.07476487410745      6.96216963549435      2.30919007299181
  H   -1.83382403469568      7.06562200986156      4.09986572441044
  H   -1.44302499894833      5.55940370950986      3.20596313666931
  O   0.71053072424941      7.53773123715513      3.81848264774988
  H   3.75703314128407      2.33672468610414     -1.80737873106169
  H   1.49686550648604     -1.11118522157783      2.43534443380566
  H   0.04487841366512      1.59467438131852      2.60466780556564
  C   -0.86010096279290      0.01101314239317      4.71446018556558
  C   -1.61045648812747     -0.45936345067859      5.79262553208591
  C   -1.51800973211641     -1.81380804518680      6.14760630303751
  C   -0.67745215319155     -2.67184737913924      5.42885697868301
  H   -0.93418979100788      1.07069683250174      4.45932247516501
  H   -2.24744716688600      0.21475731380318      6.35886005856737
  H   -0.62156212316573     -3.72129567023874      5.72552995087102
  H   0.72273959605888     -2.86282751080096      3.80867363033018
  O   -2.22113372595039     -2.43371770296050      7.16907536259013
  C   -2.92057350756676     -1.80828453285925      8.15755626695077
  C   -3.54592140911469     -2.84134917120026      9.06234899326060
  H   -4.27336142519794     -3.44221150357705      8.49344274238057
  H   -4.05066805562248     -2.33799273638764      9.89573684333766
  H   -2.77766681777477     -3.53236824490425      9.44145380882039
  O   -3.02230377073574     -0.61711753093267      8.28226687481497
