51
Coordinates from ORCA-job 2029_0.0
  C   -1.47755394043207     -0.95024982408139      3.08132694637145
  C   -2.68332230607400     -1.48024308750448      3.57799532501240
  C   -0.38684236166463     -0.91171155765681      3.96133969518361
  C   -0.47953100134411     -1.36158685351966      5.28366276806067
  C   -1.69523284556027     -1.87405411939494      5.76157204145289
  C   -2.79608403520242     -1.93216900652613      4.88989054332669
  H   0.57393438647393     -0.52717488936900      3.60941218507407
  H   0.39978294554776     -1.30565071720621      5.92612129693572
  H   -3.73599771852398     -2.34025974647555      5.26839944238312
  H   -3.55665556281946     -1.55318435528548      2.92502504638727
  O   -1.90029404920077     -2.33086404586009      7.02348779454421
  C   -0.84212881232283     -2.29671654891921      7.96722615531221
  C   -1.36686091995105     -2.84144069682990      9.28254142525946
  H   -2.20658256670570     -2.23033662830872      9.64838692359525
  H   -0.57107996359585     -2.83298668257579     10.04395137240858
  H   -1.72256940920856     -3.87638880440100      9.16084768227970
  H   -0.47795382492208     -1.25858846237522      8.09152089328675
  H   0.01009483084512     -2.90287286862831      7.60367637700613
  C   -1.31489782711055     -0.52795389260808      1.63365260730727
  C   -0.52619312259447      0.79598650262988      1.33342329016684
  C   0.39965410271118      1.82766645966547      1.95545636672709
  C   -2.80617267768851     -0.01136852616409     -0.51412542070336
  C   -1.97695246391381     -0.76410738147907     -1.36484934226149
  C   -3.93478777989525      0.58907254412862     -1.09490491576779
  C   -4.23331160132939      0.46321963854258     -2.45474531046814
  C   -3.38863930673350     -0.29139935783516     -3.28539837772249
  C   -2.25858000849825     -0.90480002925582     -2.72246596600711
  H   -4.60929170127267      1.17750779072636     -0.46456000118983
  H   -5.12418913784673      0.95146619800595     -2.85112579918604
  H   -1.60951134711082     -1.49360252428241     -3.37449231162709
  H   -1.08998403544707     -1.26376286968929     -0.96976533407165
  O   -3.58104626897629     -0.48419404870292     -4.61533043664978
  C   -4.69573603210759      0.10839953918934     -5.26200759167520
  C   -4.64333727625050     -0.27123532813031     -6.73017715860580
  H   -3.71120658485863      0.09014011734869     -7.19158987375036
  H   -5.49492566756581      0.17197571440249     -7.26996623420052
  H   -4.68464483475372     -1.36489250310479     -6.85054591341929
  H   -4.66423594565292      1.20844032783486     -5.14085545573517
  H   -5.63659083620679     -0.24675029328874     -4.79884665659398
  C   -2.55927772032114      0.19954183617355      0.96732923876382
  C   -1.84684026963039      1.53600851859271      1.38665833529953
  C   -1.44951716792930      2.88366771531310      0.81948944687849
  H   -0.94101571799764     -1.39416666671752      1.06353726419551
  H   -3.50988868115995      0.05069789729829      1.50007478011426
  H   -2.10759320111870      1.68408642482135      2.44950545278529
  H   -0.23136852503692      0.71928825087731      0.27242275996127
  O   -0.12125320934979      3.05389636646512      1.38295576348588
  H   1.45974619993352      1.74733029687403      1.66394233059567
  H   0.33321073241587      1.86359519776661      3.05833720533279
  H   -2.06704312183120      3.73468064555844      1.15033235914116
  H   -1.39882181021084      2.88812433396140     -0.28509901500027
