51
Coordinates from ORCA-job 2029-2_0.0
  C   -2.13444954559062      0.60106106335412      3.24931411131583
  C   -3.02989687639481     -0.40303717544694      2.83065862248930
  C   -1.29511549570734      0.29420747569349      4.33060133181184
  C   -1.31158887401183     -0.95790768217167      4.95814847785141
  C   -2.19666784458935     -1.94903874752606      4.50978717444364
  C   -3.06094698726497     -1.65276670718440      3.44237627852649
  H   -0.61333998415984      1.05443316002479      4.72089931041641
  H   -0.63527403875184     -1.14211038757008      5.79349153721201
  H   -3.75526165679211     -2.42694331002146      3.10787122823208
  H   -3.72191213110228     -0.20383139218832      2.01142063152505
  O   -2.29491798358182     -3.19699551803142      5.03907976646102
  C   -1.44467057328999     -3.57732656974237      6.10728021039417
  C   -1.76241980998082     -5.01537892209672      6.47246101200401
  H   -2.81442928654605     -5.11385780635034      6.78232211455594
  H   -1.12076107296845     -5.34992002985081      7.30288622416457
  H   -1.59465304797567     -5.68078391202588      5.61134260157138
  H   -1.60229990961912     -2.90962041799581      6.97661407301763
  H   -0.38459522763903     -3.47542578764562      5.80387696426621
  C   -2.17216653411306      2.00019183241241      2.67310246655279
  C   -0.88340394029011      2.87949934396497      2.55311276360045
  C   0.49101679215210      2.22937667786324      2.31259824963418
  C   -2.74695779857451      1.29074350563721      0.09995922530603
  C   -1.80753710515174      0.27666879223098     -0.18931035734480
  C   -3.92450151889979      1.30219595549707     -0.66242442708027
  C   -4.18121234591169      0.35927325629827     -1.66609314407482
  C   -3.23551275833518     -0.64128564197116     -1.93171028100950
  C   -2.04577729120558     -0.66743769511676     -1.18221383572233
  H   -4.67849630889053      2.07157292590970     -0.46771483501794
  H   -5.11587385336852      0.41721741487828     -2.22486337870795
  H   -1.31607270418136     -1.45071213824304     -1.40004785235184
  H   -0.86886801342701      0.23490288035100      0.36442612331563
  O   -3.37500767194328     -1.60919443952137     -2.87441628091179
  C   -4.55038175733881     -1.65848084107416     -3.66515181807695
  C   -4.42853541727532     -2.83445745065118     -4.61643139912001
  H   -3.55035858507512     -2.71601410119371     -5.26998912023242
  H   -5.32724646981863     -2.90956103156607     -5.24879919541688
  H   -4.31537705954179     -3.77617078030234     -4.05711568224533
  H   -4.67105124198971     -0.71188262868019     -4.22689467201906
  H   -5.44063385592475     -1.77015713825936     -3.01618890813658
  C   -2.55665026477952      2.34081146131883      1.17250556418452
  C   -1.32333288949030      3.31734439895695      1.11785750060867
  C   -0.12404254676647      2.96323187327623      0.23775018492607
  H   -2.88117381369115      2.56744234147086      3.30098981309456
  H   -3.47963595403692      2.93864791042201      1.17976923302064
  H   -1.61926928757439      4.36999252598935      0.99829874871022
  H   -0.81561521859813      3.67159526649164      3.31348501262186
  O   0.57180167726407      1.93648369260827      0.92678872761547
  H   1.28607806350734      2.94859409476057      2.59969096952524
  H   0.66097661865171      1.29305619070231      2.86133685652013
  H   0.52435031758809      3.85580119950454      0.11404341015725
  H   -0.39039091700395      2.58692301281017     -0.76120133218425
