132
Coordinates from ORCA-job 2033b_0.0
  C   4.21519026557083      3.81236496614490      6.02873262482580
  C   5.43689581827439      4.29015237188377      5.16068238248238
  C   4.59074038546111      5.60825590689571      4.85784900790912
  C   3.60541213603855      5.28966904799089      6.03234505326684
  C   3.46876526447323      2.85863549239940      5.05536447697941
  N   4.31878461415079      2.55984543608455      3.99686812336031
  C   5.49710802875130      3.30155291465807      3.97750237699419
  C   2.19553964655136      5.40450190721983      5.43970855283640
  N   2.34841228530906      5.50579202414164      4.05041592383809
  C   3.66950495464643      5.51764912454882      3.61817902021914
  O   2.35039504165559      2.42766140131787      5.18609860232641
  O   6.37362323952153      3.16898828241592      3.16306529007696
  O   4.01214374346528      5.47584714937644      2.45899038253443
  O   1.13468063002950      5.40677473284962      6.00484989625100
  C   3.98459625494166      1.59132531847301      2.96250507048164
  C   4.63966660679268      0.24052649346069      3.23735560244906
  H   4.32599017972739      1.98955201501016      1.99603041850005
  H   2.89082373104679      1.48658706154615      2.95059221353080
  C   1.21112484844344      5.52170200727593      3.14153741823075
  C   0.58205362019825      6.90968260529788      3.07229848954828
  H   0.47158455294308      4.79223329953826      3.50328791023437
  H   1.57457385372439      5.21407490298123      2.15125709140433
  O   4.19457587366292     -0.64391865474061      2.20627822001969
  H   4.34324711385736     -0.15263727665958      4.22348289602102
  H   5.73762626369454      0.31875276201175      3.21908806212919
  O   -0.50201406263799      6.82921888591221      2.14365297120078
  H   1.31239495415840      7.66110081338899      2.72868479750519
  H   0.20859132666043      7.22514950388808      4.05786553972571
  C   4.69398436925179     -1.90097138302454      2.22729156477856
  C   -1.29108178580985      7.92435108722521      2.04297135975915
  C   -2.39633710111321      7.74774921904632      0.99034793492588
  C   -3.14101600933423      6.42118194659831      1.24530449957358
  H   -2.47018657948077      5.55481631768956      1.15831511712426
  H   -3.96663654489530      6.29754576422933      0.52728635639977
  H   -3.58159358135110      6.41021911019479      2.25542553405179
  C   -3.36427057175258      8.93517526450680      1.11729838513316
  H   -3.81748002512783      8.96091069115105      2.11986056523000
  H   -4.17555998317184      8.85797146718676      0.37874918023721
  H   -2.84585423084996      9.89171880699567      0.96196106982250
  C   -1.67005598685926      7.75591461750422     -0.39119668176606
  C   4.12880318566496     -2.75877293068620      1.07495305460600
  C   4.81135745781095     -4.15344673168309      1.17373661394561
  C   2.59767566842747     -2.84510501976028      1.26340346686203
  H   2.33592917812875     -3.36431681380820      2.19984955578674
  H   2.13325839090998     -3.39365608266472      0.43010267595691
  H   2.15250412283995     -1.84043050777394      1.29467662544354
  C   4.46129530731730     -2.02817738234284     -0.24772357026845
  H   4.02558464483510     -1.01908878058653     -0.25768219832620
  H   4.06479247777587     -2.57870512629839     -1.11155350937846
  H   5.55087304940893     -1.93268574865306     -0.38256613259323
  O   5.47915737491474     -2.26276519755247      3.06794245062228
  O   -1.10078405159651      8.91693932989825      2.70107342777963
  C   4.11316582373939     -5.38667577310351      0.54024621298997
  H   4.93687495619265     -4.37068731014976      2.24402411806843
  H   5.83450687077267     -4.07846043355477      0.76761455951684
  C   4.03910662526695     -5.41070951061664     -0.99434255512181
  C   3.29350086720933     -6.62241087261181     -1.56064287437671
  H   5.06589400630096     -5.38482138523780     -1.39630783675960
  H   3.53959947339587     -4.49399676973737     -1.34261590359559
  H   3.80158051990900     -7.56485845641032     -1.30382833650794
  H   3.23435650369961     -6.56952235521047     -2.65963046971793
  H   2.26047728659377     -6.67610233102987     -1.17567197310746
  C   4.87789422915026     -6.60430353394326      1.05220274309006
  H   3.09729894869807     -5.46514247209234      0.95974752079659
  O   4.42540680026547     -6.99829001202499      2.25973204145739
  C   5.12416019636663     -8.07928330148461      2.87814312549415
  H   6.18059540618576     -7.81830466972877      3.04594094387285
  H   5.08594113398484     -8.98193846311890      2.24908343800177
  H   4.62122339142040     -8.26135874828037      3.83639659000622
  O   5.80083680714448     -7.14123146697064      0.48848084191622
  C   -2.57288916201632      7.55614139254358     -1.64633581007227
  H   -0.89725334942882      6.97134025638338     -0.39007832175217
  H   -1.13503416691190      8.71667903547561     -0.46433026120832
  C   -2.47664759893504      6.13780682343751     -2.23097958679362
  C   -3.52360826872238      5.82825130116109     -3.30270085597033
  H   -2.56918454860113      5.41500730377755     -1.40425558997201
  H   -1.46524980845361      6.00764824563124     -2.65142173809060
  H   -4.54899238378053      5.93563023593662     -2.90856681380554
  H   -3.41801073672581      4.79511152822433     -3.67082088078920
  H   -3.41907971999261      6.49955965532309     -4.16904037330555
  C   -2.20463166796609      8.60434419546638     -2.68996162701556
  H   -3.61862249519513      7.76764147187605     -1.36840966050690
  O   -2.67318256117497      9.82094082998581     -2.34167522770748
  C   -2.33774941830816     10.90474144597471     -3.20906648709783
  H   -1.24616087568224     11.03744473956015     -3.26739437452128
  H   -2.80623232078356     11.79876573717119     -2.77847844527423
  H   -2.71923776799038     10.72532315985462     -4.22601337480988
  O   -1.55648615204660      8.41242679804517     -3.68999050375693
  S   4.21312910557823      2.74674604053827      7.52832521882921
  S   3.72713477314853      5.98717097943169      7.71157389301445
  S   7.18337829055108      4.39592590529011      5.70202954169995
  S   5.39296087250642      7.24778690129100      4.79116165063020
  C   5.65590010512281      3.12877604270679      8.59954401064848
  C   5.60006490799634      2.15614599738921      9.78277518245380
  H   5.58834288481726      4.16696831251658      8.95143310474864
  H   6.58017525944754      2.99725983688321      8.02192935073654
  C   6.74961135582577      2.38275575942636     10.76836856445705
  H   5.62906101135349      1.11879160752862      9.40657641160285
  H   4.63363386288782      2.26983847818508     10.30435421028930
  H   7.73012267818481      2.24289083834616     10.28339690815911
  H   6.69042769820087      1.67478170038600     11.61027766467126
  H   6.72583806574113      3.40233296062010     11.18798511365492
  C   3.51994851957812      7.81178036542937      7.56554129357429
  C   2.25535548640771      8.34027107019312      6.88983950830622
  H   4.42269645262949      8.24720036790898      7.11295876593689
  H   3.52582241170188      8.09669211364214      8.63223682751074
  C   2.09922613957155      9.85162216523949      7.08321698413755
  H   1.37487749251994      7.80609943060996      7.28025372174910
  H   2.30248343637860      8.12257349076683      5.80963432261318
  H   1.99969466506090     10.11270250337162      8.15041107415563
  H   1.20213316254299     10.22341095982125      6.56355301692634
  H   2.96787952634131     10.40237883333366      6.68449531733671
  C   7.36716937764613      5.64888331620139      7.04377024929394
  C   8.64878576142037      5.33247716556589      7.81968124486276
  H   6.48236249229771      5.64662776830954      7.69315534403238
  H   7.42902777198144      6.64146298261001      6.58021192532745
  C   8.97097932002515      6.41194437613947      8.85699674248707
  H   9.49304681015606      5.23775273259091      7.11328587710515
  H   8.55467836547603      4.35121469381693      8.31516333368678
  H   9.11598118729563      7.39645336139984      8.38172989963797
  H   9.89327956213350      6.16869099521451      9.40822406765111
  H   8.15817748191140      6.51597108171131      9.59514976945272
  C   6.44508658549672      7.11182267858546      3.28033145843339
  C   7.39903708909834      8.30656709888895      3.22617476906895
  H   5.79304980020513      7.07811046775327      2.39707571918455
  H   6.99718334681574      6.16213302574262      3.33974972984859
  C   8.26828958593816      8.28174029538786      1.96557402224824
  H   8.04229650462511      8.30881725721796      4.12337630980323
  H   6.81841931534846      9.24605258248817      3.25802526298453
  H   8.88081397176993      7.36618628818297      1.91960614490239
  H   8.95197232380717      9.14525693443561      1.94029491289784
  H   7.65167839181756      8.31516353367249      1.05224354508400
