132
Coordinates from ORCA-job 2034_0.0
  C   3.27065375642615      4.56573445648924      3.23960138672623
  C   2.02772258608794      4.09994740770034      4.08665569292648
  C   0.81253097816322      4.56873169880723      3.25221002834854
  N   1.28507314968348      5.25100510423204      2.13830895983754
  C   2.67211261914259      5.28377390585923      2.02432276613467
  O   3.25800801159666      5.81169801709215      1.10971048614533
  O   -0.35473757784733      4.42438111615962      3.51721398261294
  C   0.40150211109048      5.88208945338030      1.16817609758204
  C   0.21338200308777      7.36706379925332      1.46782245755544
  H   -0.56369043807521      5.35866608202294      1.20760533098914
  H   0.84541735569422      5.75976869343512      0.16997281367276
  O   -0.65085944538251      7.88003740778033      0.45038445137781
  H   1.17528954647848      7.90184961523185      1.44763103596939
  H   -0.24102977879189      7.52122375821676      2.46001562724747
  C   -0.85685225098271      9.21716578525861      0.44741821902234
  C   -1.83893459679993      9.64922075591652     -0.66470716872194
  C   -1.49507986715640      8.88967439878547     -1.96428712092530
  H   -0.47081076561823      9.12069713589069     -2.29877987696314
  H   -2.18123792756523      9.17239925494602     -2.77355064978405
  H   -1.56848224170980      7.80301915672692     -1.81924135636385
  C   -3.24883311790999      9.24663802977041     -0.17038017141506
  H   -3.29042301471656      8.16857997130137      0.04663051984021
  H   -4.00743614442808      9.46368074613729     -0.93772958058198
  H   -3.52279228878420      9.79303140767513      0.74640407144230
  C   -1.69270282211580     11.19020236199214     -0.82169797355506
  O   -0.34291904672429      9.94315046670194      1.26183435850272
  C   -2.87047643041414     12.01383572082279     -1.40908310025208
  H   -0.78734847103254     11.40120851837186     -1.41653734945708
  H   -1.49029988918938     11.59057591139995      0.18206569784055
  C   -3.19254825479846     11.77636829464562     -2.89368180397348
  C   -4.36976726153021     12.60589618097110     -3.41430915829646
  H   -3.41973053251921     10.71005023775573     -3.04492249518233
  H   -2.28985432332767     11.99622958893310     -3.48827417980340
  H   -5.28889458666549     12.40901759221477     -2.83606961565894
  H   -4.58441325230850     12.36594941807482     -4.46806138833458
  H   -4.15926550972508     13.68553003246623     -3.36019109465915
  C   -2.49962727163773     13.47659591521873     -1.18040263590059
  H   -3.76963439322252     11.82426985523050     -0.80152481480535
  O   -2.96063723508009     13.92684303543116      0.00338598474884
  C   -2.60086296162409     15.26298845026856      0.35740116598056
  H   -1.50690503302083     15.37114238904884      0.41838567573833
  H   -3.05699064305237     15.45412192241542      1.33697677696342
  H   -2.97891573153747     15.98057100148733     -0.38704326778816
  O   -1.84152453056026     14.15495337814792     -1.93205035032267
  S   1.60837461259404      4.76723785638082      5.74701714578915
  S   4.43551125723003      5.69156394625737      4.09258109316551
  C   3.00303051917091      4.39804777580894      6.89705940095135
  C   3.13453429116844      5.54325081405853      7.90503980275050
  H   3.93339688415834      4.29250693879648      6.32369582798010
  H   2.78258501457807      3.44795462726093      7.40453631686963
  C   4.21405536237728      5.26597303355862      8.95445855173419
  H   2.16372684473966      5.70686504270847      8.40606283438858
  H   3.36253790428745      6.47497441936125      7.36108291811714
  H   3.99535663593299      4.35048846455651      9.52941713151066
  H   4.29012822007438      6.09914835958069      9.67118014326126
  H   5.20452761629722      5.13805553053531      8.48615088834545
  C   5.80562117946989      5.89173281047121      2.87140224035177
  C   6.93732355291378      6.67806730718119      3.53600394515214
  H   5.40841779851050      6.41807510030247      1.99336731951639
  H   6.14723784511744      4.89259500738764      2.56678441563109
  C   8.09302726688051      6.93979699371875      2.56628704081127
  H   7.30440707768405      6.11829447523683      4.41379697139285
  H   6.54761534942831      7.63896606531063      3.91744170421801
  H   8.52144142092289      5.99580826830919      2.19087562917319
  H   8.90205207075428      7.50380331210044      3.05747979389507
  H   7.75870521794075      7.52477459099709      1.69340413189732
  H   2.90903351901976      3.70236968557240     -0.31997636098092
  H   1.69700694230389      2.80088480563758     -2.44567719940212
  H   3.52830274915874      1.44411736897645     -1.32259469912993
  C   2.68858030977842      2.75204036241383      0.18704168161224
  S   4.08292966141135      2.38234483491199      1.33724501974946
  C   1.47805035843602      1.88519624022290     -1.87113422677518
  C   2.55739423622440      1.60734831988340     -0.82164669831503
  O   6.04589431608783      2.72555390505302      3.56746605274067
  H   1.40190323987200      1.05235493000528     -2.58822854093082
  H   1.75801198664136      2.85703956552420      0.76020111300152
  H   0.48756867122052      2.01312356450483     -1.40285847169284
  C   3.66345592263422      3.04986584549993      2.99741725340289
  C   4.87852992607261      2.58128273312869      3.83219772752251
  H   2.32937311454238      0.67528264032273     -0.27828886548920
  H   6.25165362493025      1.79917487841188      5.88472264928327
  H   9.00328406685354     -1.01176913205808      7.01981702248093
  H   7.28775592792813     -0.64733019186010      8.89056189068913
  N   4.40595121214766      1.89972659248364      4.94644014773243
  H   9.72211907558433     -2.30647909389007      8.00324629507014
  C   2.42046182982231      2.58404148851249      3.84441348616285
  C   8.96232838475964     -2.08988921367737      7.23693198382903
  H   -0.45374792230268      2.25755266211523      4.51974768839317
  C   5.28972795502127      1.26921964803204      5.91673889806747
  H   -2.83012360952859      1.15591991213195      4.89545777627525
  H   7.89734379428798     -2.01980707969215      9.84256979195069
  C   7.21167895261353     -1.73400881470039      9.03391505365009
  S   1.25560059613124      1.45832818988608      2.99140717146626
  H   9.13840271356649     -3.55384245465253     10.10998503157585
  O   6.35274201788052     -0.72554160635824      6.62768909804366
  C   3.01880365964055      1.86621862452033      5.05992852956610
  H   9.23493697771721     -2.63625959861820      6.31976314441268
  C   -0.11484506573181      1.25838983302026      4.21232956794912
  H   -1.61542865893404      1.04125584383713      2.67050519451254
  H   4.84034001366103      1.38283659269509      6.91345803928429
  C   5.48960618593184     -0.21263061716321      5.60924501852693
  H   5.94971898938298     -0.35761713750968      4.61833209990343
  C   7.55313789968182     -2.49269209564697      7.73341930620842
  H   10.30610464167391     -5.20966769497140     11.53043097464964
  C   -2.40391353578586      0.21290738940996      4.51509845756251
  C   -1.24865376092178      0.47696357319132      3.54550028048005
  H   6.18691266868224     -1.96270463082312      9.36844185714801
  H   11.00728332465457     -5.25295517037581      9.89701783915125
  C   8.91107250599331     -4.62020846205430      9.95887647520268
  C   10.08933383819730     -5.44975976758240     10.47714648280576
  C   6.57095509698926     -2.06061963625769      6.62135615259155
  H   -3.21453660944730     -0.34708375861813      4.02194950373417
  H   0.28108575796719      0.72857576554315      5.08885795420733
  O   2.43264834444986      1.33842810726351      5.97439120713963
  H   9.48439193070911     -4.66704179259643      7.86573767087793
  H   -2.06994994425824     -0.37693797284999      5.38483403755412
  H   8.00949762921038     -4.84035182997520     10.55506751274699
  C   8.58639950560594     -4.85722583338565      8.47477845558144
  H   4.53146718808099     -0.75443556887736      5.62177772736000
  C   7.40729458180996     -4.03376630505104      7.89009799095244
  O   6.06744850574909     -2.78493414945631      5.79894438501495
  H   -0.86103337578328     -0.48296998441191      3.15947395822786
  H   9.87873861729089     -6.52940459336629     10.42359316316852
  H   6.50328625505927     -4.24501095071604      8.48690830683951
  H   7.20320627061928     -4.43363829778326      6.88647096141611
  C   8.21568790796591     -6.32003024965225      8.24616826555288
  O   8.67737852704288     -6.77065374341461      7.06278111656609
  O   7.55695599275974     -6.99808196853134      8.99753114661166
  C   8.31734472102998     -8.10670649851028      6.70872135409617
  H   8.69548110063900     -8.82439495716105      7.45303526394041
  H   8.77327387912964     -8.29782101555699      5.72905122658659
  H   7.22336643660836     -8.21475020445429      6.64798792052172
