132
Coordinates from ORCA-job 2034b_0.0
  C   3.26735799696355      4.56593278647123      3.24362677696456
  C   2.02337998142433      4.10127042929467      4.08984007390936
  C   0.80931128237720      4.57043430060860      3.25389849417243
  N   1.28332678002035      5.25243209552509      2.14046166662195
  C   2.67049959794839      5.28444887160626      2.02783401484291
  O   3.25764099871115      5.81190089027517      1.11375697826598
  O   -0.35832531865788      4.42620326877270      3.51732905005846
  C   0.40095341582741      5.88340133037825      1.16921572718925
  C   0.21197672913655      7.36829062517750      1.46873327232312
  H   -0.56415954340440      5.35971311535912      1.20715522231084
  H   0.84631830898511      5.76152257093886      0.17161131415944
  O   -0.65106885269391      7.88098236774825      0.45012102280070
  H   1.17375639086967      7.90336109626717      1.44984501376279
  H   -0.24382048906631      7.52241213986748      2.46029388262031
  C   -0.85624393858389      9.21822416609113      0.44597013992862
  C   -1.83819932135161      9.64998552211982     -0.66643009979079
  C   -1.49671598528606      8.88766284123030     -1.96495880769825
  H   -0.47250582723122      9.11663399269314     -2.30103640528133
  H   -2.18346785811371      9.16973251085053     -2.77401256241717
  H   -1.57148867989435      7.80138933609052     -1.81782168810683
  C   -3.24853173066073      9.25070534624184     -0.17069317929483
  H   -3.29188248822126      8.17314397676108      0.04845921001534
  H   -4.00698289457208      9.46749953790667     -0.93827737635927
  H   -3.52129176958339      9.79939124496477      0.74506982184910
  C   -1.68947733198847     11.19045940520507     -0.82618456231395
  O   -0.34206093908776      9.94451830830641      1.25996278026540
  C   -2.86591778054843     12.01472485069812     -1.41502130307397
  H   -0.78381930649092     11.39890554043842     -1.42146609968819
  H   -1.48620011921259     11.59218133858818      0.17686298447634
  C   -3.18694750067475     11.77615092532117     -2.89966253753149
  C   -4.36375356585118     12.60542483623384     -3.42161147274558
  H   -3.41387137445792     10.70970524607644     -3.05052833824880
  H   -2.28382798530069     11.99576016891619     -3.49370352428014
  H   -5.28338398170973     12.40874838765239     -2.84410750371799
  H   -4.57744738727794     12.36516518700711     -4.47548642803637
  H   -4.15337599546336     13.68510575145552     -3.36772061920128
  C   -2.49347436970186     13.47727971890171     -1.18754163583233
  H   -3.76581691493303     11.82682576381110     -0.80806245744911
  O   -2.95502709174018     13.92937063330476     -0.00465461865809
  C   -2.59328632622001     15.26514946611652      0.34866947044989
  H   -1.49923794029381     15.37107466524215      0.41205440839573
  H   -3.05120472177221     15.45834382822114      1.32700682387824
  H   -2.96810205145469     15.98270770526568     -0.39742610003315
  O   -1.83345436583350     14.15384544040443     -1.93910621539906
  S   1.60234454943490      4.77010688393008      5.74918487878517
  S   4.43288807584662      5.69039512368675      4.09742320687001
  C   2.99526535952418      4.40122748502922      6.90150131224716
  C   3.12807846319049      5.54865897498417      7.90676683963372
  H   3.92595702134908      4.29241582308653      6.32928786095510
  H   2.77255821736368      3.45278871817051      7.41104946679665
  C   4.20651640987616      5.27211061879169      8.95749707026947
  H   2.15724638252673      5.71508878628395      8.40681331456494
  H   3.35797318880907      6.47868104647060      7.36069924278952
  H   3.98610948613938      4.35822410109287      9.53434155465807
  H   4.28337681555032      6.10675758143814      9.67242062973867
  H   5.19708486908102      5.14167553399101      8.49009581031904
  C   5.80406789089769      5.88903048996966      2.87724653961219
  C   6.93760079247009      6.67093536992279      3.54393858536240
  H   5.40875719501196      6.41796592166545      1.99991224581893
  H   6.14313671078766      4.88955685933650      2.57087635689169
  C   8.09438220478821      6.93177671704824      2.57530233987484
  H   7.30271838245333      6.10818539515329      4.42064169574187
  H   6.55028920232514      7.63202248606996      3.92736102799983
  H   8.52034219517253      5.98751482066668      2.19780505057172
  H   8.90476475414627      7.49235344762427      3.06817988975131
  H   7.76206218635530      7.51976832665478      1.70367930579063
  H   2.90639117839222      3.70150739165501     -0.31580522781357
  H   1.69324943528809      2.80011080804699     -2.44110696438041
  H   3.52388047978312      1.44281238650434     -1.31766249189571
  C   2.68478684053062      2.75163759541802      0.19154688070273
  S   4.07832601287292      2.38086860287458      1.34237774157809
  C   1.47382076344063      1.88475413197118     -1.86621806651058
  C   2.55307195826186      1.60667177388094     -0.81672336266980
  O   6.04111819430047      2.72319058558826      3.57281338848219
  H   1.39711322914160      1.05170344523584     -2.58300885861554
  H   1.75406749091681      2.85754047701455      0.76425358230417
  H   0.48347933420350      2.01344460230449     -1.39784529974972
  C   3.65907676933987      3.04952672363166      3.00212495397203
  C   4.87354436889297      2.58052185667829      3.83750424833602
  H   2.32458943755565      0.67489898110837     -0.27305087515727
  H   6.24451087956757      1.80052739567185      5.89353521365817
  H   9.00306570135444     -1.00803528688859      7.01872130362347
  H   7.28976435443678     -0.64895972121638      8.89217529624905
  N   4.40008665491658      1.90023157036106      4.95214188282228
  H   9.72423024493275     -2.30322495640620      7.99981832681101
  C   2.41540934044308      2.58509150187663      3.84891779314033
  C   8.96367670222441     -2.08653647649870      7.23429575748096
  H   -0.46496994256051      2.25994319084466      4.51638344037472
  C   5.28316002285533      1.26936389034986      5.92284170357690
  H   -2.83720578733954      1.15050286242258      4.89368234512216
  H   7.89883779856893     -2.02377598520873      9.84127285505513
  C   7.21354166371406     -1.73596641375217      9.03301496184443
  S   1.25080601754451      1.45872557446763      2.99621450446723
  H   9.14906381691658     -3.55393095171381     10.10095435845764
  O   6.34945663125685     -0.72483756334688      6.63066811319468
  C   3.01289436285393      1.86794076791648      5.06529543723092
  H   9.23633528980116     -2.63119818947635      6.31614267448703
  C   -0.12104396469596      1.26041137858121      4.21574561524444
  H   -1.61725694800180      1.02593219315041      2.67187241850550
  H   4.83167052927739      1.38069725365571      6.91884995284460
  C   5.48568494134564     -0.21161345511346      5.61292197849038
  H   5.94610144837347     -0.35419120087617      4.62182417546463
  C   7.55524159524323     -2.49182733658317      7.73098186927030
  H   10.31822840176252     -5.21139962289579     11.51847285409981
  C   -2.40619258517470      0.20687445323640      4.52037669843641
  C   -1.24986689401611      0.46948537737878      3.55165458175006
  H   6.18862836944344     -1.96527069568909      9.36667114401118
  H   11.01586769117307     -5.25458865605867      9.88352497917503
  C   8.92035175980138     -4.62007133580226      9.95014010860565
  C   10.09900538742901     -5.45083138109233     10.46554668789964
  C   6.57239421159148     -2.05908348340908      6.61978842718724
  H   -3.21335920729275     -0.35972350146788      4.02911265816512
  H   0.27557770663832      0.73767545955966      5.09620246353522
  O   2.42612223097041      1.34116145827985      5.97996746455154
  H   9.48866307368097     -4.66560791404859      7.85558508519993
  H   -2.07163878471673     -0.37590102844166      5.39463772243287
  H   8.01983439116604     -4.83951217014388     10.54818373049988
  C   8.59219341126930     -4.85640231895011      8.46664497612461
  H   4.52846844366471     -0.75512247785298      5.62442622795845
  C   7.41127618693848     -4.03329797004422      7.88529328261163
  O   6.07218935331136     -2.78218658731097      5.79428523661528
  H   -0.85697285359164     -0.49129495380747      3.17318671132477
  H   9.88743582394042     -6.53030385055885     10.41201721102578
  H   6.50854879297673     -4.24657342368597      8.48331423660371
  H   7.20607010527701     -4.43177485970037      6.88132834599953
  C   8.22119199840351     -6.31912463665734      8.23823991529765
  O   8.68428105840665     -6.77065157085940      7.05577797846314
  O   7.56070002158489     -6.99620145181925      8.98895057497488
  C   8.32370738336732     -8.10660665608065      6.70184916776197
  H   8.70107231758886     -8.82431979154338      7.44653490768066
  H   8.78007023866482     -8.29822459308917      5.72247989770169
  H   7.22970503176098     -8.21406326305079      6.64059625916053
