51
Coordinates from ORCA-job 2035_0.0
  C   2.62893866762479     -0.37668476637721      2.05469775095758
  C   1.54812397694089      0.02301395016512      1.06070912710469
  C   1.65360726520586      1.48403909034294      0.63117306264980
  C   3.04830140397858      2.04284724048223      0.24107956943665
  C   4.25016924640146      1.22883655762449      0.79011589064833
  C   3.98916620159272      0.27483734127402      1.95913557062650
  C   2.66761512200307      3.38576190289574      1.03903002375276
  C   1.47610801025098      2.58992696256768      1.69933924174382
  H   0.97367342635472      1.68356214001490     -0.20847277456710
  H   5.06543732807249      1.90074513455804      1.08470017388198
  H   4.61308346753675      0.63755186255256     -0.06184987656551
  C   3.81217987469005     -1.22707897488404      1.67670362135137
  H   2.30400719928493     -0.53435579119015      3.08545651211160
  O   4.56840868214400      0.60995143518828      3.17751242307958
  C   5.98087254310100      0.53562145197818      3.22785234864062
  H   6.35023315771671     -0.45944880900430      2.92694395680334
  H   6.27102830918514      0.72137706037628      4.27198592040034
  H   6.46496102757619      1.30229516515685      2.59392833532233
  Cl  4.38895508885813     -2.39867025005437      2.88296826913755
  Cl  3.97742076817975     -1.86914747149026      0.02233618287372
  H   1.60950003776189     -0.61446989486662      0.16434216488918
  H   0.55939473631087     -0.15374757287208      1.51085941506211
  O   3.12162683984146      2.18853997962859     -1.16738995565261
  C   4.31770185709456      2.66467768764774     -1.74681063360197
  H   4.62796521301309      3.64002611170682     -1.33066672166086
  H   4.11531220224162      2.79509457778459     -2.82038562275968
  H   5.15609619372441      1.95184447859094     -1.64410051375926
  O   3.53319905057345      3.90917421500135      2.00136782338956
  C   2.07128828547758      4.41518708556474      0.05902392135313
  O   1.72450566589519      2.11056094917967      2.98329208288507
  C   1.45063423768568      3.00786209741658      4.04877935780650
  H   0.51653030944149      3.13195981032221      1.64992560234360
  C   1.78508170507108      2.30787132810535      5.35298521594398
  H   0.38004493413700      3.30158663480003      4.01840837925163
  H   2.05059125318793      3.92609806674318      3.93350357675033
  H   1.15560370961048      1.41410181693167      5.49119476532091
  H   1.62254601158759      2.98267417890446      6.20861716479737
  H   2.83766010415150      1.98596612993887      5.34530810800269
  C   4.76530717680996      4.54859710442538      1.68163515309921
  C   5.60856445632500      4.57876042548157      2.94451511548784
  H   4.58413828328478      5.57137081062908      1.31413580285466
  H   5.28973116293202      4.00913722200191      0.87135189679944
  H   5.09680652967122      5.14842815291496      3.73620734308482
  H   6.57895213184289      5.06180952126147      2.74590290163450
  H   5.78629266719691      3.56099677568992      3.32268225922980
  O   0.91686601467887      4.42896274691751     -0.29194845108550
  O   2.96996235494684      5.31513831226353     -0.38135574413315
  C   2.47657048799784      6.30065123249479     -1.29481550761071
  H   3.32750121926061      6.95219200799007     -1.52964196099144
  H   1.66276644735956      6.88208742279881     -0.83643058095733
  H   2.09233795418818      5.82333935242575     -2.20872768716391
