108
Coordinates from ORCA-job 2037_0.0
  C   3.24497123258585      3.50147186375085      4.94114644798303
  C   4.58562245363301      3.72435255886656      4.14895171807768
  C   4.08488631143711      5.21996408269478      3.90427073801153
  C   3.00020232663325      5.07871574546821      5.02532397457372
  C   2.34365483252620      2.81410236929622      3.87879692367205
  N   3.15035220331781      2.38013748872947      2.83395244308972
  C   4.47085827597250      2.81574231023787      2.90800041520147
  C   1.68548605802121      5.56019999241367      4.39896178929386
  N   1.91886308402701      5.68974688652921      3.02243385257838
  C   3.22438723026386      5.41507150062817      2.63411933338194
  O   1.14919072745968      2.66123380439920      3.93974896881021
  O   5.33222796936368      2.52151487752411      2.12015971857310
  O   3.59878750794794      5.35627597501729      1.48530764099038
  O   0.63313246845027      5.78958834072678      4.93180752874856
  C   2.64756923186490      1.58735861401236      1.72147682743780
  C   2.87591299262363      0.09703316631596      1.95429102916868
  H   3.16808604278241      1.91230193491733      0.80933513931820
  H   1.57273434466497      1.79439636695389      1.62374900993834
  C   0.85918769549723      6.00067321475214      2.07450725893588
  C   0.67493403988125      7.50701133259945      1.92237611094074
  H   -0.06934579270549      5.54029452092263      2.44155237361344
  H   1.13310668274090      5.55407331398268      1.10828255619704
  O   2.32750723996200     -0.57729524843186      0.82017761555942
  H   2.37636772283078     -0.24463584031279      2.87546935226845
  H   3.94938494380933     -0.13191775502615      2.04690942958595
  O   -0.36979537598562      7.69954095931658      0.96567344996891
  H   1.60031472073251      7.98890952820281      1.56749286881846
  H   0.39643775627365      7.97240272478486      2.88084630431004
  C   2.43887259049437     -1.92657003751833      0.80936670652295
  C   -0.70700092767019      8.97993346000355      0.69035254020525
  C   -1.84920031269735      9.06250092516156     -0.34501128440709
  C   -1.40508918776351      8.26360166300561     -1.59299272673102
  H   -0.49928378240653      8.70216969518795     -2.04246622279464
  H   -2.19134861981507      8.26329713719184     -2.35982204111679
  H   -1.18497575825689      7.21911944124275     -1.33088572368539
  C   -3.09683885425222      8.40594141027192      0.28840118509942
  H   -2.87687821574880      7.37556325002900      0.60243868626624
  H   -3.92615894785080      8.36782048925204     -0.43412733860238
  H   -3.44070228391797      8.96767414031037      1.17210892575849
  C   -2.07181682060622     10.57195380217160     -0.64576104830393
  C   1.82104038448721     -2.51097647478810     -0.43660529080874
  O   2.96573972243656     -2.54664732672230      1.69737871832174
  O   -0.15551624709137      9.91266830690912      1.22038932519518
  C   -3.42951458153998     11.03964149370493     -1.23537254315100
  H   -1.26084508546750     10.92805976559294     -1.30358616159790
  H   -1.93245452385178     11.10552126349779      0.30538173030228
  C   -3.71353562980836     10.62118179860174     -2.68686948770219
  C   -5.07092284313833     11.09029878015967     -3.21806275587410
  H   -3.66735020421658      9.52389695972546     -2.75595613226512
  H   -2.90714892827174     11.01362089782983     -3.32895774998597
  H   -5.90016629905063     10.71898582753334     -2.59157052827723
  H   -5.24047213236439     10.72145755800161     -4.24242329046531
  H   -5.13448644137300     12.18909149283695     -3.24994354556177
  C   -3.42895632973949     12.56093104077837     -1.11387939402453
  H   -4.23967462153553     10.67962262451734     -0.58136530840783
  O   -3.89465698420865     12.96104075497378      0.08664863716142
  C   -3.86187583832935     14.36552795607352      0.34339870699645
  H   -2.83131572438584     14.74958811938205      0.29262375119660
  H   -4.26902066765542     14.50239996578908      1.35324125819526
  H   -4.47217193683656     14.91243158274425     -0.39178762053043
  O   -3.02897794983851     13.33059666568875     -1.95383117463462
  S   2.91107664673988      2.38369726218676      6.36537288438969
  S   3.20832785347144      5.62455593518009      6.75167476953088
  S   6.28581838977353      3.40243953990683      4.75049859631046
  S   5.25123474195744      6.62342585016824      3.96602891638266
  C   4.37847393828811      2.27657532085705      7.46560889286246
  C   4.09196103347234      1.16926396273874      8.48566520459982
  H   4.53160746527163      3.24013881967628      7.97173007586045
  H   5.26324323141340      2.03630969398928      6.86215679164318
  C   5.24122856097504      0.99346462366155      9.48180012154716
  H   3.91026534187750      0.22063538486367      7.95176093807858
  H   3.15970976009882      1.40146916337449      9.03013697517282
  H   6.18026988433269      0.72458337288046      8.96973701389248
  H   5.01545579636115      0.19353171663018     10.20473313938819
  H   5.42437334361961      1.91818670734676     10.05415654627256
  C   3.43578686445726      7.45192437916670      6.72666821678386
  C   2.33620061743989      8.30561849085823      6.09535295430981
  H   4.42038566415966      7.69364391395946      6.30081052914421
  H   3.49651856458991      7.65653121800209      7.80997288981797
  C   2.52530173977400      9.79282773203115      6.40990361911090
  H   1.35083695603180      7.95752380068091      6.44310460587072
  H   2.34936458896070      8.16698270447042      5.00126300065483
  H   2.46743782633172      9.98480903434869      7.49473597024863
  H   1.74741057014783     10.40104873933863      5.92177917640083
  H   3.50402537104902     10.16036956211801      6.05812246132034
  C   6.65720405135286      4.47713845336173      6.20306623431119
  C   7.80223610654234      3.83883636184236      6.99386294040200
  H   5.75664114378884      4.60739487643550      6.81623393689642
  H   6.94635261579787      5.46844393124761      5.83173360303520
  C   8.28669652034053      4.74435167840915      8.13010042080691
  H   8.64455579590404      3.62126585033951      6.31270825432705
  H   7.48009647508979      2.86530683880771      7.40084038475252
  H   8.66395074876827      5.70654550215784      7.74547108569501
  H   9.10366232335360      4.26738698468102      8.69474102577270
  H   7.47440609572827      4.96749107184916      8.84205203118585
  C   6.30394363214819      6.33381925838033      2.47750507991342
  C   7.52248237983908      7.25687336157345      2.54448231032499
  H   5.70494507584424      6.52339120471523      1.57650099632527
  H   6.60536946716184      5.27588468747669      2.47700878031465
  C   8.41937441691601      7.10558300459353      1.31266652343005
  H   8.10209501544008      7.03770109053161      3.45808440769916
  H   7.18846649572787      8.30634534176032      2.63283522199253
  H   8.79123325150848      6.07249222361038      1.21291198176058
  H   9.29376890598209      7.77266861374601      1.37713652869227
  H   7.87485129560347      7.35419872931328      0.38678157231355
  H   1.95094962210450     -3.59986952893814     -0.43477468950598
  H   2.28995344430954     -2.07395888643509     -1.33179628613919
  H   0.74924942581105     -2.26026663630990     -0.47557025524159
