108
Coordinates from ORCA-job 2037b_0.0
  C   3.24047594797329      3.48823822221556      4.97972134565537
  C   4.56590567387111      3.71713473549458      4.16383999876161
  C   4.04978454099839      5.20739278975613      3.91965572839026
  C   2.98544005238021      5.06451884754248      5.05950833130504
  C   2.32646166610172      2.78899752871214      3.93640885466315
  N   3.11856750962945      2.35518733992504      2.87961614476972
  C   4.43612197422990      2.80282989153810      2.92854237429640
  C   1.65704370710841      5.53536916119567      4.45361063701297
  N   1.86662460525074      5.66168475560151      3.07300054213257
  C   3.16612259151667      5.38975033863863      2.66358967910453
  O   1.13431568656574      2.62942240399048      4.01906619577095
  O   5.28545065882388      2.51408264686045      2.12555392192352
  O   3.52040814634826      5.32543997415249      1.50860883882100
  O   0.61305010034981      5.76129934331243      5.00393306862854
  C   2.59848435609931      1.56901021494411      1.76991952533810
  C   2.92530649898904      0.08669563784751      1.92706793440031
  H   3.03918644494831      1.95515434274512      0.83925164794561
  H   1.50966453005677      1.71498802327278      1.74633625565609
  C   0.79304704525757      5.97332009031803      2.14119944800343
  C   0.62694116758309      7.48021086026417      1.97304366682215
  H   -0.13351284307606      5.52911422377043      2.53199337185116
  H   1.04299197383975      5.51213664851102      1.17532264175159
  O   2.32451418595918     -0.57353817711962      0.81083270229774
  H   2.51643766228952     -0.31521879017054      2.86877534718184
  H   4.01288213249129     -0.08473076170849      1.92862213226505
  O   -0.41818658111787      7.67653690009691      1.01772704239425
  H   1.55727181166410      7.94608319397196      1.61000152434180
  H   0.35806684398223      7.96002451530682      2.92727533775066
  C   2.55014217526246     -1.90360791905073      0.69732893544607
  C   -0.72828063417301      8.95845898030772      0.71826476548189
  C   -1.86615023267198      9.04647423414951     -0.32128170546744
  C   -1.42658152048174      8.23238107905076     -1.56101042913017
  H   -0.52811291083865      8.67033702423718     -2.02538916074074
  H   -2.22032010325570      8.21286003061853     -2.31985562375876
  H   -1.19741377504336      7.19362317462410     -1.28446050944775
  C   -3.12451028193529      8.40889514266939      0.30980462471612
  H   -2.91906079777248      7.37769491445811      0.63074843918000
  H   -3.95042190324930      8.37690261498982     -0.41701119369561
  H   -3.46619712244962      8.98005934362530      1.18835339014271
  C   -2.06984623685078     10.55703268598126     -0.62924329965691
  C   1.86202832647282     -2.46571098123753     -0.52206835852344
  O   3.21773552432941     -2.52518447425759      1.48370924994325
  O   -0.15912099884825      9.88927642846772      1.23276006260067
  C   -3.40648686341239     11.03410000635620     -1.25859160641295
  H   -1.23637189050070     10.90844979568422     -1.26091684492174
  H   -1.95556234941173     11.08821385717470      0.32644852748327
  C   -3.63396989949279     10.64878231118108     -2.72906672613349
  C   -4.98273168138372     11.10543457614138     -3.29200125096481
  H   -3.56190509187416      9.55539187983850     -2.82674515770861
  H   -2.81526538164582     11.07584064912881     -3.33218594123169
  H   -5.82400709916391     10.69591647780923     -2.70661755386461
  H   -5.10921082212255     10.76622649931749     -4.33272414545023
  H   -5.07015656384313     12.20300553464831     -3.29140901676123
  C   -3.41882881588729     12.55248237744438     -1.10330751892892
  H   -4.23868914891841     10.65672454028432     -0.64297909634952
  O   -3.89514544045180     12.92154253426677      0.10314776498697
  C   -3.87599500797371     14.32012097750398      0.39146200305785
  H   -2.84834930407122     14.71373608636696      0.35709629697953
  H   -4.29168370734967     14.43105241859841      1.40100521481114
  H   -4.48537452476617     14.87835698429166     -0.33591868107597
  O   -3.02085604438471     13.34451172182052     -1.92309857138143
  S   2.93934143915695      2.37620752473786      6.41553221138709
  S   3.21760895483865      5.62165917535133      6.77940613149045
  S   6.27780236708236      3.41166756513943      4.73907707487989
  S   5.20597146710849      6.62037360334761      3.95138390574449
  C   4.42354265525409      2.28993739923684      7.49497955992336
  C   4.15666772702373      1.19504728972176      8.53369615893488
  H   4.57936301494505      3.26057800232886      7.98643044270443
  H   5.30042068056871      2.04567440181961      6.88162284095747
  C   5.32039672370835      1.03799013963507      9.51601867892174
  H   3.97195171358042      0.23845345579247      8.01522352217750
  H   3.23096760272024      1.43053593770774      9.08784294037268
  H   6.25383065600649      0.76761114920220      8.99458021113127
  H   5.10888804949072      0.24628247359309     10.25220924640320
  H   5.50633250503470      1.97091249323566     10.07397240295897
  C   3.43710998072739      7.44990141941632      6.73999195577138
  C   2.32827305406265      8.29514150589093      6.11353449633833
  H   4.41662570000046      7.69274602566875      6.30314060663683
  H   3.50739741157637      7.66201450576501      7.82127015586384
  C   2.51963922127435      9.78612604258700      6.40823570030088
  H   1.34799326422720      7.94989095808251      6.47808403264782
  H   2.32756908912514      8.14432785858389      5.02101907541593
  H   2.47742268941265      9.99098225383920      7.49144029079847
  H   1.73372783930518     10.38752839183130      5.92449809877561
  H   3.49245188151705     10.15087016595243      6.03767212898972
  C   6.66159730545189      4.49995446298604      6.17822970165932
  C   7.82554889829599      3.88008455664833      6.95568584332798
  H   5.76936230264935      4.62514135859434      6.80443995568383
  H   6.93439107487423      5.49153683752770      5.79550847291545
  C   8.31685369346137      4.79983464010037      8.07751212448907
  H   8.65972728328991      3.66698421824710      6.26319285547990
  H   7.52083946225592      2.90600833222440      7.37459761525793
  H   8.67412204011610      5.76435853461707      7.67984555495151
  H   9.14971384299333      4.33807198986219      8.63142886411620
  H   7.51373323592381      5.01693553300681      8.80164776150357
  C   6.23212247260645      6.33039390450722      2.44457870141492
  C   7.45490886859336      7.24902151790859      2.49299785334675
  H   5.61852209772580      6.52408905400380      1.55429941984589
  H   6.52978702946537      5.27144939677786      2.43616107843782
  C   8.32761061058431      7.10127161826682      1.24352593855937
  H   8.05062941849539      7.02273943160604      3.39437023005357
  H   7.12641877087613      8.29920628589341      2.59309169172698
  H   8.69567264748281      6.06800235168813      1.13233887246131
  H   9.20423279425908      7.76664590734022      1.29380621852393
  H   7.76570248661558      7.35467095901689      0.32938360985204
  H   2.04122601910631     -3.54606619871676     -0.57954119386226
  H   2.24398925854092     -1.97170246449999     -1.42926364995766
  H   0.78094473663325     -2.26281837355409     -0.47204051177444
