50
Coordinates from ORCA-job 2040-2_0.0
  C   -2.44958862032141      1.22934890653622     -0.91111449327651
  C   -2.00448070448349     -0.08334810320805     -0.20026307509886
  C   -0.93374525966639     -0.25100558219859     -1.37335450933681
  C   -1.07391197054051      1.28245677408508     -1.60601250102677
  C   -3.59438344296247      1.05492927782024     -1.89053251247594
  O   -4.52693696600454      0.10321805356378     -1.59067596040082
  C   -4.29719385185685     -0.93795141050603     -0.71225605463093
  C   -3.08800300367310     -1.10243058815249     -0.02864974684223
  C   -0.06739073000889      2.12979934685552     -0.85131382087046
  C   0.45304719299590     -0.71268802742357     -1.05049938995859
  C   1.42972439341181      0.23224795995870     -0.71940280338906
  O   1.16657836870256      1.58576461593681     -0.63538524697198
  O   -3.75315238125387      1.73959958373969     -2.86102803488269
  O   -0.27740020579623      3.25483476908497     -0.49602701893256
  C   -5.35724731545286     -1.84010794576098     -0.57315454668826
  C   -5.20731342582938     -2.94779152758624      0.27165630960726
  C   -3.99355240051254     -3.13962436903554      0.96129809628860
  C   -2.95898094591280     -2.22593084161861      0.80598985617673
  H   -6.26774211033823     -1.64751834606858     -1.13844187962122
  H   -2.02022370456958     -2.36672659024686      1.34722517211721
  H   -3.89635559946245     -4.01013962500617      1.61260524232722
  C   0.83337760736707     -2.06549012994491     -1.06724230457056
  C   2.13278529602411     -2.45927556201704     -0.77499876478642
  C   3.10262144604013     -1.48981904554584     -0.45067457294548
  C   2.74636179692354     -0.13494568742732     -0.42105090413571
  H   0.08037547693749     -2.81390671398754     -1.32602916324992
  H   2.43125331443852     -3.50905508767895     -0.79192023663829
  H   3.45122036809796      0.65589318672770     -0.16908219986892
  O   -6.17018753717300     -3.87535026500050      0.48247732679615
  O   4.34650028086960     -1.95239464450408     -0.18408485005670
  C   -7.41387835207317     -3.74619901525696     -0.17280040179092
  H   -8.02509418213978     -4.60122083660930      0.14628454915075
  H   -7.30361623082890     -3.77455098903540     -1.27182089915220
  H   -7.93042091876305     -2.81096109141567      0.10929076436841
  C   5.37040613491032     -1.03844307202385      0.14611302857158
  H   6.27671696177630     -1.63413661856466      0.31986538581623
  H   5.13326892128943     -0.47016478763058      1.06353451917207
  H   5.56268683597091     -0.32442361403680     -0.67508258195191
  H   -2.69033921542375      2.08976854803533     -0.26712731695707
  H   -1.08483955256045      1.63021299513443     -2.65087326771442
  O   -1.25101270239387      0.16341781792911      0.96552208580807
  O   -1.58169511345616     -1.00909556630080     -2.36977061535384
  C   -1.92413756493916      0.73602399779692      2.07215803390677
  C   -1.03454252009118     -0.97880799346057     -3.67569939746167
  H   0.01405985854439     -1.32281905922801     -3.69164626762857
  H   -1.08683640864571      0.02878213329221     -4.12640647293480
  H   -1.64508182898226     -1.66016340114676     -4.28464384539514
  H   -1.18125759791081      0.82255323543261      2.87739286780671
  H   -2.76018495463813      0.10426795047687      2.41903431851773
  H   -2.31051693563500      1.74647698522111      1.84745810056478
