42
Coordinates from ORCA-job 2041_0.0
  C   -2.00489655763053      1.68134639699798      0.04665400212323
  C   -1.85436267443750      0.36818150388038      0.85939009206626
  C   -3.18044769807831      1.84269491901930     -0.88800971006532
  O   -4.08821643929283      0.82953681787796     -0.96567507387513
  C   -3.97309363678494     -0.36975398293405     -0.27992078975807
  C   -2.92435405717187     -0.64972113300329      0.59901662916336
  O   -3.33470137325698      2.81288871449221     -1.57885044936904
  C   -4.99530599279437     -1.29172744389406     -0.53948143666859
  C   -4.96826185958315     -2.54063034664262      0.09229386975253
  C   -3.91521225292353     -2.84944038289631      0.97722691440715
  C   -2.91901279282716     -1.91361484774367      1.21853660910249
  H   -5.77969117370832     -0.99798345798491     -1.23532178367296
  H   -2.09918530969881     -2.15500744180982      1.90153543956029
  H   -3.90864121181263     -3.82863077261936      1.45936872902099
  O   -5.90230029768725     -3.50361370860024     -0.08778670668753
  C   -6.99023545436954     -3.26003848513390     -0.95347264244284
  H   -7.61245259215254     -4.16499400422543     -0.93544801840791
  H   -6.65581963607816     -3.07488787017527     -1.99032789941757
  H   -7.59755754331598     -2.40035294096444     -0.61693445762608
  H   -0.79722246706482      1.16007757131903     -1.74542691541848
  C   -0.45800919220743      0.12283804783909      0.18182799365627
  C   -0.63871884633490      1.39783075737290     -0.68175739177193
  C   0.69363603268973      0.06499273094908      1.15937843979644
  O   0.80999714467921     -0.81029849919425      1.97326634711561
  C   0.45467227752131      2.41382243714771     -0.54449810495398
  H   -0.38687433868372      3.83006893508996     -1.93439548593973
  C   0.45356776865608      3.62238743158506     -1.26590424930230
  O   1.63464915629246      1.04806118279224      1.10917913678021
  C   1.52733405112187      2.18366384873421      0.32075020586756
  H   5.20816450891574      4.14138179424558      0.35166015235065
  C   1.47799439897927      4.55012816431189     -1.13765504884291
  C   2.57897759282863      3.09725474903901      0.46577909412961
  C   2.55657892881253      4.28917989074167     -0.26841223498663
  H   1.47384018721129      5.48687974803792     -1.69780344919965
  C   4.63380815230095      5.04099514112635      0.63795213554496
  H   3.38086049318478      2.84447497757966      1.15779952053356
  O   3.51790156638243      5.23957218588333     -0.20325638228124
  H   5.27432011394882      5.92561639526456      0.52123369168864
  H   4.33707456344756      4.95062571069463      1.69861462843665
  H   -1.95921000121005      2.59416227991005      0.65725914216328
  H   -1.75702332129837      0.54117744548274      1.94255884579125
  H   -0.42596021656892     -0.81558445959294     -0.39120338836310
