54
Coordinates from ORCA-job 2042_0.0
  C   -2.51415179770581      1.51423477151664      0.06327235145403
  C   -2.09820678670177      0.02804183264050      0.27237016514779
  C   -1.10225893506637      0.18043631440848     -0.98260890476716
  C   -1.32175688079870      1.72097086761816     -0.90994860087771
  C   -3.86934612439047      1.79278369155654     -0.55426930084664
  O   -4.80182286910483      0.79751035170395     -0.50659014365992
  C   -4.51913216958607     -0.51498227566882     -0.17593487110431
  C   -3.23801162340733     -0.95690801982053      0.17230531834010
  C   -0.20615661976043      2.57070086160289     -0.33562206649647
  C   0.33538815561208     -0.25088602121906     -0.82153692806769
  C   1.32323682624940      0.69569147637286     -0.52748529736137
  O   1.04728833177151      2.03231898494786     -0.30582446574753
  O   -4.16757096208354      2.84381479445679     -1.04437718899222
  O   -0.36538711571246      3.69045388773617      0.05767979349539
  C   -5.61755331884955     -1.37941595474769     -0.25438847272016
  C   -5.44084454390918     -2.74299803018396      0.00808594976146
  C   -4.15875575581696     -3.21913328687812      0.34628126143123
  C   -3.09208495451089     -2.33448354099713      0.42757987154260
  H   -6.57956843838455     -0.95144702880077     -0.53176859923899
  H   -2.10873665814611     -2.72615956722935      0.70062138081764
  H   -4.03196918781985     -4.28505746755951      0.54320690032295
  C   0.76265553132921     -1.58487003196820     -0.97034503832117
  C   2.09423043169657     -1.95417285727265     -0.83889657103527
  C   3.06855204763831     -0.97732996900972     -0.55470212840993
  C   2.67538929793291      0.35695589509515     -0.39779630286409
  H   0.02731207185607     -2.35965029638156     -1.20191474663547
  H   2.41252448967426     -2.99153627318533     -0.95572071268292
  H   3.37751812374172      1.15636886107857     -0.16620794522851
  O   -6.42993246376990     -3.66224779060284     -0.04246870321909
  O   4.34315496559450     -1.41278716059080     -0.44887816652851
  C   -7.73895664610811     -3.25549735963410     -0.38578830334636
  H   -8.36179188388671     -4.15970765366961     -0.36440883402602
  H   -7.77709410488090     -2.81579096970107     -1.39844914817332
  H   -8.14255777453885     -2.52418443299470      0.33732259694388
  C   5.37138000646693     -0.48713714515280     -0.16201446718900
  H   6.30657211213513     -1.06164200882993     -0.12535503407920
  H   5.21449326952820      0.00767914126014      0.81307679307921
  H   5.45531105819767      0.28654110575119     -0.94627280816331
  H   -2.46951317356759      2.13774416678172      0.96989706583263
  H   -1.59448070474102      2.19475749164536     -1.86593915256348
  C   -1.32407873687873     -0.13683951985301      1.58044751388258
  C   -1.72621651389161     -0.39698822218560     -2.25338251655511
  O   -2.23711698023749      0.12231280672310      2.65627537456082
  H   -0.47998920776926      0.56707574737540      1.65334422378920
  H   -0.89760761058715     -1.14493879626545      1.68526763598872
  C   -1.78563566393316     -0.10372305530719      3.89982193732552
  O   -0.97249241474774      0.09496975205723     -3.37022825828391
  H   -2.77698138608225     -0.08835372385419     -2.37188501357850
  H   -1.72333678862703     -1.49616907972733     -2.25311616566990
  C   -1.22804823346064     -0.46164252176211     -4.56462056369608
  O   -0.69072222458947     -0.50563308037436      4.18010755809609
  H   -2.58893249377337      0.13983407843206      4.62681926704163
  O   -2.02606048335139     -1.33337857645897     -4.77025108636506
  H   -0.57958648824714      0.01231483712571     -5.33138645235911
