50
Coordinates from ORCA-job 2043-2_0.0
  C   -2.57630631456379      1.44720532913817      0.79534754862167
  C   -2.52398279309921      0.07389075057153      1.50409392010030
  C   -0.95924234049025      0.26677822068348      1.66062013100181
  C   -1.19255896664111      1.78802339026163      1.43847666267932
  C   -2.58358156285999      1.38624399474427     -0.72490323178499
  O   -3.06878190125616      0.25619351672371     -1.31141507731827
  C   -3.38905837026944     -0.90014427441613     -0.61953121985621
  C   -3.13587916635241     -1.05811809638027      0.74365928090013
  C   -0.17102298060831      2.59542288412495      0.66718324676286
  C   -0.09247301737678     -0.31236293901083      0.57375342274781
  C   0.62783442570059      0.52364336403659     -0.28651174410914
  O   0.63701865558532      1.90145246761676     -0.18387348615000
  O   -2.23369107307008      2.29800613696623     -1.42111083236148
  O   -0.02139357035605      3.77782452293689      0.78658634423662
  C   -3.98446859779116     -1.90965204755629     -1.38362908252839
  C   -4.33925681738410     -3.12187990334496     -0.78365897931356
  C   -4.08349587645703     -3.31376956536386      0.60122279756684
  C   -3.49817573095052     -2.28194703921551      1.33062839885257
  H   -4.16197131522420     -1.71173824651658     -2.43958004640093
  H   -3.33588873393134     -2.45124065584450      2.39826119429412
  C   0.06068908553353     -1.70016331643220      0.39641452634048
  C   0.86171679787044     -2.24475455020081     -0.60216707630651
  C   1.55145315675397     -1.37230729233180     -1.48666992798567
  C   1.43479965240248      0.00788734475592     -1.30923333527606
  H   -0.46924022950386     -2.39851195486629      1.04689672550086
  H   1.95178423784468      0.72106693219203     -1.94929172351365
  O   -4.94020438689114     -4.14648054109826     -1.43480008727656
  O   2.28436755091038     -1.95542588559180     -2.46624709650244
  C   -5.24946455581947     -4.00582351986765     -2.80591475184353
  H   -5.72950387051530     -4.94400258899017     -3.11497202333686
  H   -4.34235663842996     -3.84692177891043     -3.41613856582210
  H   -5.94914318962648     -3.16914220601685     -2.98108185125544
  C   2.94635555881834     -1.13793419153874     -3.40957348193852
  H   3.44450379328062     -1.81666452048302     -4.11490686604412
  H   3.70669665587520     -0.49386930009869     -2.93242522818088
  H   2.23515874658690     -0.49973499209589     -3.96329386207058
  H   -3.39813231774702      2.12619359431424      1.07588691698672
  H   -1.36132720783065      2.32636936085148      2.38000942519505
  H   -2.97402812282382      0.14568706446597      2.50632968422128
  H   -0.57596772093991     -0.01488083915968      2.65527893437932
  O   -4.46100251564421     -4.45369869002736      1.24916344667700
  O   0.90843331705643     -3.60228147265552     -0.74848863655863
  C   -3.79133222818759     -5.65720246822579      0.89631246280513
  H   -4.17661606912514     -6.43831809809739      1.56719540691010
  H   -2.69965089490039     -5.56347483730073      1.04452766921315
  H   -3.99012520179640     -5.94640137443166     -0.14782643049685
  C   2.15744270790411     -4.24019807179296     -0.52263153482430
  H   1.98155697668662     -5.32099217027849     -0.62248578641837
  H   2.53249704390370     -4.03337017066623      0.49708556370507
  H   2.91714591575006     -3.92843127557643     -1.25692174422412
