62
Coordinates from ORCA-job 2044-2b_0.0
  C   -2.82304237203930      1.51806867688500     -1.21481066669735
  C   -2.97703427862882      0.14000860302937     -1.92093480591366
  C   -1.45026264055155      0.29925926510345     -2.41513535957184
  C   -1.56949497095763      1.81860609228670     -2.09346463991887
  C   -2.58737012536562      1.51571870092176      0.28328719486706
  O   -2.96627726405404      0.41492281071166      0.98121237042752
  C   -3.32271037625262     -0.78593763808793      0.39535182985496
  C   -3.33402651754290     -0.99452645875448     -0.99017221489375
  C   -0.38489239938840      2.54950709188125     -1.50105244539202
  C   -0.44609024671059     -0.34750014895989     -1.48057920280804
  C   0.42299581217180      0.42488989812207     -0.70420524273336
  O   0.47952176427297      1.80189925616509     -0.75949853381447
  O   -2.14152993645443      2.46031047855413      0.87219840399885
  O   -0.17192340433877      3.71678688339211     -1.65955805822390
  C   -3.66495347037348     -1.80042257838122      1.29148963084750
  C   -3.99305772317538     -3.07365106620141      0.82515470403847
  C   -3.95353125245243     -3.32936359519890     -0.56530740674722
  C   -3.65634375985496     -2.28424760699469     -1.44175790353587
  H   -3.66870270334484     -1.59917968512581      2.36347339957098
  H   -3.66367370126185     -2.52255533501206     -2.50763369243977
  C   -0.30818902174362     -1.74516649264137     -1.39171614579291
  C   0.60248141518191     -2.36208654867327     -0.54300089651678
  C   1.43430706228785     -1.55342382362735      0.27857384114459
  C   1.34383973031909     -0.16354483491686      0.17403366034207
  H   -0.93794063566414     -2.40220159598697     -1.99219913835674
  H   1.97349628317469      0.50334251639980      0.76076586228191
  O   -4.29943045712906     -4.04703676497015      1.73046784609941
  O   2.26979916543757     -2.20167407145783      1.12286466134348
  C   -5.62276640903778     -4.57416822878957      1.67238614491987
  H   -5.68930851345590     -5.34210999401838      2.45554221290118
  H   -5.84007986923847     -5.02678434135657      0.69140297131062
  H   -6.36744736427157     -3.78497898403732      1.87987725375052
  C   3.08870532656548     -1.45066082616394      1.99733609685581
  H   3.65148305621100     -2.17810161472323      2.59740623366896
  H   2.48643953132031     -0.81531500645232      2.67037761075086
  H   3.80039459243951     -0.81243538338623      1.44367025806103
  H   -3.66121699394863      2.21462080224493     -1.37361359095622
  H   -1.86642284365080      2.40515498053085     -2.97216487902923
  O   -4.20704038199198     -4.57229876375460     -1.07659357971057
  O   0.61574703612060     -3.72697488470222     -0.47466993269923
  C   -3.24532771714283     -5.57870334207893     -0.75769652787586
  H   -3.49859323614807     -6.45907965782671     -1.36493777395165
  H   -3.27543518038800     -5.84649130592878      0.31134434806465
  H   -2.22360421789196     -5.24146553678906     -1.00655582146742
  C   1.80998852128887     -4.39113188214652     -0.86905726636417
  H   1.59728332070558     -5.46886436342045     -0.82978108197322
  H   2.64808911075626     -4.16237342476312     -0.19261883153682
  H   2.09276578878389     -4.12051392978900     -1.90327731301510
  C   -3.97570261171757      0.25162180368400     -3.08056685808555
  C   -1.13388222985704     -0.03803514552916     -3.87093399018863
  O   -5.27996034919075      0.50384108329883     -2.53777349188008
  H   -3.72924352060404      1.10368739803680     -3.73224846690292
  H   -4.00919878573585     -0.65470320414135     -3.70038971107567
  C   -6.31701977069639     -0.21251509706089     -3.00850625659630
  O   0.15985183906035      0.52084976573684     -4.14718993206858
  H   -1.85841662369700      0.39492480414349     -4.57703837137841
  H   -1.11230629843384     -1.12536409792464     -4.04821767557963
  C   0.64781946479797      0.33235956529240     -5.38307381305125
  O   -6.26746471880053     -1.04731775657454     -3.86746984904522
  O   0.09288677511746     -0.26419171504617     -6.26376000440143
  H   -7.23608550329313      0.09814288343068     -2.46910379184275
  H   1.64390480046360      0.81691337154277     -5.45834137106777
