51
Coordinates from ORCA-job 2045_0.0
  C   -4.36577061057429     -3.51047309518214      1.41999799237955
  C   -5.44745002874032     -3.90720310291021      0.61278106170086
  C   -5.78113400759108     -3.12872667024835     -0.50426940418585
  C   -5.03523408262271     -1.97891948660408     -0.79485804079287
  C   -3.95434092376293     -1.56800787198190     -0.00493365913082
  C   -3.63765157709633     -2.36648126125213      1.11321412171030
  H   -4.11564778214849     -4.12556218422941      2.28733578088076
  H   -6.61459679580202     -3.39994642250565     -1.15292776360637
  H   -5.31537910220792     -1.38262078280556     -1.66886724349554
  H   -2.80043093253448     -2.09347301643229      1.76063475615655
  C   -1.42802765346119     -2.51189827920159     -2.04644573539633
  C   -0.98597510097546     -1.76309602699076     -0.93620644169534
  C   0.69487216795571     -3.49982643615540     -0.53271951671988
  C   0.08099807158993     -2.28383719639672     -0.19719422824141
  C   0.23650050292215     -4.22947809819448     -1.63723109478019
  C   -0.83527657839949     -3.71900157017015     -2.39355169215773
  H   1.52452193650277     -3.86039870614130      0.07620221333044
  H   -1.18384218210395     -4.29659943588074     -3.25264868852103
  H   0.46482425835133     -1.73480436817883      0.66610210149360
  H   -2.25941140008639     -2.13879984272324     -2.65103817747138
  O   -6.09690981546707     -5.03877840166151      0.99107397161214
  C   -7.19584394037009     -5.50720156011611      0.22732350319461
  C   -7.71736726063266     -6.77446356136008      0.87895630067858
  H   -6.87686058747696     -5.70498825814719     -0.81434361854180
  H   -7.98747745907977     -4.73399598488144      0.18709599353574
  H   -6.93142936033885     -7.54488666092148      0.91409933962427
  H   -8.57177665236552     -7.17282469003563      0.30939285947959
  H   -8.04805746376113     -6.57395405181699      1.90996109720913
  O   0.75073318596626     -5.41694156020986     -2.05118391482969
  C   1.83624670656401     -5.99709906862870     -1.34777204777293
  C   2.19916665851390     -7.30107691741469     -2.03368358732348
  H   1.55275698700160     -6.17572895063829     -0.29237009353766
  H   2.69973139195615     -5.30394581900474     -1.34266542099775
  H   1.34162138650595     -7.99175079883112     -2.03341236742127
  H   3.03879835335613     -7.78659602923865     -1.51171621077833
  H   2.49489178095952     -7.12146635412514     -3.07906623084664
  C   -3.18816192826147     -0.31597499654077     -0.35506980792266
  C   -1.62526821460090     -0.43162019849021     -0.62311220357155
  C   -2.85266059289638      0.64905102353145      0.82362065084057
  C   -1.34552147238371      0.29363610168826      0.72356562371692
  H   -3.71464037434275      0.18531929625410     -1.18296234754515
  H   -1.38244789157572      0.25887570703894     -1.45067998577131
  C   -2.84254896350781      2.16021979732914      0.53178698316991
  H   -3.35181258114859      0.41935433213108      1.77652935215910
  C   -0.61284949049752      1.65154789264818      0.71463455945407
  H   -0.98877578980602     -0.37563237886357      1.51912644687684
  O   -1.59841592485740      2.62910860070043      1.01834755105118
  H   -0.16051475250851      1.84566064927883     -0.28035393981109
  H   0.18433784619656      1.73191493261675      1.47044545636432
  H   -3.64042865028053      2.71932602271631      1.04394733115878
  H   -2.93979331007539      2.34893573917781     -0.55972158491175
