51
Coordinates from ORCA-job 2046_0.0
  C   -3.46052364903922     -3.56571059177992      1.65390471591126
  C   -4.77347301726240     -3.81022962930472      1.23421082229050
  C   -5.45373079899882     -2.81457731383246      0.51679107110074
  C   -4.80843992391401     -1.59755168044495      0.23987233947583
  C   -3.49479902544566     -1.35176570089119      0.65611195523859
  C   -2.82083345073612     -2.35944956004941      1.37258903890585
  H   -2.92922118394541     -4.34113207671883      2.21286061825000
  H   -5.37194203612225     -0.84003336368692     -0.31116903048395
  H   -1.79441735363877     -2.20646210056401      1.70965151278182
  C   -1.85071386720942     -1.89928413758114     -2.48560181188758
  C   -1.22745776175552     -1.20358074047049     -1.42978576101113
  C   0.47102298821538     -2.96141381032157     -1.33937903935173
  C   -0.06874716261044     -1.74972396722573     -0.87055266597512
  C   -0.16030057658459     -3.64688065490762     -2.38657158404169
  C   -1.32158305415927     -3.10087627686585     -2.94869547531670
  H   -1.81471442200435     -3.63050736335036     -3.76873500880170
  H   0.46172776028959     -1.25819236383992     -0.05329331431155
  H   -2.75586803918002     -1.49046829768338     -2.94226893638690
  C   -2.85256094964860     -0.03396843326058      0.30250872811264
  C   -1.84939492141373      0.08193146078847     -0.93528239093022
  C   -1.76633994512176      0.61754294184587      1.20821015857993
  C   -0.97968407072608      1.02737363582205     -0.06428432811096
  H   -3.66129597088566      0.69565747976369      0.13775187374088
  H   -2.32267327318845      0.58182159634540     -1.79611114009456
  C   -2.09147504693742      1.94050747079182      1.93084083252124
  H   -1.24620263319107     -0.10364594712316      1.85329211057607
  C   -1.29179922920335      2.53311216003804     -0.14488951454047
  H   0.10404680473099      0.84465172768429     -0.06908667865006
  O   -1.42890216445855      2.96257318972942      1.19662293387515
  H   -2.22623245560820      2.71202024681054     -0.71989262706876
  H   -0.49106524671278      3.12698165164511     -0.61174873816164
  H   -1.72036916100086      1.97688463873302      2.96749216265062
  H   -3.18630486090848      2.11908365998380      1.95479350197660
  H   4.16025594024408     -3.98243453698856     -0.38462149343702
  H   2.48738499613274     -4.56106603537680     -2.17944104236976
  C   3.44556169912350     -4.80873738839129     -0.24740082189639
  H   3.94568198526620     -5.75151041479920     -0.51970727071623
  C   2.21319992411138     -4.59974246144261     -1.10750281137576
  O   1.60422420834407     -3.38044620715772     -0.71609594911317
  H   3.17322254928195     -4.85375293294876      0.81853812124980
  H   1.49998317429395     -5.43719501357430     -0.98102849522412
  H   -8.75901257799014     -3.78873834294104     -1.39912443038183
  C   -8.83886422236521     -3.95577995374483     -0.31369664081953
  H   -6.93702798557042     -4.98741090431445     -0.12891390130244
  O   -6.72768912710543     -2.92938926988147      0.05743777266131
  C   -7.46302367122357     -4.11575081930579      0.30619583222368
  H   -9.44226001515947     -4.86129875055058     -0.14335290690913
  H   -9.36678483728664     -3.09633528425154      0.12800834412026
  H   -7.54316297391093     -4.29145266122818      1.39645367257847
  H   0.23578892973060     -4.58726469512900     -2.77021176391357
  H   -5.24776029754122     -4.76280217805305      1.47118745376245
