51
Coordinates from ORCA-job 2047_0.0
  C   -3.93117068565429     -3.84647419214358      1.97578358807051
  C   -5.12876806513431     -4.11712907451602      1.31727807124361
  C   -5.68004290969090     -3.16960814515041      0.44862707779404
  C   -5.03138535042022     -1.94365297782741      0.24144295163466
  C   -3.81968437321571     -1.63868681640770      0.91297696798782
  C   -3.29656019651779     -2.61662287229594      1.77008150313003
  H   -3.49076153205146     -4.58314176996675      2.65207141411358
  H   -2.36274396074447     -2.41440378777198      2.29952826850987
  C   -2.31575275022872     -1.95661053803420     -1.84980189322761
  C   -1.37046056635730     -1.26886404756781     -1.07802561775078
  C   0.37554491118611     -2.51404536904632     -2.26428490579018
  C   -0.00022336407261     -1.53496320083149     -1.33117129860063
  C   -0.59868387614427     -3.20560453259725     -2.99173028149321
  C   -1.94747965888776     -2.91731191116508     -2.79839043919566
  H   -2.71582395995054     -3.43552671279733     -3.37762897002461
  H   -3.37082272538953     -1.71837881535977     -1.71706581047380
  C   -3.16128113739127     -0.28831746439070      0.71889217943425
  C   -1.79220838359505     -0.20171439494768     -0.09250801491728
  C   -2.38770198485057      0.25007086349721      1.95737884562680
  C   -1.03128828772728      0.00921272640590      1.25281390114579
  H   -3.92062579674957      0.40552360186855      0.33459728216174
  H   -1.79166135200151      0.76169165548169     -0.63508791928261
  C   -2.36802150140289      1.77508394748240      2.16986162613368
  H   -2.57043025092340     -0.27870587021782      2.90383034695769
  C   -0.23586606085912      1.31368726067305      1.45486569753373
  H   -0.48037863826218     -0.88107266879374      1.58248006104103
  O   -1.00498035988208      2.11132277099923      2.34671456948328
  H   -0.09065374508233      1.83628886048439      0.48770139864876
  H   0.75500013603184      1.16022076906463      1.90879708815121
  H   -2.91920760127475      2.10610605078216      3.06374440023073
  H   -2.80053175543935      2.30142645261630      1.29102867458696
  H   -0.28994891711218     -3.96329895913387     -3.71719321316993
  H   -5.64368572954328     -5.06950840572271      1.47015146289516
  H   2.89419623790079     -0.03558961884490      0.96705599005526
  H   2.63187980115384     -1.94574134910447     -0.66212361356550
  O   0.90882985735085     -0.78561006687436     -0.63945666020825
  C   3.05872196565428      0.10747997946140     -0.11218736852654
  C   2.29336236310404     -0.92381073640742     -0.92030245342323
  H   4.13821878324354      0.01658299157164     -0.31141428274700
  H   2.74179456959912      1.12805993840298     -0.37686743026336
  H   2.47349233516964     -0.78104203459735     -2.00248863665772
  H   -7.53385808986977     -1.30774738921670     -0.44145264071909
  H   -7.10874453865771      0.99727683267853     -1.34975631177689
  H   -8.04673805612087      0.02680580087597     -2.52157040145341
  C   -7.07388127247370      0.11950111970356     -2.01362247684313
  C   -6.77227827596459     -1.14220853432623     -1.22653959367176
  O   -5.49064850403622     -0.99985882189561     -0.63203398107076
  H   -6.78468032392002     -2.02672842249275     -1.89176990249357
  H   -6.30014467880829      0.29632068676893     -2.77690200311528
  H   1.42773214250734     -2.73879365368293     -2.43752487167423
  H   -6.61082388649336     -3.39881915469016     -0.07042237443417
