48
Coordinates from ORCA-job 2049_0.0
  C   -5.83875140372609      0.47327625474163     -1.84010996119539
  O   -7.17558806870650      0.51274975757488     -1.73602847633772
  C   -5.27730973822423     -0.83915047871349     -1.33437066804363
  C   -5.85163223291507     -1.50473594570569     -0.06078638531065
  C   -3.85653378475024     -0.82359886691664     -0.69581320639179
  C   -4.37285283303198     -1.80993609760925      0.41368463092416
  C   -3.47160126961132      0.52530376435922     -0.12126969553197
  O   -5.16989401213359      1.36437141699961     -2.30544991729368
  O   -4.13991627623356      1.12498471137024      0.69117289946880
  O   -2.30074540981196      0.95978413875756     -0.59563958177294
  C   -7.83222724859813      1.71743908903605     -2.18145430853684
  C   -1.86342909439087      2.26213616613143     -0.16105441218042
  H   -5.28889009924516     -1.53668528876202     -2.18883742208788
  H   -3.04875243134700     -1.20436473113747     -1.33239677749591
  C   -0.51618927812688      2.53731015246291     -0.79573663556159
  H   -1.81481567877776      2.27227377954615      0.94005543350214
  H   -2.62351332462223      3.00139159047920     -0.46115422396266
  H   0.22712867411532      1.78543298511268     -0.48713822504050
  H   -0.15149765127586      3.52981666146959     -0.48726292699755
  H   -0.58801424768153      2.52123894170042     -1.89431384873108
  C   -9.31601005430496      1.56830425876484     -1.91862065766107
  H   -7.61173605090902      1.86565045327947     -3.25136250446085
  H   -7.39750708886859      2.57269507773457     -1.63960984209427
  H   -9.73359716897622      0.71205842272722     -2.47092753773177
  H   -9.84604053243392      2.47836423490346     -2.24105792602686
  H   -9.51299606572112      1.41553203493773     -0.84615875056584
  C   -6.87987790742727     -2.60261100401146     -0.15162938467426
  H   -6.24018899818822     -0.71523340914778      0.60138719573723
  C   -3.86369620261317     -3.22715490063507      0.32610074602321
  H   -4.18816376593457     -1.42925363255644      1.42697161983788
  C   -3.41829503369472     -3.88828821397533      1.48043303006432
  C   -2.94305602419570     -5.20053227657599      1.38838584938634
  N   -2.88265921842746     -5.88471309130665      0.24441481433273
  C   -3.30536132907917     -5.26233533513784     -0.85950110804052
  C   -3.79683883578365     -3.95435450559576     -0.87403686199352
  C   -7.15188885364065     -3.41972712132903      0.95774832054191
  C   -8.13021581059417     -4.41088373887580      0.85736191177661
  N   -8.84569057612095     -4.63636928392478     -0.24904189987845
  C   -8.59607406349936     -3.85737105792462     -1.30262947046563
  C   -7.63596052167557     -2.83885607054346     -1.30716746782228
  H   -4.12250778905821     -3.52068534145582     -1.82237160605085
  H   -3.43587604332096     -3.38243510434918      2.44996666742618
  H   -2.59173922409047     -5.71890055762266      2.28929961102601
  H   -3.25224541948218     -5.83388679357529     -1.79427820662807
  H   -6.60562238808073     -3.29094831147326      1.89567294135302
  H   -8.34448305235619     -5.05576770178850      1.71853083646684
  H   -9.19330242545009     -4.04584200608462     -2.20368525805847
  H   -7.50413414697783     -2.22570302535492     -2.20067135324246
