51
Coordinates from ORCA-job 2050_0.0
  C   -4.26978229045834     -4.20543350475427      1.72086298418335
  C   -5.63204703509144     -3.93418737957985      1.81991785524280
  C   -6.14690436293308     -2.72377863621891      1.33873636616310
  C   -5.28912518107151     -1.77975188212540      0.75731787053404
  C   -3.89673359167585     -2.03089759267296      0.66019529765544
  C   -3.41870121537364     -3.25304361340173      1.14431434178201
  H   -3.86371473545049     -5.15144273255874      2.08730391301235
  H   -2.35274720038562     -3.47579466425736      1.06095827563481
  C   -1.33614025402056     -2.41769497672311     -2.14029819847758
  C   -0.69996037457920     -1.79760769486155     -1.06045482756502
  C   1.44996331484865     -2.39830329431918     -2.07032456851356
  C   0.71795541525941     -1.80263571041588     -1.03434008280461
  C   0.77950971233598     -3.00479978991138     -3.14052363874004
  C   -0.61263214225047     -3.02027215086165     -3.17856291690244
  H   -1.14033058336856     -3.49760120358297     -4.00787350890844
  H   -2.42794393395727     -2.44114179513439     -2.16983318985969
  C   -3.00010857104053     -0.99442734718536      0.02692266301738
  C   -1.45539003668565     -1.16225682649107      0.08228840349349
  C   -2.84529127960625      0.41303750057604      0.69634126082073
  C   -1.32705913671169      0.36418643756647      0.37804605052446
  H   -3.33491476925511     -0.83410395056085     -1.01247528818864
  H   -1.17464791736538     -1.68420987281588      1.01158120315107
  C   -3.36960925635716      1.65984118454287     -0.03946620376388
  H   -3.09268815559560      0.39863551096363      1.76740946789270
  C   -1.22732585631722      1.33581707528436     -0.80794383620697
  H   -0.62996126904009      0.63275180539381      1.18331351371680
  O   -2.22587865334230      2.31564364636280     -0.57343072537746
  H   -1.40106006541239      0.81028263715981     -1.77022404424427
  H   -0.25619625711129      1.84892464089647     -0.87645675353939
  H   -3.88746697530495      2.37137952453937      0.62391740078051
  H   -4.07232892250400      1.37156394238261     -0.84505041595315
  H   1.36043491366539     -3.46714483167750     -3.94326728934314
  H   -6.31095713887461     -4.66373018346071      2.26984040475591
  H   2.59030058856781     -0.98967651074741      2.34289324008970
  H   3.09779249412144     -2.20759561644051      0.19014895296809
  O   1.28701130439937     -1.20264156013959      0.04841984083356
  C   3.03593536802089     -0.46478986881310      1.48367686261138
  C   2.69894386528590     -1.17511714472009      0.18604087685383
  H   4.12770084240008     -0.43050199564633      1.62515390848636
  H   2.65421777908538      0.56796520879632      1.47532428871524
  H   3.15283469145728     -0.65049447835869     -0.67634413151932
  H   -7.45997926911177     -0.23968404759490      1.31436392582234
  H   -6.72330166464481      1.87274133175129      0.14308732649560
  H   -8.34921829468141      1.36430235481465     -0.39152619900763
  C   -7.28247462611753      1.09002065132952     -0.39211725765601
  C   -7.09384086232932     -0.26177302907089      0.27017285545813
  O   -5.71174153335657     -0.58723632657228      0.24969945616204
  H   -7.67053957344160     -1.04076894866471     -0.26389579476410
  H   -6.93060864768493      1.06768352791750     -1.43509723889851
  H   2.54006815149469     -2.39835420191170     -2.05357006362382
  H   -7.21624680843401     -2.52884361802662      1.42008736700044
