24
Coordinates from ORCA-job 2052-2_0.0
  C   -5.58464465297047      1.08318279993296     -2.03881142036333
  O   -6.57852440997516      1.18879486594314     -1.15030064898258
  C   -4.82797606299012     -0.24080518069840     -1.86298190727976
  C   -5.32025744995619     -1.29002940164725     -0.82220576903756
  C   -3.47400050311133     -0.19101981098898     -1.04699241358855
  C   -3.86138481451303     -1.57325280948745     -0.45345596059064
  C   -2.16394124611971     -0.14499066215621     -1.83980548597747
  O   -5.30716789453251      1.91145711572915     -2.86146839814793
  O   -1.42401771936881     -1.09037026581080     -1.93234458582367
  O   -1.97673812413709      1.04188363378963     -2.40393285452120
  C   -7.32000689523265      2.41446380056613     -1.17473616376553
  C   -0.80804196988874      1.18818451962713     -3.21816717265782
  H   -8.08809565316970      2.32004820587070     -0.39785737198928
  H   -7.78332745452817      2.56451035909590     -2.16107008976779
  H   -6.65671056193999      3.26585118735390     -0.96091804452036
  H   -0.84318795921139      2.20968738291902     -3.61470204574321
  H   -0.81870011938316      0.45538966911421     -4.03874932737189
  H   0.10176404330261      1.03763866816148     -2.61776317245284
  Cl  -4.56046254316380     -0.95372217809121     -3.49210730702495
  Cl  -3.49187178445144      1.13509532862962      0.17300073133586
  Cl  -3.47541902253022     -1.95921000735509      1.23458180533454
  H   -3.42076308213736     -2.35186336404402     -1.08814832829848
  Cl  -6.35152104241217     -2.63940318291332     -1.33840821880652
  H   -5.83627307757935     -0.76271067354025     -0.01227584995900
