24
Coordinates from ORCA-job 2052_0.0
  C   -5.78316780893272      0.95782135081749     -0.90526269680571
  O   -6.48926089280619      1.44121526728527     -1.91679650785341
  C   -5.21299272848824     -0.44556319202903     -1.14788118183484
  C   -4.97796856060699     -1.27159648625216      0.15167594125397
  C   -3.63025846028071     -0.53635846183698     -1.34915687804546
  C   -3.58448075558513     -1.73143171215091     -0.34486167296252
  Cl  -6.18577417882856     -2.46132683126408      0.65704747783292
  H   -4.84819886036137     -0.56181179629067      0.97945347478427
  Cl  -3.51387369893871     -3.35151278565813     -1.07177849825215
  H   -2.77757099039962     -1.65681788543485      0.39092953857425
  C   -2.88002490089763      0.67793323165159     -0.76222206885223
  O   -5.56576123703482      1.55106297312384      0.12637968332974
  O   -2.22191938160638      0.63109001408409      0.24561270645927
  O   -3.05654753754466      1.76809787982034     -1.50637369055208
  C   -7.01909610050871      2.76138554737645     -1.75272442538960
  C   -2.45670219760025      2.97468391681487     -1.01727142685421
  H   -7.60811256717651      2.96401418290351     -2.65500661109190
  H   -6.20272493378841      3.49272427247296     -1.65427043313178
  H   -7.65315828491546      2.81514635369644     -0.85546344022633
  H   -2.65149968214021      3.73865668734991     -1.77952193523232
  H   -1.37483657755268      2.83862862094857     -0.87572633790295
  H   -2.91433870923018      3.25908260778394     -0.05798978391991
  Cl  -6.11180172423728     -1.33271515933034     -2.40149919569997
  Cl  -3.02936923053852     -0.80493859588214     -3.00201203762702
