24
Coordinates from ORCA-job 2053-2_0.0
  C   -5.94160104599175      1.07888288690255     -2.00697224627409
  O   -6.47609253680141      1.13035916126526     -0.77732562466271
  C   -4.89247891503886     -0.03249269499090     -2.11188521469644
  C   -5.14176065286474     -1.31635998986866     -1.28624033370922
  C   -3.63512070936049      0.24563421068778     -1.21573977338367
  C   -4.16087897337667     -0.79476882008292     -0.20578224941152
  H   -4.73687246639618     -2.17872233274345     -1.83301668778396
  H   -6.17860809923657     -1.50685430175574     -0.98099900940402
  H   -4.67215928567272     -0.28450153835977      0.62020203879432
  H   -3.41510353016919     -1.50509350078310      0.17244728650700
  C   -2.35627682049743     -0.18963471840520     -1.93936174175493
  O   -6.23603129331663      1.80961283541250     -2.91236465635587
  O   -2.01067049210658     -1.34197869943757     -2.03088327554623
  O   -1.70839598689940      0.84730604554960     -2.46317745157438
  C   -7.41408242301626      2.18504648507410     -0.53985449547347
  C   -0.52609085359940      0.54410297125147     -3.21075430006603
  H   -7.73849868155720      2.07602117545762      0.50218469510836
  H   -8.27363069751958      2.10013959496675     -1.22143249120221
  H   -6.93762468577313      3.16502105144801     -0.69290592040974
  H   -0.12561802858179      1.50744016837407     -3.54863545318013
  H   -0.76916597522115     -0.09525940889170     -4.07287859801991
  H   0.20849035634144      0.02111496828419     -2.57994749842666
  F   -4.61886741896400     -0.22205860512232     -3.43942942945149
  F   -3.51600078438012      1.53494305576742     -0.76238756962292
