72
Coordinates from ORCA-job 2056_0.0
  C   -1.68704607339601     -1.31690465019687     -2.31915644145740
  N   -2.51922937029959     -1.61008942408149     -1.24525889513292
  C   -3.46464983796853     -0.73220135840244     -0.68492733896811
  N   -3.55078517668139      0.54658317998302     -1.18966962938355
  C   -2.76003656384930      1.07498581041169     -2.28134331061444
  C   -1.60003737446313      0.14679402026800     -2.73407003240668
  C   -0.58968370807014      1.04939936546290     -1.88326765602639
  C   -1.67008853231874      2.14796933484720     -1.88251463013350
  H   -3.42616515319705      1.39461710546758     -3.10222829034167
  C   -0.34397362049740      0.47867957103714     -0.48307440156995
  N   -0.82011105706810      1.20054944934739      0.60211239694812
  C   -1.44311086807452      2.47477809441002      0.55084955853250
  N   -1.78356898426388      2.94826657428225     -0.69589021263646
  H   -1.52123961394405      2.82545586831360     -2.73689832405974
  O   -1.05004240154753     -2.17987549936111     -2.88537552712509
  O   0.28601067038975     -0.55070116755599     -0.33681564979934
  C   -2.46888660308082     -2.98148135131129     -0.69820988773967
  C   -3.43346308286345     -3.94157468622432     -1.38856894140909
  H   -2.70133482549645     -2.90409024165290      0.37074148700943
  H   -1.43173705422653     -3.31954512529127     -0.81714909905292
  H   -4.47617345256577     -3.60973814577278     -1.26621883240112
  H   -3.34468279053529     -4.94450265996286     -0.94063093003878
  H   -3.20401746254569     -4.02870855329178     -2.46158815378396
  C   -4.63796675906923      1.37644370090070     -0.66317480111893
  C   -6.02427432380227      0.95260404481051     -1.20315115481377
  H   -4.42553493708267      2.41684913205192     -0.93210791265031
  H   -4.62995052267430      1.32499830391062      0.43343022213027
  N   -7.14125516377253      1.74221998312514     -0.69379782077894
  H   -6.19746081453692     -0.09947817265649     -0.94448048460646
  H   -6.03206478735673      1.01099441172585     -2.30217512887733
  C   -2.32281371666506      4.29704923380579     -0.80911110098995
  H   -3.36409876961625      4.29127070829926     -1.17540705009614
  H   -1.71406743009219      4.89609940187649     -1.50790380793444
  H   -2.30606112681051      4.76361650246731      0.18241959089695
  C   -0.54138387631281      0.66388159032145      1.95157678130492
  C   0.79624623145562      1.13066442481900      2.51912624535285
  H   -0.55965428663752     -0.42930653822245      1.86013509405438
  H   -1.36708114311392      0.98393481795716      2.59847132147261
  H   1.63215805999389      0.80927332323036      1.87860409266789
  H   0.94952761325246      0.69250945985423      3.51861452314395
  H   0.81667221321709      2.22614705939902      2.62189632488822
  O   -4.19634444985434     -1.10761815344459      0.21858967801499
  O   -1.64214862186177      3.09869114881466      1.57542663746736
  C   -7.69561199738758      1.37971261816954      0.55931024925656
  C   -7.44472024234540      2.96902404197701     -1.32928357917338
  C   -8.64592394670448      3.66826208147874     -1.05714408007008
  C   -6.57536504864087      3.54531742649482     -2.27913944589130
  C   -6.87434047985371      4.75458511471506     -2.91613054786780
  C   -8.04248473107228      5.44682886048227     -2.60653552494816
  C   -8.91881593639599      4.89640050492655     -1.66720656928720
  H   -5.64571840046144      3.04799379693309     -2.54658274558773
  H   -6.17328565756703      5.15293422731555     -3.65421351797152
  H   -8.27780671607827      6.39829411674541     -3.08876340788092
  H   -9.84890949693845      5.41168102283961     -1.41300414876223
  C   -8.91841668948063      1.93136798868608      1.00871735870411
  C   -9.43349505668479      1.59807293401654      2.26391774721983
  C   -8.79268568606331      0.67381899039125      3.09108089172348
  C   -7.60810220111098      0.10087367532774      2.63439197536905
  C   -7.05090547753170      0.44816118810658      1.39878848882799
  H   -6.11696761990220     -0.03537934731569      1.11515489825433
  H   -10.37068721778626      2.05807020670737      2.58791243761880
  H   -9.20573298033774      0.40196423010617      4.06308605543070
  S   -9.91666989932381      2.94104461374290     -0.05563573136553
  C   -1.36035172431869      0.21678612219641     -4.24388503551672
  H   -2.19987361974427     -0.25757041787138     -4.77624323887926
  H   -0.44681499225832     -0.32989028787795     -4.51134957221730
  H   -1.27775413161940      1.25460572608855     -4.59938705903478
  C   0.77695791284662      1.37589763587985     -2.48756790619762
  H   0.68463333635141      1.80463040341670     -3.49536915878350
  H   1.39181993106643      0.46562688615020     -2.53983532135155
  H   1.30696211072556      2.10796816345196     -1.85625934647203
  Cl  -6.77860379347784     -1.07308241705288      3.63255732691655
