36
Coordinates from ORCA-job 2058-2_0.0
  C   -1.71830075177060     -1.64608650462065     -1.58559147135382
  N   -2.07187812520073     -1.85439155949900     -0.26722850885004
  C   -2.88459674683771     -1.06720224189760      0.56335505190579
  N   -3.40425173587633      0.09099429495492      0.01662743126363
  C   -3.31014384913997      0.44422509475166     -1.38757495867878
  C   -2.16654827515232     -0.30402860036186     -2.12301766284512
  C   -1.24662217378993      0.94538594789612     -1.93626405006154
  C   -2.51893086405286      1.78266424336692     -1.69632968764544
  H   -4.30331898202366      0.38243893220798     -1.86687294805194
  C   -0.30662058931960      0.88899613143341     -0.74150298286595
  N   -0.48424126044499      1.90076815011528      0.18089967761780
  C   -1.45360857264348      2.92128049413683      0.21913439153154
  N   -2.43055525862314      2.85984312802653     -0.74600749611997
  H   -2.89129664235665      2.18312150479980     -2.65218408311835
  O   -1.11744986516792     -2.46552386503624     -2.24109694758991
  O   0.56198820891602      0.05366123363658     -0.62494361280700
  C   -4.42909881988273      0.77618176663716      0.82174840106221
  C   -3.38718445978792      3.96970168532578     -0.82322178451106
  O   -3.10441418056185     -1.41815084923834      1.70627282939512
  O   -1.39033195672623      3.79045614797500      1.06576372784972
  H   -2.39272696983975     -0.44192575808100     -3.18811940321599
  H   -0.63103500264669      1.20848543129447     -2.81063498712825
  H   -1.73523471303789     -2.70866317580688      0.17076619281253
  H   0.18000437489055      1.93256126316105      0.95140803462657
  C   -5.79991937272906      0.09932133734990      0.77500179083959
  H   -4.49407350098788      1.81088830063658      0.45992158507048
  H   -4.06554159174037      0.81458463039049      1.85767211349708
  H   -6.19005673534821      0.02884480044672     -0.25417228812263
  H   -6.52652032741213      0.67799180100859      1.36796240676230
  H   -5.74477976752152     -0.91360489830327      1.20029056638950
  C   -2.90754939441140      5.12375038796848     -1.70330806694175
  H   -3.56201915235394      4.32700220744451      0.20122039497430
  H   -4.34035823636136      3.56402647838300     -1.20012464670207
  H   -1.98569314012532      5.56273691479555     -1.29228788547114
  H   -3.67283728711203      5.91558212190710     -1.74551626683254
  H   -2.70701428282030      4.79487302279439     -2.73658485668485
