42
Coordinates from ORCA-job 2058_0.0
  C   -1.78286376547043     -1.76799338767630     -1.56789640958180
  N   -2.08345348842431     -1.83927199976030     -0.21462941813320
  C   -2.85962525861447     -0.89911180771148      0.50252825966502
  N   -3.36348458162257      0.19111902736120     -0.18131013780303
  C   -3.20122536902988      0.44148697906380     -1.59653487009090
  C   -2.10862930325100     -0.44952603224352     -2.22870962377835
  C   -1.09242037941198      0.73923120022739     -2.11880444887230
  C   -2.29350104986412      1.68489997641164     -1.96715076257222
  H   -4.18560375871925      0.42744512476697     -2.09859377744881
  C   -0.17265121296349      0.68545369677593     -0.91108381603454
  N   -0.32733605818313      1.68184554498108      0.04453383528909
  C   -1.23029716413797      2.77415424590220     -0.02339102268153
  N   -2.12045716736451      2.79408247730214     -1.07477545580523
  H   -2.61469363248987      2.06835855775067     -2.94872123285937
  O   -1.27693287745132     -2.68768395476877     -2.17497935434912
  O   0.66971186423146     -0.18298357507200     -0.80836481412072
  C   -1.62412572449593     -3.02825096945347      0.52778520080068
  C   -2.64658852443770     -4.16152347031779      0.54011321148888
  H   -1.40220706838250     -2.69931910767022      1.55042700160819
  H   -0.69392880405802     -3.35197314507982      0.04354857906468
  H   -3.58049953820726     -3.84387894112718      1.02929812749275
  H   -2.24574763933975     -5.02057197906463      1.10233153272765
  H   -2.87159914975111     -4.50167106519452     -0.48260141860132
  C   -4.28750860587541      1.04982944171130      0.55825906148986
  H   -3.77137449070647      1.86276833789013      1.09498249857456
  H   -4.83151509762391      0.45139058445502      1.30037913711117
  C   -3.01504980682788      3.93549541385329     -1.20682840612137
  H   -3.00925815073203      4.29875282138708     -2.24806941706145
  H   -2.67005568842515      4.73205320713232     -0.53791292977274
  H   -4.05319636485461      3.67698375972015     -0.93416972671409
  C   0.58344329100427      1.65585109568932      1.20798300455211
  C   1.86922771377720      2.44568231252501      0.97844974387606
  H   0.80996338741300      0.59963564757965      1.40018826816085
  H   0.02683169714392      2.06536981613758      2.05956668987347
  H   2.43792315746022      2.03856256110112      0.12791187103466
  H   2.50974736417589      2.38325573008549      1.87303339618677
  H   1.64865356142129      3.50775580603154      0.79199886937724
  O   -3.08301899599973     -1.06621523521972      1.68752865759255
  O   -1.19133799851718      3.64996311160621      0.82082415723700
  H   -2.31691717107710     -0.66214134827921     -3.28472535756278
  H   -0.44899806989774      0.88190967712050     -3.00007179910044
  H   -5.00574008041937      1.49284986407020     -0.14862690413789
