54
Coordinates from ORCA-job 2059_0.0
  C   -2.74338217533383      1.54074034618577      0.04252460859128
  C   -2.22759765983564      0.07785681833458      0.03889285082459
  C   -1.06529529681280      0.53376840243845      0.98051843182082
  C   -1.32912804849474      1.99831355536210      0.50081183055057
  C   -0.46895546209157      2.39921018554807     -0.70147320701046
  C   0.33404959804138      0.04389091348114      0.79728597506910
  C   1.16447474132858      0.70101897996976     -0.11598508137727
  O   0.72146177902378      1.76075468778750     -0.88360231377224
  O   -0.80439320201287      3.23508542220300     -1.49039634550134
  C   0.88299926118140     -1.03944008644151      1.50486296309662
  C   2.19441517658879     -1.45355511258864      1.30277820728984
  C   3.01113325251377     -0.77453975391830      0.37676012398435
  C   2.49047578055120      0.31430634142170     -0.33584143041412
  H   0.25489034132435     -1.56431589580177      2.23058585337649
  H   3.07356386151816      0.88113521767866     -1.05983515119759
  O   4.27668568179754     -1.23483376096652      0.24165468856743
  C   5.16298823134230     -0.61056372035565     -0.67778497860688
  C   -3.13847281814813     -1.08310326335198      0.45864781051959
  C   -3.80015687848902     -0.87251038718274      1.80462726170356
  H   -2.55612304373578     -2.01703662663273      0.47755179433694
  H   -3.94566218241904     -1.18914010409008     -0.28324098672560
  O   -3.11783422430317     -1.47420705731454      2.80194572564329
  H   -1.80857963461984     -0.16834668226943     -0.95121990942536
  H   -1.38102561320041      0.42483872002823      2.02904476715439
  O   -4.80162553699465     -0.22313315510871      1.98858862680171
  C   -3.65489618940727     -1.33371236780792      4.12944934519572
  C   -2.81583075418628     -2.17117084929193      5.07933874593423
  H   -4.70965975258331     -1.65509129858439      4.12372534816395
  H   -3.64824900889255     -0.26597579445756      4.40872219485380
  C   -3.33869666494243     -2.11363680088873      6.51588139472371
  H   -1.77015707780976     -1.81977646736553      5.03934272125602
  H   -2.80781800627540     -3.21365571500588      4.71727647033358
  H   -3.33992488286034     -1.08195666173233      6.90611660203357
  H   -2.71447286234877     -2.72172132594607      7.18874304423899
  H   -4.37117805525337     -2.49522694297370      6.58540299288463
  H   -3.10238655555104      1.96627547359544     -0.90462806419497
  H   -3.48489252548239      1.71708654279292      0.83185122712384
  C   6.49089563145764     -1.34119136583071     -0.62039967252482
  H   5.28859514296559      0.45666347546346     -0.41401782366595
  H   4.73575058825722     -0.65062886412038     -1.69777935027015
  H   6.91804994380199     -1.29419519309208      0.39328285983571
  H   7.20650354745165     -0.88475880499663     -1.32206440117242
  H   6.36431246913911     -2.40078358173755     -0.89162304064192
  H   2.61907347733172     -2.29652608729822      1.85102146144570
  C   -1.16652864818424      3.07017817535507      1.56779211134464
  O   -2.20797392928449      3.10354643671157      2.41177141385234
  C   -2.13854049123374      4.05369469989420      3.49364826069967
  C   -3.42180682529085      3.95137071903107      4.29106255107358
  H   -1.99212175119898      5.05981594133792      3.06887128556463
  H   -1.24849260375955      3.82984482708527      4.10447121444336
  O   -0.18862628269645      3.77012033029379      1.67601167922933
  H   -4.29663774070152      4.17975739936744      3.66289771527685
  H   -3.39978622068940      4.66709776992918      5.12794692456400
  H   -3.55234990049253      2.93934234585592      4.70543267309854
