54
Coordinates from ORCA-job 2060_0.0
  C   -5.89073418473957     -0.98254539699268      0.90744374644723
  C   -4.40274730557943     -1.20007839266411      1.39010417872170
  C   -6.68549213007971     -2.11378305874924      0.30143682814362
  C   -3.61985504093356     -2.37982587747466      0.86849465226660
  C   -2.95110126671956     -3.22879518159961      1.75729937063424
  C   -2.18748115379932     -4.30982812844841      1.27867198521316
  N   -2.07806454776206     -4.56787099759630     -0.02976900206147
  C   -2.71712641278221     -3.76642450173853     -0.88728348939499
  C   -3.48992082528482     -2.67205261612576     -0.50113292583830
  C   -6.86538464729787     -3.31662684805694      1.00387809114063
  C   -7.63180642887991     -4.33560138910073      0.43511115670408
  N   -8.22378920089683     -4.23821509305159     -0.75966511783406
  C   -8.05997407235896     -3.09663954047074     -1.42867492647545
  C   -7.30842611065522     -2.01634351209565     -0.95000610089781
  H   -3.98282416755138     -2.06845551794568     -1.26646519867434
  H   -3.01295961802620     -3.04861219429081      2.83482993341367
  H   -2.60889479747918     -4.00885656291984     -1.95168725021532
  H   -6.40870821769580     -3.46541422204160      1.98598749431631
  H   -7.77373219035579     -5.27931443431165      0.97605059473849
  H   -8.55343530109736     -3.02554195719508     -2.40601646167001
  H   -7.22805407893432     -1.10932787308752     -1.55334183540693
  C   -1.45195456592854     -5.22006340718028      2.23130213444914
  H   -0.93868855514856     -6.00695125198535      1.66311559118038
  H   -2.14252099949269     -5.69184174523166      2.95031992921501
  H   -0.70382885032681     -4.66134117582965      2.81902980891554
  H   -4.67360503446840      2.69218547074522     -0.90223683322519
  C   -5.71061839021526      2.66072475290043     -0.55800407339660
  H   -1.80213046963393      1.76625598381350      0.77790453651510
  H   -0.72762897312175      4.20130730400177      1.38902739471525
  H   -6.08396405501914      4.73136435330768     -1.05848879144435
  C   -5.43375743184403      0.21771578917537      0.04543348694504
  C   -4.02676565819022      0.19526362969147      0.76082061493767
  C   -2.48038022319160      1.99660072997007      1.60507865311746
  C   -6.50389537600121      3.80632445432645     -0.64455382245936
  C   -6.25548330707000      1.48212529021856     -0.02246053974655
  C   -2.13256926186134      3.00093943048224      2.52730138333359
  C   -0.83500279483727      3.75925173908664      2.39339336401605
  C   -3.67857263691364      1.28686726032768      1.74204140016603
  H   -0.79874311441402      4.56027070691749      3.14351699666708
  N   -2.92795888502047      3.31524301380095      3.55658359962021
  N   -7.77915242602500      3.85584811220094     -0.24642207741789
  C   -4.49656391373549      1.63473575793108      2.83155387086177
  H   0.03114955217171      3.09336015590919      2.54935943109456
  C   -7.59246891944858      1.53899082720995      0.39351428992564
  C   -4.07594749259488      2.64549522026608      3.69525423416265
  C   -8.30257343466785      2.73845253501210      0.25890640309728
  H   -5.45350776650597      1.14008666585619      3.01294712953989
  H   -4.70542230076828      2.93157684104493      4.54695752115558
  H   -8.09418829122276      0.66226094494443      0.80960519554746
  H   -9.35089811688303      2.78872427121348      0.57873915949485
  H   -4.32400729039017     -1.19108986977764      2.48599165540009
  H   -6.45731557767402     -0.61331665458880      1.77886306728261
  H   -3.20424108726268      0.10996776611604      0.03728055321567
  H   -5.26755265338490     -0.11806160591940     -0.99212099015272
