59
Coordinates from ORCA-job 2065_0.0
  C   -6.76188953007651      3.44066223173158      2.48565196007280
  C   -6.10192329623500      4.26221373817357      1.33452501973290
  C   -6.28882852341230      2.11511986775070      1.78465090729281
  C   -5.82756928450534      2.95955730478639      0.54010780321205
  C   -6.38791063713730      3.73392043171534      3.93649144682165
  H   -7.85717988406676      3.52629497157750      2.39184089364821
  C   -5.26148354601110      1.24113696609859      2.50726319282803
  C   -6.92773162482596      5.08086103847653      4.43196869449133
  H   -5.29157611995357      3.70934051512857      4.06195941339809
  H   -6.78567683212191      2.92179794975244      4.57386950372298
  C   -6.54090359744757      5.38545075857710      5.87668530974225
  H   -8.02730577950443      5.10230231328048      4.34115667343036
  H   -6.54665632476614      5.88684489534534      3.78622642073189
  C   -7.13643293351038      6.67753227240689      6.42381579731879
  H   -5.44129782933367      5.44855105333679      5.98253174631700
  H   -6.84307844748263      4.56482174239549      6.55698809701882
  C   -5.00942298162637     -0.11387750543186      1.83176573669727
  H   -5.62181846385130      1.05327784982820      3.53408861527225
  H   -4.30702460920923      1.78382687403193      2.62744196146308
  C   -3.98027958466405     -0.98268119664149      2.56183086048403
  H   -4.68292388238849      0.03699096449855      0.78629746176230
  H   -5.96744436542173     -0.66244273036636      1.76313925591734
  C   -3.74142167493316     -2.34845213694944      1.90942666406949
  H   -4.30752854543462     -1.13140211103482      3.60837353624024
  H   -3.01994441123219     -0.43665776400451      2.62626697833465
  C   -6.75372441445420      7.04927317977295      7.84742877517341
  H   -7.10565915723406      6.27482598975151      8.55042267774547
  H   -7.20422013807406      8.01515248926377      8.11247457652085
  H   -5.65777784095684      7.10526850642469      7.95573221494281
  C   -2.71574786930792     -3.20898589005812      2.64972758375108
  H   -3.41304518102120     -2.19960830168598      0.86405468988887
  H   -4.70196561951343     -2.89230019502215      1.84555805931892
  H   -1.73266584554365     -2.71024522772801      2.69765070655750
  H   -2.57006990701505     -4.18279815814782      2.15476469198706
  H   -3.03377637189878     -3.40770976529506      3.68742449387968
  C   -4.72200310987375      4.84157195481959      1.62548492364567
  H   -6.72898859427805      5.04554726201339      0.88166067755350
  H   -7.15042149990163      1.47648640413766      1.52780247525642
  C   -4.34001597247415      3.01003797783118      0.14865200663317
  H   -6.46573254602099      2.79822007679371     -0.33941257384660
  N   -3.78610258486343      4.05944810647886      0.99361783952209
  O   -7.88243622343669      7.36970203091621      5.76679661762837
  H   -3.81105761303151      2.05710968199531      0.32041446934374
  H   -4.21265996582825      3.26099080742726     -0.92112040900239
  O   -4.46996640205386      5.83103149742189      2.29486573874360
  C   -2.37167736468298      4.39474408643916      1.00058154536756
  C   -1.89588209678249      5.06193068479216     -0.27943660722161
  H   -1.78587433743040      3.47813584338468      1.18672255464476
  H   -2.22696300945716      5.07398783998440      1.85458163473362
  C   -1.01117024415586      4.41637231278955     -1.15394348997225
  C   -0.58944174651053      5.03874731047431     -2.33491152057139
  C   -1.05289608386001      6.31712774404768     -2.65493859425555
  C   -1.93607481525664      6.97165247646776     -1.78728060384541
  C   -2.35290112150149      6.35053682188361     -0.60809690427882
  H   -0.64263418144014      3.41538099585395     -0.90774978070289
  H   0.10222308877190      4.52153847299269     -3.00565153848380
  H   -0.72525683716447      6.80571824211251     -3.57659650798164
  H   -2.29690805711733      7.97531949176288     -2.02871580830626
  H   -3.03373362747888      6.86563895544015      0.07571143560966
