58
Coordinates from ORCA-job 2066_0.0
  C   -6.24633913127926     -0.97371772417253      1.76112769087564
  C   -4.67611458037153     -1.00300363997151      1.69288534074366
  C   -6.97212090722752     -1.75849396475365      0.69672800968265
  C   -3.94488822781004     -1.59728125584113      2.86818937667313
  C   -4.12725463406949     -1.17315602860357      4.19154145078482
  C   -3.46173665113220     -1.75881782168713      5.27025032171968
  C   -2.58198320516506     -2.81994768732913      5.03954969255210
  C   -2.37589182357272     -3.27403060876553      3.73496043886622
  C   -3.04691520163295     -2.65840203978841      2.67477468776920
  C   -7.96517823022368     -2.68232081883821      1.06147217982352
  C   -8.64139367865331     -3.43986350585252      0.10314142517628
  C   -8.35434493864598     -3.30355453498974     -1.26388719639646
  C   -7.36228771225734     -2.38038090759078     -1.62987833946177
  C   -6.68564454670203     -1.62270834138969     -0.67194140066295
  F   -2.81791993293347     -3.12625733604727      1.44588971551589
  F   -4.97992413476581     -0.17332878498251      4.45855653838673
  F   -1.54775304634737     -4.28921728766839      3.50990818054830
  H   -8.20947657853771     -2.81541422798056      2.11995214621849
  H   -9.40479735949178     -4.15472291777942      0.42569165600670
  H   -7.11315507361046     -2.25081199992021     -2.68730823614229
  H   -5.92501145723868     -0.91204339872260     -1.00641040117012
  H   -5.51934000444324      2.45663418294364     -0.27433934149507
  C   -6.59524160464169      2.28617376117376     -0.18535128107014
  F   -1.93946424202680      0.20307604488466      1.17509809313878
  H   -7.03605150345216      3.70740610412884     -1.74763191914802
  C   -6.19800177342611      0.60875291777938      1.70468028515013
  C   -4.66940486561471      0.55722417310088      1.44396676603783
  C   -2.31617182671792      1.18061003611561      2.00943288164090
  C   -7.45791383534452      3.00418354701733     -1.02313751168994
  C   -7.09034326727554      1.37770526088701      0.75867538792133
  C   -1.31858501861657      1.90861234507635      2.65728890863244
  C   -3.68590451107907      1.42904896530641      2.18996815435999
  C   -1.68393239018733      2.93966752868678      3.52699041612402
  C   -8.84627989274736      2.83965667820507     -0.95084234197069
  C   -4.01422911807165      2.48653989753247      3.04918537031939
  C   -8.48663531380508      1.22232474650334      0.84028347840561
  C   -3.03530554503704      3.22794060050670      3.72062144933644
  C   -9.34328307567253      1.93398133573970      0.00390868620792
  F   -5.28380346614762      2.84205438064000      3.26111512218388
  F   -3.39125297897508      4.21194842658056      4.54077905863983
  H   -8.90956573880381      0.52627526688886      1.57004087327394
  H   -10.42398903987897      1.78396266940490      0.09150204439974
  H   -4.32567425784640     -1.53088494733588      0.79977440157999
  H   -6.61453173121657     -1.30586501119573      2.74086941820196
  H   -4.46561031188187      0.69291220693785      0.36998918762639
  H   -6.39500469453212      0.96552845029258      2.72195646085695
  F   -0.75217012098363      3.64058063461756      4.16171027717927
  F   -1.95074010191726     -3.39704106899686      6.05489741218084
  C   -9.10154278992686     -4.10943162607946     -2.29900719327857
  H   -8.59337152776129     -4.08672847248335     -3.27489299585128
  H   -10.12290440748935     -3.71702766553009     -2.44896400712304
  H   -9.20386994723276     -5.16329249253560     -1.99294390685238
  C   -9.78420263305198      3.59535219272712     -1.86114305127386
  H   -9.24135082139434      4.30513534703446     -2.50346683156578
  H   -10.53241396323341      4.16555128898243     -1.28495336438702
  H   -10.34320960477358      2.90803063910054     -2.51946642656506
  F   -3.66302913590372     -1.31911444204801      6.50928999108023
  F   -0.03394388722141      1.63048093008470      2.45469277028356
