62
Coordinates from ORCA-job 2067_0.0
  C   0.19363382416227     15.96831619070719     -0.10245231249819
  C   -0.00876353524557     16.72499222908736     -1.25819247182178
  C   -0.98190861812899     16.32707967204567     -2.17649391514851
  C   -0.56629465252315     14.81671818354411      0.16771223741856
  C   -1.54513423401908     14.41878823341920     -0.75970339873484
  C   -1.73755251609700     15.18034916425427     -1.92202219356078
  H   0.59506628704838     17.61773634413272     -1.44071295771253
  H   -1.15139946894285     16.90347039175103     -3.08984656993428
  H   0.96102887025943     16.27606036317748      0.61417985123343
  H   -2.49579454343304     14.86328792610420     -2.64429421377410
  C   -0.29681537281143     14.07389935733323      1.44564279917155
  C   -0.17350401356152     12.48240000232519      1.55196968970092
  C   -0.58106615523081     11.55617915201310      0.42460087314659
  C   -2.37223777668266     13.17143256498246     -0.53947811631935
  C   -1.55940386106158     11.87932011672096     -0.54189422091345
  C   -0.05519279936858     10.25089724977688      0.43559803773099
  C   -0.39150327470230      9.30918907181627     -0.53620108730082
  C   -1.28950940295942      9.65907558905019     -1.54545436967085
  C   -1.87303332119559     10.92558541817505     -1.52635881791042
  H   -2.61530108863574     11.18243800808992     -2.28779792834352
  H   0.60951754555664      9.95750647529496      1.25110615532591
  H   0.04088589079399      8.30601261661924     -0.49728963725513
  H   -1.55849032794060      8.94277608935414     -2.32620698637476
  C   -2.78348947624867     15.99457004004230      3.27515395695149
  C   -3.88872616604380     16.82851576143370      3.09030875306083
  C   -4.80850375498047     16.53186789662582      2.08394026556851
  C   -2.57448666468264     14.85809176060730      2.47694782397316
  C   -3.51188515097798     14.55072953105205      1.46932500430250
  C   -4.61591328514188     15.39829444051949      1.29065038191555
  H   -4.02599955159606     17.70609529615654      3.72753208407511
  H   -5.67858935009028     17.17303799470567      1.91972275057519
  H   -2.05463817613500     16.23318383645355      4.05549450048697
  H   -5.34885849252083     15.15589015029644      0.51528993273966
  C   -1.30327066885080     14.07597809869297      2.65471764647157
  C   -1.22574309084144     12.49994429769776      2.77158318418477
  C   -2.53613974044261     11.69478489034073      2.54638127525522
  C   -3.43860409358553     13.26732567664794      0.65429886733749
  C   -3.50976520531915     12.05241935799176      1.57267365883077
  C   -2.80641103050451     10.54291803128124      3.31688554819927
  C   -3.96638025795729      9.78097541183916      3.16701825254941
  C   -4.91524204842187     10.14324660973632      2.21746525667337
  C   -4.66973703144003     11.26942768528990      1.43619411420136
  H   -5.40736397819816     11.56482653698787      0.68480143093323
  H   -2.08768831945157     10.19983907847917      4.05445881268707
  H   -4.11323524132197      8.90088371962090      3.79861183007846
  H   -5.83159342523271      9.56306978247302      2.08117291964011
  H   0.63665335528454     14.50489418091966      1.82418088104355
  H   -0.78522181256351     14.51372201443878      3.51516980008208
  H   -3.00402678833546     13.09352967885273     -1.43298749870803
  H   -4.39237232013360     13.24857203772194      0.11480087272178
  C   1.31967200751949     12.38319293133325      1.94994204060853
  C   -0.58675562055494     11.97814636298542      4.08742012524107
  C   -0.72800971954329     12.80186030245032      5.35188741191126
  H   0.04924653817468     13.58324009572410      5.35997138377953
  H   -0.56218949754753     12.14652444228437      6.21748438607716
  H   -1.71034395850593     13.29396574449486      5.42372709267913
  C   2.33628561288481     12.17624379255712      0.83740929819664
  H   2.50097820175049     11.10403183089608      0.65552387179012
  H   3.28732922524138     12.62522812196847      1.15500134443914
  H   1.99728045052630     12.61467332055202     -0.11341696583537
  O   1.69387577617978     12.67332311641299      3.06695118951940
  O   -0.06665470567267     10.88428573166070      4.10750606930824
