44
Coordinates from ORCA-job 2069-2_0.0
  C   -6.09396526078809     -1.02397040057540      0.72960310283657
  C   -4.78368190362143     -0.88893605000883      1.55993367536533
  C   -6.90365757016034     -2.29389343384636      0.77783881439709
  C   -7.30417942057456     -2.93314684553973     -0.40773973945227
  C   -8.04334589486405     -4.11667255737702     -0.38066701638353
  C   -8.40423475075379     -4.69218624286922      0.84673496714425
  C   -8.01581159010059     -4.05991255231252      2.03913787202442
  C   -7.27746700975008     -2.88009354916661      2.00224341640631
  H   -7.02741200464433     -2.49503334199142     -1.37102427036140
  H   -8.34284290773137     -4.60208435619087     -1.31066701630573
  H   -8.30296070666208     -4.51652531222504      2.98865407663804
  H   -6.98312734574394     -2.40985161651091      2.94464658752417
  H   -5.93213735620561      1.66209983272448     -0.82796768763489
  C   -6.93669247841535      1.90476210867456     -0.47027320756335
  H   -7.28693039740967      3.32310826399339     -2.06330589411826
  C   -6.62219914805613      0.27149255709509      1.45318713716985
  C   -5.14950180855881      0.58561674925012      1.85003545027288
  C   -7.69273520341146      2.84195156969447     -1.17218708893842
  C   -7.44017484047226      1.27726244685204      0.68458484345559
  C   -8.98397331926235      3.17859124045854     -0.73353537584060
  C   -8.73648368105117      1.61898659771679      1.10780292505615
  C   -9.50021296828120      2.55500887078933      0.41195486253937
  H   -9.15081381074381      1.14300042342080      2.00117156925541
  H   -10.50562424821674      2.82188145888961      0.74446764107309
  H   -5.88394549982109     -0.77597463172198     -0.32298105759596
  H   -7.18389220762625     -0.03153147449152      2.35081706407470
  C   -9.18533048115753     -5.95990889572742      0.94508936766812
  C   -9.83662634643258      4.18255067879703     -1.43494750487303
  H   -4.98328039908476      0.96718962782484      2.86902600359474
  H   -4.67300694832360      1.27843983050414      1.13943712734120
  H   -4.81134438936448     -1.50764783672906      2.47019524547696
  H   -3.84008108913111     -1.09281786720487      1.03110811849056
  O   -9.22599638346171      4.71870377571956     -2.51214047629259
  C   -9.97419001505740      5.68940554358234     -3.24121265290796
  H   -10.91059391566630      5.25621209520011     -3.62595658725840
  H   -9.33337984141929      6.00964639774080     -4.07266369490590
  H   -10.22892461461521      6.54958668796805     -2.60276581544704
  O   -9.48831000407135     -6.47639869477375     -0.26358944550053
  C   -10.23098099351441     -7.69383656520842     -0.26008187896235
  H   -9.67666581796695     -8.49029160996591      0.26039614759024
  H   -10.38418566481362     -7.96284436542066     -1.31297959699574
  H   -11.20041922467723     -7.56135282063896      0.24489404087301
  O   -10.95296044433111      4.49663437486188     -1.08955684417786
  O   -9.51706009398464     -6.48250011126147      1.98513279524775
