56
Coordinates from ORCA-job 2071_0.0
  C   -6.47397728278590     -0.78235365005994      1.68206522188029
  C   -4.95074101305540     -0.50210265047760      1.61777183967298
  C   -7.09270356469054     -1.64572140892035      0.60652321791615
  C   -8.40495035729595     -2.12163594938664      0.78913152132718
  C   -9.03651074487560     -2.90370482438966     -0.17527088826207
  C   -8.36362768795398     -3.23824948569786     -1.36186131765062
  C   -7.05356053965298     -2.77756284688838     -1.55413619952826
  C   -6.42918794644176     -1.99431631949998     -0.58311990994542
  H   -8.94059601941232     -1.87256492831338      1.70977275785412
  H   -10.05392459449649     -3.26336092745568     -0.01505413261253
  H   -6.53534515422662     -3.04814492936567     -2.47658666443747
  H   -5.40626892291363     -1.65571456001262     -0.76002844919261
  H   -7.12780363734565      0.76270785939391     -1.18563210422102
  C   -7.91800607771472      1.27300782023873     -0.63120209498142
  H   -9.03601278461527      1.72504526695244     -2.42405274057146
  C   -6.70399638616711      0.79126628421071      1.56484793917739
  C   -5.21085794069967      0.92547551427573      1.09062414482635
  C   -8.99403800785800      1.81017548545670     -1.33731335813808
  C   -7.84473944725281      1.37046726365497      0.77110684970056
  C   -10.03409980698006      2.46118671784753     -0.65521734178400
  C   -8.89501902474646      2.02529088494751      1.44040960471189
  C   -9.97535942781280      2.56231873702302      0.74268405849238
  H   -8.85886423792000      2.11957919563651      2.52962194700125
  H   -10.78742362818532      3.07250879469297      1.26497507692368
  H   -6.82112395610986     -1.16020241590321      2.65613045920350
  H   -6.76846637350492      1.17624063267618      2.59388037138829
  C   -8.98437474015868     -4.06922513832096     -2.43473126840273
  C   -11.20942327190166      3.05682079163127     -1.35725847893425
  O   -11.14025540787937      2.91253648663058     -2.69630041642573
  C   -12.22922249040900      3.45017328698344     -3.44448793416459
  H   -13.17872487177375      2.97605550148263     -3.15122080843183
  H   -12.00944403035012      3.24140179686903     -4.49916554287901
  H   -12.32020319402080      4.53516979696137     -3.28061124201935
  O   -10.23573667096507     -4.46374896858806     -2.12341052216943
  C   -10.90796532647139     -5.25788192086136     -3.09856240220191
  H   -11.00123768212409     -4.71367525827716     -4.05119009211614
  H   -11.90116622273918     -5.47527589826020     -2.68539805140970
  H   -10.36024159375606     -6.19412619833952     -3.28810451212253
  O   -12.13039368877253      3.61166255076758     -0.80226689197941
  O   -8.44141175582398     -4.36444895840216     -3.47536632175555
  C   -4.40585407269354      2.04652265543970      1.74031397381844
  H   -5.14996080735883      0.98071092810226     -0.00565560451299
  O   -3.81235826083249      1.83670969553684      2.78377100925174
  C   -4.37637463335063      3.41117880600380      1.11323452396728
  C   -3.60785504778050      4.40650861112842      1.74681959204501
  C   -3.54130033972784      5.69449433996840      1.21990261628054
  C   -4.24787407314185      6.01070407387171      0.05207535947520
  C   -5.01753768281337      5.03252599211801     -0.58362957104469
  C   -5.08042819944061      3.73882315829051     -0.05837662983783
  H   -3.06976968773656      4.13721085427487      2.65795766066632
  H   -2.93896826007636      6.45848465593701      1.71868456861350
  H   -4.19890473177393      7.02179484826473     -0.36143866463932
  H   -5.57452486815611      5.27652475882304     -1.49189107363219
  H   -5.69485139907427      2.99309461394335     -0.56398282175520
  H   -4.49951873367402     -0.45955908151744      2.61806492337727
  H   -4.33897369050827     -1.16090234109779      0.98582481418804
