50
Coordinates from ORCA-job 2072_0.0
  C   -7.19225474333006     -0.60720852712175      0.94220947248309
  C   -6.56630712033247     -0.52921910397732      2.37266611436764
  C   -7.74420163046387     -1.91185397388620      0.42468757446988
  C   -7.25639168995492     -3.13939816560303      0.89059188130713
  C   -7.74036433853295     -4.35760730240390      0.39389062155617
  C   -8.74473312551025     -4.37969579792263     -0.59742460157888
  C   -9.22734861255052     -3.13372005566804     -1.04939165627170
  C   -8.74634112343742     -1.92655018331962     -0.56034124689186
  H   -6.47687126427850     -3.16165310491348      1.65367900418030
  H   -10.00733485355903     -3.15525692421561     -1.81249212411455
  H   -9.14980462685895     -0.98759586218263     -0.94645325684286
  H   -6.45586328410311      2.17409136322041     -0.09615572329134
  C   -7.50965020074193      2.37687940523123     -0.30745049902689
  H   -7.04860351589412      3.95484449849064     -1.70997605982456
  C   -8.16655668271642      0.55463518363635      1.33799903554110
  C   -7.19972918616691      0.87621647645181      2.51316499933301
  C   -7.83531692008032      3.38197141742838     -1.21699081347692
  C   -8.51237141511995      1.63097322282678      0.34029865371970
  C   -9.18036305024829      3.66792936527538     -1.50375243856570
  C   -9.85441866081411      1.92567714963376      0.04258290179329
  C   -10.18784262041839      2.92875219300897     -0.86676394225986
  H   -10.64973412659537      1.35975989811951      0.53648863793881
  H   -11.23013986865017      3.15915182162842     -1.09692836480620
  H   -6.45266864775836     -0.21584441588242      0.22159399463501
  H   -9.09632671590964      0.11572310986700      1.73324858733444
  C   -9.38994686846639     -5.56785861688055     -1.25563930105023
  C   -9.59081713809653      4.73708939249298     -2.46194584516853
  O   -8.53626825177071      5.38259091195227     -2.99953518243780
  C   -8.83991846825541      6.42500463260347     -3.92454238189979
  H   -9.40487897392465      6.03392455612662     -4.78486967460104
  H   -7.87580398037837      6.83183050237108     -4.25510643149403
  H   -9.44213102529890      7.21206816244801     -3.44468563228384
  O   -8.86641528892327     -6.74831350370504     -0.90810084451949
  C   -9.44424763996138     -7.90352097568756     -1.51474464953220
  H   -10.51568193390921     -7.97787656262431     -1.27355456827680
  H   -8.89896571497442     -8.76372766505876     -1.10665489080054
  H   -9.33656763566319     -7.86483827746962     -2.60961365967176
  O   -10.73773718803822      5.00864431449383     -2.73559355734988
  O   -10.30247223436637     -5.46371670897725     -2.04562670318119
  C   -5.06047937564388     -0.61249777470080      2.43733156262568
  H   -7.01920047844723     -1.26687516477023      3.04904370289349
  O   -4.64000684251322     -1.74839190313744      3.02581791827064
  O   -4.30881986591638      0.22006967699053      1.98728873578584
  H   -7.65696660176898      1.12556219437551      3.48197983102375
  H   -6.47143015951241      1.65403301178555      2.24344949254969
  Br  -6.94481448149981     -5.90925225705378      1.17942841869670
  C   -3.22486827427532     -1.94654612059750      3.09144257906715
  H   -3.07432467280444     -2.90664550958671      3.60016213347530
  H   -2.74468923455053     -1.13303695890221      3.65600394547240
  H   -2.78793964701433     -1.97548104421008      2.08158425069822
