53
Coordinates from ORCA-job 2074_0.0
  C   -7.08651551910708     -0.60881781920269      0.74610978995666
  C   -6.35951637198680     -0.63137576427155      2.12819255417360
  C   -7.60942363781200     -1.88998282392229      0.14499762055287
  C   -8.48729989906528     -2.69967194846263      0.88690780323230
  C   -9.00060519288525     -3.89024089083042      0.37798251065262
  C   -8.63319248467682     -4.30060731852527     -0.91102440159667
  C   -7.75642064651055     -3.50260129604027     -1.65867076115564
  C   -7.23432134797689     -2.30317046668052     -1.15880346534667
  H   -8.77939987579026     -2.39093014030866      1.89468723745631
  H   -7.48398995040044     -3.84439456164076     -2.66004165803627
  H   -6.57525333991029      2.30419158040466     -0.08337776984495
  C   -7.65274558869019      2.43846801497677     -0.21882431646243
  H   -7.36494805619977      4.11318342719427     -1.53191786212386
  C   -8.07549930609322      0.46311686620815      1.32482188919609
  C   -7.03103176911314      0.73678799043702      2.44370192595009
  C   -8.10344903635769      3.47174133119986     -1.04661406942900
  C   -8.55284683098627      1.58248444024876      0.43465191444125
  C   -9.47310781246589      3.69164071976544     -1.25641629433436
  C   -9.92449609723076      1.80313391996904      0.22473428878088
  C   -10.37312742358389      2.83374499315468     -0.60100259460989
  H   -10.65386427614622      1.15423510607707      0.71922335325333
  H   -11.44944907002664      2.97798491955629     -0.74087505912089
  H   -6.41371999992953     -0.10055629251662      0.04500983758372
  H   -8.95012309034822     -0.04604605614971      1.75914677503430
  C   -9.13795024783473     -5.56015045357206     -1.53116001188377
  C   -10.01101469301733      4.79450861933563     -2.15298371766547
  C   -8.98595532682657      5.77065721664734     -2.72950194568265
  O   -9.97893891306666     -6.23586184258372     -0.71967681360328
  C   -10.51365976722790     -7.45040359092400     -1.24010332402486
  H   -11.09321128625177     -7.26339374643139     -2.15762395698856
  H   -11.16424641883644     -7.86001689742951     -0.45684434653997
  H   -9.70973497821502     -8.16355433025628     -1.48017772353085
  O   -8.84044277824396     -5.95106726163493     -2.63735493347789
  C   -4.85182736480076     -0.65379646887950      2.07341969172169
  H   -6.72414303383815     -1.43133989018925      2.78648753457546
  O   -4.31792382043319     -1.47529666831969      2.99475289583227
  O   -4.18569569180744     -0.00290794223900      1.30033114038868
  H   -7.41175044484579      0.88386763282506      3.46530263966703
  H   -6.36452618372415      1.57149596893857      2.18228493181941
  C   -2.89144925550009     -1.55213435373276      3.02562106420378
  H   -2.64013907039581     -2.26756910732174      3.81866736859947
  H   -2.45092747046929     -0.56724261497876      3.24496247095830
  H   -2.49784743398858     -1.89945508171542      2.05797845537838
  C   -6.29309795128772     -1.48819429069008     -2.01818450938042
  H   -6.11245193772694     -1.98977238905716     -2.97993902080624
  H   -5.31667217828744     -1.33571695268152     -1.52958025436613
  H   -6.70154008479079     -0.48720766528719     -2.23513134101958
  H   -9.68127985682431     -4.50271921985797      0.97068204196441
  H   -10.56796652695747      4.32360099065890     -2.98443344529716
  H   -10.77172884521088      5.35997069464503     -1.58481332994718
  H   -8.25307267560504      5.26208085350124     -3.37681577877385
  H   -8.42607463169196      6.29127950006326     -1.93530379541376
  H   -9.48657450900025      6.53785136052630     -3.34104123491064
