47
Coordinates from ORCA-job 2075_0.0
  C   -7.25004091094149     -0.66953717640968      0.52044937131159
  C   -6.71122397930340     -0.82218060941164      1.97813404332805
  C   -7.71431541651954     -1.89238280528752     -0.20456727174198
  C   -7.49300909956648     -3.21199379304344      0.11041155905768
  C   -8.06797048212260     -4.14301987557210     -0.82214309726885
  C   -8.72516575453963     -3.49090967428545     -1.83692579000335
  S   -8.64676198952787     -1.76590411932917     -1.67664537833167
  H   -6.62346948667240      2.36332146060207      0.09923838524540
  C   -7.66562927511868      2.49973831087843     -0.20319818206731
  H   -7.23390171323042      4.30418530425975     -1.31125072505930
  C   -8.28749899451609      0.38116065031962      1.05685258077864
  C   -7.37938301901370      0.53594030680046      2.30844003939091
  C   -8.00128092351014      3.59473149038811     -0.99833354337455
  C   -8.64311308709717      1.57513592857991      0.20998719818978
  C   -9.33206914856241      3.79375220873021     -1.40248028686358
  C   -9.97049778965325      1.78487319094056     -0.20311741320098
  C   -10.31378275025629      2.87728129826353     -0.99782354780091
  H   -10.74484641569262      1.07601780808106      0.10310031908490
  H   -11.34483215269067      3.03987091396604     -1.31874069869528
  H   -6.49132805237179     -0.13002717427232     -0.07271206328583
  H   -9.20923972004985     -0.15340111524847      1.33454832750990
  C   -7.97656574010543     -5.64326852315065     -0.67906218722598
  C   -9.75368133544362      4.94636562064233     -2.25216508352077
  O   -8.72296871727035      5.75150887466886     -2.58247491586394
  C   -9.04099339810347      6.87710282399100     -3.39839091527966
  H   -9.47674848594094      6.55635269734405     -4.35738561949919
  H   -8.09662150091497      7.40957688116466     -3.56879922093862
  H   -9.76477710419424      7.53590150520831     -2.89385992756449
  C   -8.79322274751304     -6.20483654190700      0.49487852290890
  O   -10.88970432466363      5.15186064658724     -2.61559992055185
  C   -5.21251200964285     -0.91678367521483      2.11959503983007
  H   -7.19624167008797     -1.66110448568200      2.49442108808509
  O   -4.82257699457187     -2.11690402796109      2.59198470834291
  O   -4.43813879528041     -0.03782037755524      1.82215831093502
  H   -7.88262027030212      0.62307085490012      3.28273168627759
  H   -6.65547271398385      1.35615210802131      2.19928674931897
  C   -3.41352359895820     -2.32106748855929      2.71812656083169
  H   -3.28485835032405     -3.33902843138294      3.10676751762854
  H   -2.97384538835784     -1.58837060975779      3.41196561265713
  H   -2.91475777156582     -2.21796058847420      1.74217951644031
  H   -6.90828821406328     -3.51740848740359      0.98097578732584
  H   -8.68664348668272     -7.30002833371087      0.56215154613641
  H   -9.86431245635819     -5.97291093286117      0.37921072431945
  H   -8.46363023349371     -5.77689039490170      1.45581288866644
  H   -6.91670559500752     -5.92913974050296     -0.55115547209436
  H   -8.30875700047514     -6.11614755259330     -1.61809584787819
  H   -9.25650193573792     -3.93446434985924     -2.67906097549055
