57
Coordinates from ORCA-job 2077_0.0
  C   -7.12439992450718     -0.61277176056887      0.57651487889651
  C   -6.35004504040891     -0.53978783283130      1.93704129860026
  C   -7.64974739102583     -1.93949776657555      0.08111035638260
  C   -8.26563103206324     -2.83141201016969      0.96996219709196
  C   -8.78468335802834     -4.05998624679767      0.55185038906868
  C   -8.70661188301112     -4.44110539694706     -0.79247574666775
  C   -8.09474660015031     -3.54380032559041     -1.68353690503575
  C   -7.56789297475129     -2.30839585758711     -1.28585581579854
  H   -8.34768222093916     -2.56702202312452      2.02839962893083
  H   -8.02586874057433     -3.82170126962581     -2.74096287670403
  H   -6.47370332614188      2.23911842465696     -0.05269787391461
  C   -7.51435504595046      2.44108354129882     -0.30825968231526
  C   -8.14857466555917      0.45533357309158      1.11948979771616
  C   -7.18931438644415      0.71434801116999      2.31616685948492
  C   -7.81859751691941      3.52233962644401     -1.15292413876317
  C   -8.51497386653434      1.60607940420374      0.21625006761836
  C   -9.17793843413819      3.78186615319318     -1.48860518941135
  C   -9.85061291925092      1.86273945060670     -0.12400864480387
  C   -10.16186638599116      2.93046427520100     -0.96121881679993
  H   -10.64697467221316      1.22569766942801      0.26874759802938
  H   -11.19699067329231      3.14265506161970     -1.23517198488564
  H   -6.50186658011477     -0.13551196642134     -0.18932899320807
  H   -9.06678481426232     -0.04708813541222      1.45846230476502
  C   -9.25063465938781     -5.75802728573819     -1.32084273022663
  C   -9.68809095848624      4.88472761667214     -2.36244432470212
  O   -8.74867352195189      5.73931150954812     -2.79931205686345
  C   -9.85441925661695     -6.71223954235597     -0.29110434169992
  C   -4.86655023435969     -0.30230916010185      1.80038857532811
  H   -6.53303558679886     -1.40050699410651      2.59153435315886
  O   -4.13503443879709     -1.14944703646023      2.54388859981290
  O   -4.37452874982501      0.55926948591080      1.10394263594149
  H   -7.64928086315068      0.69845702502062      3.31527332270655
  H   -6.61512324570919      1.64409761747151      2.20372328628668
  C   -2.71603152992374     -0.99571111135298      2.47580129323541
  H   -2.29305979710306     -1.76152565311402      3.13797011205136
  H   -2.41461125447012      0.00887713559763      2.81040559108845
  H   -2.35661865744650     -1.14050626396338      1.44539502790807
  C   -6.93267104287700     -1.40516898774810     -2.32024664566079
  H   -6.97340631063137     -1.86427421942941     -3.31892261270934
  H   -5.87278648367541     -1.19991741549595     -2.09275184842914
  H   -7.44151208537934     -0.42917423724749     -2.38077188359467
  H   -9.25075419494027     -4.71595781451681      1.28964995246047
  H   -8.43676320049307     -6.27540305149726     -1.86099050199575
  H   -10.00797116692129     -5.53272143027353     -2.09422426888961
  H   -9.11809306150848     -7.00537833546271      0.47500456954221
  H   -10.20782575686548     -7.63344999249994     -0.78056833909584
  H   -10.71672793676563     -6.26347123427216      0.22850670495600
  O   -10.86018703543885      5.01023878621941     -2.65141431440304
  C   -9.21089623570540      6.80057763529300     -3.62959606461480
  H   -8.32275556914279      7.38963792597384     -3.89264354224989
  H   -9.94206587809054      7.42947151940192     -3.09775086115781
  H   -9.69331427142464      6.40990213813068     -4.53926802200341
  O   -6.86229291001285      4.32443889173252     -1.66371014415832
  C   -5.50532666088846      4.09996769198227     -1.34505865242699
  H   -5.31466021596679      4.19266195701183     -0.26102689969873
  H   -4.93467485534316      4.87408629518170     -1.87584284297734
  H   -5.15983992162991      3.10548193522631     -1.67896183519566
