108
Coordinates from ORCA-job 2079_0.0
  C   -0.30250608966692      3.65612059383876     -0.58477164264179
  C   -1.18462254308954      3.81096575222067     -1.83351141991848
  C   -1.04184032132490      2.31630216838438     -0.17709222971902
  C   -2.17735634558352      2.79918038955160     -1.18324449794554
  C   1.10102093607168      4.17557200346590     -0.82843392679394
  H   -0.73779629866098      4.35880787344716      0.13971281871988
  C   0.97773695029890      5.72923968423829     -1.10026511703558
  H   1.54817990012823      3.68047382958883     -1.70485658695181
  H   1.77901378861386      4.00504058889600      0.02241718523171
  C   -0.34570796097565      6.11991976388210     -1.82231691962843
  C   0.96450470759957      6.43613284783588      0.28245617368212
  C   -1.36657747766602      5.27711944334557     -2.10079670653161
  O   -0.67781957349900      3.21668732103197     -3.03280041325840
  C   -0.45967575187314      0.88370611662367     -0.48992977946001
  C   -1.67063939286140     -0.15291337334035     -0.60427827618398
  C   -3.03849033661665      0.50801734920655     -1.00668812500116
  C   -2.85558755470937      1.68650768492129     -1.98404622154175
  H   -2.93763226128196      3.35126708824067     -0.60727412535261
  H   -2.25148862331067      1.41762403905765     -2.85988052604116
  H   -3.82870837522278      2.03149859853003     -2.36889717020631
  C   -1.53272978783038      2.38217962066840      1.29907431660819
  C   0.52323012042829      0.44784963756970      0.64330080357923
  C   0.42676681832934      0.85706852123658     -1.75815063385287
  C   0.05086003190082      0.60154708070646      2.09831580836376
  H   1.44422689589903      1.04568800898914      0.53044695071202
  H   0.82393175132080     -0.59815750998606      0.46595324726896
  C   -0.47305873332235      2.00439584810775      2.31013573848126
  H   0.86888573050912      0.40361335261446      2.80697224448585
  H   -0.76701712285478     -0.10803184425845      2.31919353264666
  H   -2.37210416817110      1.67948200453976      1.43567055133824
  H   -1.90543234053969      3.38956800209134      1.53613005817394
  O   -0.06991471612966      2.75777228371919      3.17069347523753
  H   -0.11892080803322      1.03265178747217     -2.68894242699555
  H   0.94928689611597     -0.10765124036576     -1.83353263329918
  H   1.20138573438686      1.63079051926194     -1.69222684541869
  C   -1.31067441496472     -1.38022400868591     -1.48329311742179
  H   -1.84191398703641     -0.55990371671409      0.40896186848136
  C   -2.44956043196699     -2.39278655550833     -1.68927441758375
  H   -0.44617943893748     -1.89799010315435     -1.03427847054707
  H   -0.97299158960636     -1.04785910989753     -2.47388071187494
  C   -3.69335453181074     -1.71432832861114     -2.28752486837743
  H   -2.72578285526429     -2.85158757764861     -0.72198216689509
  H   -2.08965373091783     -3.21462042467763     -2.33371905907720
  C   -4.08739651284338     -0.57985328796173     -1.31061544927776
  H   -3.43139679070049      0.97986144097617     -0.08928761605477
  C   -4.99912176938449     -2.56868730715497     -2.22888361554218
  C   -3.40627682657636     -1.22239110270737     -3.72067741486977
  C   -5.51421425078249     -0.18260276991582     -1.72724999663284
  H   -4.20404389226746     -1.10362333006633     -0.34195136719474
  C   -6.14139486973269     -1.51046575271010     -2.24557651606915
  H   -5.50244462227005      0.57537103406961     -2.52664444306402
  H   -6.08031261922789      0.25428956940533     -0.88875240173362
  H   -6.54070967338545     -1.37170777698423     -3.26129016252638
  H   -6.99062779073956     -1.83902955950563     -1.62493272287938
  H   -4.99057420682589     -3.01006934048492     -1.21618372630873
  C   -5.14938248668966     -3.77009466215474     -3.19102564512009
  H   -0.15137040756485      3.88763641619821     -3.48663420043962
  H   -2.57629669367678     -0.50469791698386     -3.75594188065310
  H   -4.27748714589845     -0.72688882283064     -4.17485941696029
  H   -3.12900059662454     -2.06794944490885     -4.37036877450579
  C   -5.71298989655529     -3.52925909236012     -4.59768763762446
  H   -5.80199052930088     -4.51329397280389     -2.69868059055773
  H   -4.16646973143925     -4.26863805253921     -3.27432675828926
  H   -6.74969601734522     -3.15713128434475     -4.56580657162902
  H   -5.72938326138277     -4.47532514363049     -5.16370862080728
  H   -5.12191696058854     -2.80937553651908     -5.18260033116548
  H   -2.24896038219420      5.64297845920045     -2.64025367347363
  H   0.07138566497583      6.14238972864480      0.85592611445155
  H   0.95365194850558      7.53077903637535      0.20577488099982
  H   1.83810530558135      6.15103869092506      0.88406933863625
  C   2.17495873391722      6.15606323012055     -2.04465244531625
  C   2.12705413711172      7.58036235439357     -2.67427612334613
  H   2.05360381080604      5.47369855782255     -2.90642113925682
  C   3.59141571004064      5.89489546180518     -1.49165489438640
  C   0.72678332533663      7.86892016122468     -3.25088419656705
  H   2.81017767286709      7.52107708919064     -3.54121288977336
  C   2.67732476599211      8.73370329708248     -1.78617298850363
  C   -0.40813249637313      7.56291562610669     -2.26216408187178
  H   0.57804568288884      7.23879334791246     -4.14574075754843
  H   0.65194919722272      8.91185510309601     -3.59691269214508
  H   -1.38311537516354      7.76970411002591     -2.73140513898741
  H   -0.33205638522452      8.23746954695039     -1.39133281403605
  C   4.06991886060367      8.42718628293616     -1.13066978758190
  C   4.13528988903846      6.98999482602311     -0.56659536736541
  C   4.31405524783879      9.40604624470403      0.03623255104393
  H   3.58380203523559      6.97703558123410      0.38519233294848
  H   5.17485533266011      6.74592156748619     -0.30051744646591
  H   4.26707050210279      5.79370151985618     -2.35892926503648
  H   3.63738516208764      4.92359191329347     -0.97440048453175
  H   3.50057709586486      9.33291111447886      0.77695086574965
  H   4.37040555577876     10.45572243347818     -0.29140016647632
  H   5.25442861471656      9.17637212718276      0.56268587045042
  C   2.95994776487837     10.00473428227129     -2.62238334019743
  H   1.94104574018571      8.95545163056428     -0.99629758941909
  C   4.42720084963667      9.88406599949818     -3.09727977674506
  H   2.83214773857250     10.90006016851783     -1.99455486975865
  H   2.26021193573005     10.12433434656811     -3.46259715786711
  C   5.06862784468950      8.70702370527119     -2.30921066176507
  H   4.97662614850955     10.82111955590291     -2.90842197092439
  H   4.49622623174555      9.70814882978597     -4.18298802316346
  C   6.54770268979064      8.99788533281053     -1.98834841558248
  H   5.05843834693527      7.81617746477249     -2.96143823197272
  C   7.38385180216073      7.85573823149172     -1.40305656539068
  H   6.61673446882436      9.88132638590078     -1.32932875348748
  H   7.01825144861556      9.31208748232590     -2.93797853093387
  H   7.09670449244930      7.60668465170196     -0.36986975151419
  H   8.45186426740488      8.12837542709462     -1.38286927597732
  H   7.29025347158215      6.93570877945374     -2.00478256446124
