78
Coordinates from ORCA-job 2080_0.0
  C   -7.67145344341428     -1.40360800123355      0.87439548020920
  C   -6.10828795637306     -1.37549573845301      1.00473928285915
  C   -7.65464399882660      0.16687464475043      0.70535273231131
  C   -6.13255861849051      0.08287898911649      0.37699936777144
  C   -4.12090384930976      1.54596066961667     -0.03195378129572
  C   -3.20314768386154      2.52754803923148      0.34785807872540
  C   -3.30376262359635      3.17152084163950      1.59050698320954
  C   -4.35905962301290      2.79178027241532      2.43472979940105
  C   -5.27574424701647      1.80899162668397      2.05646644041868
  C   -5.17619472075872      1.16252294956436      0.81285213283285
  C   -5.51338371509168     -1.54218203432860      2.38435096223649
  C   -6.21653810007136     -1.31538449926086      3.57551927831933
  C   -4.16654905992746     -1.93523875765457      2.50118146016967
  C   -3.55913549217388     -2.08881109374424      3.74454988509267
  C   -4.26547007772375     -1.86035957643564      4.93953182653325
  C   -5.60594144317885     -1.47101622562693      4.82671205000544
  H   -7.26658048921705     -1.01407746654727      3.54743324698154
  H   -3.58537080627238     -2.12663146021412      1.59411545382949
  H   -2.51005106807665     -2.39832721994321      3.79297564747582
  H   -6.20014193928876     -1.28457592841347      5.72367634613647
  H   -2.39225609529880      2.79871500792809     -0.33564516736215
  H   -4.46314975788589      3.27134072218598      3.41323070847123
  H   -6.07476164372157      1.54008703997202      2.75032702836996
  H   -11.15439722522398      3.74323955102086      0.71734542332678
  H   -12.70686614017410      5.01494853785065     -0.76656232018749
  C   -11.16213700307637      3.54890549857536     -0.35891122593631
  C   -12.03092029383090      4.26304375609875     -1.17909875928152
  O   -13.76765373738003      5.64492558640982     -2.98115147009847
  C   -12.99252660719120      4.81646041068733     -3.40215602893164
  C   -10.28849231064277      2.57474025889962     -0.88641159199835
  C   -12.05053239109305      4.02759087458270     -2.56209547960135
  H   -10.98743155488131     -5.02887592845723      0.00620501179315
  C   -10.60337002936369     -4.95915083986490     -1.01540739026832
  O   -12.90568457616961      4.51916247427712     -4.71828568066973
  C   -9.60673735064418     -4.00568152261691     -1.30860347771541
  C   -11.10325779144755     -5.81447220017508     -1.99504845929006
  H   -11.87189708576533     -6.54799257532655     -1.74709227353815
  C   -10.31939569563369      2.34978360530114     -2.27973853268841
  C   -11.18322848353627      3.06226598894332     -3.10447706497075
  C   -9.13244849597212     -3.93766924957723     -2.63738305810640
  O   -12.04335325670960     -7.50928043304474     -3.97864773536789
  C   -10.61672759013153     -5.73789743656087     -3.30888150188590
  C   -9.62780958887414     -4.78726198785557     -3.61857946337267
  H   -8.36184706664818     -3.21169226926677     -2.90559291774893
  H   -9.65142286797302      1.61079748964076     -2.72714690616692
  H   -11.19181736772908      2.87783744999878     -4.17981977670809
  C   -11.10343426092638     -6.63133840775808     -4.39489949435146
  O   -10.71531591802112     -6.60088139263580     -5.54072185517338
  H   -9.25860208704231     -4.73608294748472     -4.64506635446285
  C   -8.15507837338227     -2.19906890654748     -0.29590393017591
  H   -8.20415711082330     -1.73740398968760      1.77672868978642
  C   -8.55944996372373      0.83744577568561     -0.27325260268784
  H   -7.79806910013950      0.61599301803514      1.70001952463999
  C   -9.10822841741333     -3.14717585432498     -0.22430459572481
  C   -9.39252874364393      1.85132680176438      0.02803096768659
  H   -8.51370660905157      0.46542482298271     -1.30351552659977
  H   -7.66552179809588     -1.99983853428749     -1.25751599022890
  H   -9.42493541003246      2.19426517324371      1.06950130136563
  H   -9.57412138020773     -3.32643148507566      0.75231653456247
  H   -13.55685571383270      5.08354098286891     -5.16798646525401
  H   -12.28751263373596     -8.03637289225574     -4.75799094589721
  H   -6.02255873274364     -0.04228454118673     -0.71255453702343
  H   -5.60742884987066     -2.09245606448308      0.33584537447442
  C   -2.33785667347456      4.26742822635047      1.98808392633941
  C   -2.80919335276518      5.67208146267101      1.57862173408838
  H   -1.35251645873373      4.06783824790841      1.53312359669573
  H   -2.18546032827069      4.24030011927215      3.08078555160451
  H   -2.94177136728080      5.74450686245238      0.48683504910425
  H   -2.07982193064612      6.44038136401012      1.88398090527022
  H   -3.77678183685819      5.91825636065491      2.04547294463491
  C   -3.55935616397992     -2.05138747748798      6.27106945191305
  C   -4.36605960363566     -1.73047811018580      7.52843606490261
  H   -2.63943395952749     -1.43863236730694      6.26356013824707
  H   -3.20398225876268     -3.09699915699258      6.32607887223234
  H   -4.70308636500112     -0.68100828990226      7.54086788349924
  H   -3.75451815239402     -1.89256276891072      8.42999097914626
  H   -5.25958091941544     -2.36978787189185      7.61705487059990
  H   -4.01588456388685      1.06504199971634     -1.00964662650325
