36
Coordinates from ORCA-job 2083_0.0
  C   4.54712266608497     10.30039046604250      0.44450282536337
  N   3.93745543344033     10.49385797472377     -0.89579008589887
  C   3.11962078415062      9.48429436539874     -1.53495557346650
  C   2.30531351342006      9.98455668386237     -2.72626385984366
  H   2.38908507999695      9.14714320071059     -0.77904279056998
  H   3.67915257801678      8.59821195515911     -1.87787380583683
  O   1.75498638366210     11.18314868807737     -2.50425548057385
  C   1.08778284336968     11.77606515435633     -3.61650703134939
  H   1.81110247475519     11.97554662977457     -4.42179599516365
  H   0.65816278723807     12.71798960837006     -3.25127003327335
  H   0.29468233208739     11.11733959417883     -4.00281002776160
  O   2.11863889827227      9.31953129283051     -3.71459886684214
  C   4.73358590858294      8.86306952868861      1.00237746822216
  C   5.22986060590693      8.93705546780757      2.45618979421560
  H   6.22526146318312      9.40405599934628      2.50585217355407
  H   5.31113075384719      7.93283484331270      2.89955243705453
  H   4.53310945479731      9.52596659777505      3.07307492931650
  C   5.70038502314199      8.00591028981825      0.19048292268382
  H   3.75185512054085      8.36551867429218      0.98224812724066
  O   5.07042522780898      7.04251836995244     -0.50130009108509
  C   5.89309043968915      6.18797211922680     -1.30329653228708
  H   5.21529927039840      5.45852110309189     -1.76310933676059
  H   6.64548294254268      5.67950341920927     -0.68203009183856
  H   6.41135398179595      6.76995969342324     -2.08014265839091
  O   6.90188450533209      8.14567482125944      0.18489222683298
  H   7.60769578900335     11.44843650432056     -2.27298505613095
  C   6.82976031370445     12.03786375245124     -2.78067786635288
  H   6.83956209395220     13.05662504424087     -2.35593419738433
  C   5.81870502472712     10.99096264265383     -0.11200719916501
  H   7.05803865204227     12.11321149787500     -3.85206667839360
  N   5.24603199255739     10.76132369023660     -1.44758931288178
  C   5.44291814471499     11.43799553846474     -2.62565907957474
  O   4.58037731146706     11.50865356676813     -3.48470669222556
  H   4.00579785610024     10.87605414272969      1.21327915231200
  H   5.88452731410631     12.05981846906431      0.15126898247791
  H   6.77483503556222     10.48369861050572      0.07099730377743
