52
Coordinates from ORCA-job 2084_0.0
  C   -9.27472581911178     -3.04021935250003      1.44590134684699
  C   -7.96864124525024     -2.49493203721449      1.37675328273001
  C   -9.65554414659457     -3.99733036653340      0.48773920979955
  H   -10.65838558414199     -4.42003717256921      0.54520820700494
  C   -7.11175807490941     -2.90647354401892      0.34401513796844
  C   -10.54862223917725     -6.07088142487417     -1.49452197022998
  C   -8.78702086167083     -4.41272084902962     -0.53092583303334
  C   -7.50385561553399     -3.84869086600230     -0.59959119201714
  C   -9.16798050546234     -5.44170785274020     -1.56244296846984
  O   -8.38079503780072     -5.76064480218768     -2.43177204309508
  H   -6.83018453551079     -4.17757382384171     -1.39278630066678
  H   -10.64564285081144     -6.79542157661962     -2.31319330313395
  H   -11.33728660728036     -5.30639626074707     -1.58886793157766
  H   -10.70354470025561     -6.58430969677937     -0.53145430932812
  H   -6.09708797782566     -2.50133060533377      0.30612607837159
  C   -7.46814186263405     -1.49115700477823      2.40670312064066
  N   -10.16248922410240     -2.65720458521448      2.49549950828449
  C   -10.83322085810299     -1.37226154537824      2.32301858197766
  H   -11.62472709321530     -1.40762337275933      1.54329750491232
  H   -10.12179133836037     -0.58563086667491      2.04086715545533
  H   -11.30423554414706     -1.06912850644480      3.27208867455607
  C   -11.07229523792500     -3.68138790978786      2.98414942941167
  H   -11.93620252961797     -3.87357430740501      2.31114590479761
  H   -11.48446996874560     -3.36353976099633      3.95569967171264
  H   -10.53372053574623     -4.62833395356193      3.13434412841584
  C   -7.25853561526564     -0.11227052460076      1.75752451099732
  C   -6.62379093010517      0.79681400871035      2.77957868357467
  H   -8.20525068135445      0.28445713702290      1.37317593019489
  H   -6.57484102894285     -0.20146338256561      0.89595679353405
  N   -5.71625846956435      0.37505882461837      3.55734679782491
  N   -6.18465060944016     -1.91629509423364      3.01612493828919
  H   -8.23595025861409     -1.39701003762538      3.19261701897621
  C   -5.26098513721195     -0.97288127039544      3.46845009705515
  C   -6.00273281075013     -3.29018580597983      3.38774941584536
  C   -7.04582214598583     -3.98053437063485      4.02557119969469
  C   -4.79318475154593     -3.95267441295250      3.13032584936373
  C   -4.63329215931762     -5.28656313449071      3.51333587665100
  C   -5.67258800999913     -5.97572591941716      4.14498417805475
  C   -6.87955586571023     -5.31717605049470      4.39647938580392
  H   -3.97945129997796     -3.41686763925504      2.64427882547765
  H   -7.69868221317347     -5.84296138638860      4.89470536644938
  H   -7.99096201614611     -3.47490226751842      4.23339755273990
  H   -3.68494475957919     -5.79100676208519      3.30998672681448
  H   -5.54242338636815     -7.02012281157447      4.43996044267053
  O   -4.13960408545233     -1.24689721038137      3.83012307506995
  C   -7.11679176144742      2.24737118519561      2.88463813517072
  C   -6.34284487328924      3.18888208741861      3.88527404950202
  Cl  -8.85725661206969      2.16558191228521      3.38563499280522
  Cl  -7.02074766667866      2.95038374972580      1.22341454109863
  Cl  -7.06173579534234      4.83972209844398      3.83214018068066
  Cl  -4.62541572769704      3.30365452447509      3.40852006149135
  Cl  -6.47872133503567      2.57872459669074      5.55800428283546
