67
Coordinates from ORCA-job 2085_0.0
  C   -7.10044167910657     -1.66271090738751     -0.56762152413469
  C   -6.52264587504394     -0.25917958486384     -0.67198379338030
  C   -7.03395797131077      0.56879299338179      0.50291164899854
  H   -6.79694395035580      0.19377942696089     -1.63337956202096
  H   -5.41995601128238     -0.27861113995728     -0.62144438205537
  N   -7.26328811828104      0.04089491694148      1.65822789743176
  N   -6.92914529687568     -2.13839813679938      0.80861050056253
  C   -7.04675606524111     -1.32858157796303      1.92078406427012
  O   -6.97714578633464     -1.76474142027202      3.05398160012100
  C   -6.51996471443269     -2.82282961312710     -1.44809163910335
  H   -8.18854930495259     -1.60877882110181     -0.77404116849749
  C   -5.02840034391134     -2.62942281683857     -1.79462697024435
  H   -4.88012442965659     -1.79152743524963     -2.49615068287106
  H   -4.63604396511237     -3.53852685614852     -2.27773995243107
  H   -4.42189837665717     -2.44518055445033     -0.89386108287169
  C   -7.34011226828750     -2.99631645424234     -2.73396934861758
  H   -7.31156483479222     -2.07146757717961     -3.33586839898955
  H   -8.39051398911283     -3.24537180200772     -2.51944171640236
  H   -6.92559771715398     -3.80738761466004     -3.35246512153317
  C   -6.79570838492095     -3.52442173263194      0.80457191588899
  C   -6.65110933750747     -3.99856028241429     -0.45184572864661
  H   -6.82995104900562     -4.05287183681989      1.75631570414238
  C   -7.24646126499054      2.02698588592369      0.34584810409126
  C   -6.97339486827326      2.72424135816446     -0.85048194908697
  C   -7.16640681793052      4.09670563331906     -0.94591235532757
  C   -7.64681083016685      4.82635482473209      0.15728813796929
  C   -7.92619229783012      4.14772275100363      1.35925566351388
  C   -7.72158063821924      2.77382237506135      1.44201326272002
  H   -6.59589694440817      2.19701647173543     -1.72832847629978
  H   -6.95154132930576      4.63668147586381     -1.87036604944026
  H   -8.29821670429473      4.68367630284054      2.23277949533972
  H   -7.92439755756325      2.23847237390269      2.37126049474155
  O   -7.80411041160502      6.15448176083057     -0.02763545674831
  C   -8.27954025551061      6.97436227494376      1.03400082273416
  C   -8.33693348376019      8.40405859531576      0.53136830973434
  H   -7.60306619730959      6.88968262982631      1.90500849239620
  H   -9.27998509347165      6.62872152483053      1.35562861054334
  H   -7.33833439311941      8.74752433378889      0.21989344394462
  H   -8.70313225676531      9.07192930832652      1.32670668583614
  H   -9.01437729191100      8.48625980862875     -0.33265507882937
  S   -6.50513284075000     -5.68194128030706     -0.95651881980299
  C   -7.83082651781357     -6.58097318494561     -0.00241159650252
  C   -9.22036705510775     -5.91638781221706     -0.05368168855029
  C   -10.00005353629262     -6.70069993979960     -1.14813637876047
  H   -9.17242441187322     -4.84787775493770     -0.29564932256393
  H   -9.72206072963590     -6.00968773616265      0.92266692779951
  N   -9.04222625760973     -7.62085844692206     -1.79484867658816
  C   -8.05994156974378     -7.91441125042236     -0.75269336839949
  H   -7.46464710738816     -6.73206841813776      1.02313386291754
  H   -7.14383752224090     -8.35218967555611     -1.17917217614646
  H   -8.48296120850532     -8.65389834974772     -0.04862415403995
  C   -10.69541857605806     -5.79137046100240     -2.17945884844817
  H   -10.77246602130621     -7.31588920126170     -0.65236652604404
  N   -11.54673541292612     -6.38743301927611     -3.07580299358093
  C   -12.21547071755557     -5.54390657634926     -4.05737004824207
  H   -13.30646936071211     -5.70859705191301     -4.02018378808430
  H   -11.87087897051130     -5.76171278125552     -5.08309245513415
  H   -11.99488717069335     -4.49562131960016     -3.82721651039858
  C   -11.84566019224691     -7.81862169702531     -3.14592482960447
  C   -11.18543592048113     -8.54172766073258     -4.32214925245000
  H   -12.94443271634130     -7.92501171371681     -3.20857010346320
  H   -11.52919091171588     -8.30125917284024     -2.21467998347806
  H   -11.46372215232921     -8.10032548176727     -5.29237868594573
  H   -11.49985268037717     -9.59801853454197     -4.33593061430483
  H   -10.09115412048947     -8.51480791746246     -4.21576034490892
  O   -10.48332661855039     -4.58389142771069     -2.19070337650936
  H   -8.55871159497319     -7.10893299659563     -2.53582066621383
