69
Coordinates from ORCA-job 2086_0.0
  C   3.59482877330404     -0.36934593451772      0.53210278547852
  C   2.41076260789559     -0.02485460694248      1.21447509782915
  H   2.18773349391528     -0.49346546316526      2.17361311157402
  C   1.55159884831548      0.92207371444679      0.67178659965803
  H   0.63401773809516      1.20610548715349      1.19148851842890
  C   1.84343056576932      1.53939145535556     -0.55754532732639
  C   3.02239570933074      1.19690380175876     -1.23238368035822
  H   3.28097635843739      1.65977040620746     -2.18519259272160
  C   3.89429204590492      0.24587009264333     -0.68819474805070
  H   4.81280974357693     -0.01153012920981     -1.21617189582180
  O   0.92981547093269      2.44382265730709     -1.00859750741684
  C   1.18590315748289      3.16126969152705     -2.19548827145123
  C   0.01287033923483      4.10964832450241     -2.39617836090806
  H   1.27521348090162      2.48154201910529     -3.06414589046120
  H   2.12825918198359      3.73661956463775     -2.11871306930589
  O   0.19715129248825      4.79470781286158     -3.63815649134174
  H   -0.05644030940656      4.83188210910382     -1.57135172332322
  H   -0.92722837520574      3.53849313837254     -2.45506371474258
  C   0.22994334786747      6.15152053194875     -3.63490696100811
  C   0.43090585815548      6.67598188860980     -5.03552063019694
  H   1.32726451810799      6.22298442029458     -5.48624154577796
  H   0.52631966945860      7.76812246911769     -5.00956306680991
  H   -0.42715556000294      6.38983463211645     -5.66426209053900
  O   0.10512339533187      6.82489606808333     -2.64497730291780
  H   3.99809711297234     -5.07145078363812     -4.68019642495810
  C   4.57502378230293     -3.27956009372086     -0.97783547470376
  C   4.82003446056053     -5.76883437928844     -4.42751068878026
  C   5.26529273285775     -6.54238694217123     -5.65426232636778
  C   4.60572517394749     -4.10228343149982     -2.11060449894675
  C   5.72009720082248     -2.59876842798026     -0.55321838133694
  O   5.93585308890142     -5.04485481661687     -3.93365446736423
  C   5.79941203966753     -4.26916512365213     -2.82781790799942
  H   3.64073682107025     -3.16533505743646     -0.42603440481410
  H   3.69024670100236     -4.60897078662876     -2.41680333185800
  C   6.90909132096630     -2.75363837619678     -1.28880308238335
  C   6.95370639969056     -3.58656375895054     -2.39997123652221
  H   7.80214877138018     -2.20604606704412     -0.97896980274644
  H   7.87477532692581     -3.71589060266326     -2.97236332711667
  H   4.43979232770764     -6.45622981793535     -3.64743431433650
  N   4.45438073025515     -1.33278104985971      1.08960298036346
  N   5.74500525270131     -1.71043611745541      0.57145518432692
  C   4.70665020990585     -1.72293961473862      2.38503760509647
  C   6.11145825359480     -2.24235883785460      1.97253672974307
  O   4.08177338056269     -1.61229698020652      3.40859609248671
  C   7.21206164673413     -1.42347471947227      2.63604697571605
  C   7.51242759506777     -1.67192834101425      3.98669500842693
  H   6.97027276041473     -2.45192705254457      4.52636571139478
  C   8.49186383576526     -0.92522116755190      4.64336888247741
  H   8.71206405575156     -1.12791861883337      5.69496183720572
  C   9.18842820994814      0.07853500112337      3.96055257081500
  H   9.95861475715791      0.66023435520122      4.47422700199289
  C   8.88916414945442      0.33490636719810      2.62058681195647
  H   9.42344810911395      1.12114892767578      2.08010641975724
  C   7.90070215698584     -0.40581950568354      1.96236827009966
  H   7.64759316154161     -0.19526517315372      0.92246633524067
  C   6.31647138234419     -3.74354916694948      2.07701380802065
  C   5.26518810431340     -4.60153026801615      2.43764832941599
  H   4.28877748194646     -4.18858903602576      2.69905771120613
  C   5.46329314211555     -5.98486509809234      2.49839372360945
  H   4.63510118441738     -6.63633871406074      2.78977551377217
  C   6.71340450556399     -6.53013972626565      2.19660080915909
  H   6.86828827720635     -7.61134341063311      2.24550979648811
  C   7.76912879401946     -5.68358367949518      1.84162349190631
  H   8.75281578769954     -6.10085894177074      1.61028401927188
  C   7.57336959525102     -4.30244438942520      1.78860816406463
  H   8.40784070486387     -3.64771116669457      1.52752327225860
  H   5.63443908296565     -5.85743599051803     -6.43328544091512
  H   4.42323602541431     -7.11961377143736     -6.06740811552388
  H   6.07623305427208     -7.24193979934058     -5.39899107208827
