79
Coordinates from ORCA-job 2092_0.0
  C   7.36874679462339     -7.51132778033084      3.03732166339265
  C   7.47392181392025     -8.28403138191881      1.85743398706146
  C   6.59679155705001     -8.07581345257230      0.79245284599149
  C   5.62426654080064     -7.08458178763328      0.91487676177130
  C   5.50949950084978     -6.28756853974043      2.09310382937176
  C   6.38674285100935     -6.52176190303882      3.16123602602218
  H   6.30877211063564     -5.95042773736558      4.08467275083141
  H   8.23600379277730     -9.05704404740198      1.76338104224651
  H   6.67466466555172     -8.68139429950706     -0.10777726345825
  C   4.43207997457168     -5.33073129910687      1.89279253390210
  C   3.94071425382707     -5.58607220176021      0.61207022049201
  N   4.63242713732902     -6.63981471706929      0.02730837191671
  N   3.05901525378171     -5.13008100578290     -0.34461861519931
  C   3.21234906817578     -5.89865334239137     -1.51135279516460
  C   4.19865659522228     -6.82801104525641     -1.28224535408696
  N   2.01520083481094     -4.25313645443757     -0.11014012704031
  S   0.50362744707537     -5.15156752134402      0.22486480942525
  H   1.87006621124975     -3.71826403666557     -0.97640677367924
  C   -0.53372000187384     -3.85332770364506      0.86505280007735
  O   0.86870494621902     -6.11414496464608      1.25797435148416
  O   -0.05693402480820     -5.61304174656125     -1.05344859211843
  S   4.01651642495805     -4.03520307401140      3.00782348357777
  C   4.90236426818469     -2.57868898600797      2.41201188784307
  O   2.58264034159389     -3.72699957833652      2.89072035693571
  O   4.59341400135324     -4.38077177741638      4.31613349218497
  O   8.18852855140478     -7.66559346997403      4.11154341737075
  C   9.22039575891097     -8.63599449326693      4.08789931216660
  C   9.97245697883702     -8.55403050209011      5.40356816244250
  H   9.90356140956260     -8.44689326070838      3.23697784311130
  H   8.79074111186211     -9.64678200067971      3.94603882409079
  H   10.41126470804884     -7.55314816786313      5.53801363290643
  H   10.78463018808270     -9.29776722219767      5.42628378127290
  H   9.29606317308214     -8.74831179792169      6.25022814456578
  C   4.73813085348680     -7.81686331821758     -2.25836065138548
  C   2.45840637951581     -5.53764969502410     -2.73460261417671
  O   2.24501013835438     -6.57879960572826     -3.52580329372132
  C   1.61471641075606     -6.34148591256765     -4.80358577887737
  C   2.62939813462321     -5.90741317744254     -5.84770750922328
  H   0.82028782455474     -5.59292957751280     -4.66913814062982
  H   1.15801985745361     -7.30754687495088     -5.06035635322310
  H   3.03804284448683     -4.91385189232833     -5.60996324490824
  H   2.14457659989287     -5.85124803188499     -6.83586924896370
  H   3.46188469408537     -6.62519025570144     -5.90159959508112
  O   4.91369696406293     -9.01859690162355     -1.69117635260391
  C   5.37943227443506    -10.08170952998212     -2.55020288320241
  C   5.38632544615343    -11.36483027688832     -1.74588182062980
  H   6.38116147675893     -9.81743589994368     -2.92790043839413
  H   4.71030528253674    -10.14264423294677     -3.42304325596018
  H   6.06368615753124    -11.29281921036699     -0.88097324408581
  H   5.72464298062317    -12.19885724905046     -2.38059249947492
  H   4.37747122165475    -11.60002071499494     -1.37337872425126
  O   2.09657950398356     -4.39720694317001     -2.95174775727730
  O   4.96166818210536     -7.57003885325554     -3.41736638572252
  C   6.15247052472974     -2.27052529752412      2.95111339414949
  C   4.31957511514251     -1.76352734670255      1.43510799283342
  C   5.01394841784506     -0.64095956398850      0.98588395172242
  C   6.28078754003122     -0.30991192409838      1.50211948224471
  C   6.83295160849499     -1.13993224916027      2.49016911828581
  C   -0.34401641501202     -3.40184584223794      2.17707343555792
  C   -1.19631683025666     -2.41360084238788      2.66489964690996
  C   -2.22904477925690     -1.87503752080480      1.87416635838902
  C   -2.39060105345992     -2.35623674538928      0.56464081273762
  C   -1.54973107941877     -3.34563801162708      0.05039187866319
  H   6.57622736318144     -2.90477098406984      3.73183738902872
  H   3.33018177279401     -2.01113203915250      1.04456220823245
  H   4.56144325592426     -0.00129407828948      0.22191136314504
  H   7.81180472424274     -0.89556920895349      2.91293824354057
  H   0.47238253350889     -3.79953409272538      2.78211112172642
  H   -1.05477834560522     -2.05020143449337      3.68689394163839
  H   -3.19039286215060     -1.95423987991927     -0.06348221009714
  H   -1.67994783250720     -3.73182104271580     -0.96201479340418
  C   7.01061770431984      0.91592792053804      1.00952122190999
  H   8.01584688657877      0.99483784119431      1.44929221513581
  H   6.45866250864644      1.83666559857417      1.26542382232823
  H   7.11963149499343      0.90233767757924     -0.08781727525301
  C   -3.13367219900858     -0.80451908439312      2.43184451705911
  H   -3.91048996179101     -0.50960028186827      1.71131775046758
  H   -2.55846202938832      0.09790756202719      2.69974369787621
  H   -3.63407552831364     -1.14898967717989      3.35221569525671
