73
Coordinates from ORCA-job 2093_0.0
  C   7.98337415570582     -7.76458020794748      2.80800855867352
  C   7.63741449686016     -8.78464137358918      1.89085039247173
  C   6.67484357957454     -8.55760295974059      0.90711344071802
  C   6.06501003450378     -7.30551279581884      0.84949840999629
  C   6.39879643883111     -6.26358028366246      1.76811459448810
  C   7.36732544308581     -6.50855169354175      2.75106641356761
  H   7.66555564615093     -5.72667932758523      3.44753967141626
  H   8.11657256587991     -9.76203693774508      1.93761873598428
  H   6.40829044541483     -9.34579397698060      0.20657919557057
  C   5.61804158403392     -5.08416492263195      1.41967496634507
  C   4.85768963091216     -5.46075610273211      0.31681659483617
  N   5.10284030302563     -6.78099701923389     -0.02936276202091
  N   3.97562890388999     -4.96954982057731     -0.61749552092857
  C   3.72387839957097     -5.97026264399746     -1.57681052954513
  C   4.43425021712266     -7.09074891554173     -1.21219384450776
  N   3.29764518735650     -3.77819210729181     -0.48207033816655
  S   1.62602624889278     -4.00344461786430      0.08983191495523
  H   3.26453678622750     -3.31680880566304     -1.39726440657802
  C   0.92155422056177     -2.45701001564433     -0.46336490789400
  O   1.67372082372462     -4.04441160046981      1.54721715004388
  O   1.01979135838610     -5.11531485978792     -0.65279950509770
  S   5.87561780204352     -3.45385631837419      2.03823225319292
  C   4.44984639970097     -3.02839510515562      3.05961276774330
  O   7.02821875896006     -3.52981615137898      2.94937783360756
  O   5.88200730533667     -2.50531188454005      0.91372548265242
  O   8.91705397746387     -7.91879009277430      3.78299407061680
  C   9.65735196898863     -9.12359367709361      3.87996143153991
  C   10.66053906363918     -8.96765376583354      5.00770009580436
  H   10.17519305688737     -9.32979677989381      2.92326789394280
  H   8.97748284726615     -9.97543904784885      4.07656955025648
  H   11.34448672325513     -8.12941298114713      4.80386929716242
  H   11.25647733689236     -9.88731086258022      5.11869712683212
  H   10.14616612952575     -8.76699042228910      5.96023356119497
  C   4.52979333798686     -8.38288402518728     -1.95278243869453
  C   2.89514069433209     -5.67282887322234     -2.76377714651415
  O   2.36914815092288     -6.76528354407277     -3.29757235883450
  C   1.69761131909288     -6.66305940313157     -4.57157418826548
  C   2.68728271060668     -6.78856569322524     -5.71776996670313
  H   1.14574515104782     -5.71283123682338     -4.60992498267491
  H   0.97831581422833     -7.49410525111371     -4.56519550411215
  H   3.36824641619328     -5.92433788285455     -5.74598705960583
  H   2.14453047616997     -6.82895315490357     -6.67606428224915
  H   3.28890311680868     -7.70337379471132     -5.60990177741811
  O   4.41737906969668     -9.42949620070900     -1.12306397835104
  C   4.45636843276206    -10.74217087006611     -1.72567800208311
  C   4.21300549584992    -11.76718535245820     -0.63799726632767
  H   5.43463271523833    -10.87491026973598     -2.21639673105551
  H   3.68963202047658    -10.78469874602017     -2.51531678886778
  H   4.98972348599268    -11.71865956726745      0.14078900555695
  H   4.22457235342170    -12.77882870141983     -1.07316689298177
  H   3.23470135411633    -11.60797873771276     -0.15896162610840
  O   2.74329492804352     -4.53849039935772     -3.18229295583856
  O   4.67290866663123     -8.47101355001644     -3.14633461772741
  C   3.88012013430848     -1.76566229953890      2.89371741595371
  C   4.00686905116215     -3.89502086126277      4.06165211552076
  C   2.95647371374232     -3.50628835028903      4.89236142809643
  C   2.38206653808137     -2.24097071363215      4.72359430619764
  C   2.84336052573390     -1.36276655398615      3.73817617528428
  C   0.67262930380370     -1.45610027305684      0.48012390580053
  C   0.09470893797691     -0.25750314601011      0.05977474099715
  C   -0.21720776685155     -0.08153346410839     -1.29402967238288
  C   0.03532170572633     -1.08867553850435     -2.23509490994588
  C   0.60305143432761     -2.29176280502893     -1.81722969267316
  H   4.25446094850975     -1.11220283625735      2.10335848501030
  H   4.46941951931882     -4.87652817683344      4.18974466133748
  H   2.58148325429615     -4.17384837292823      5.66983002745817
  H   2.39228814727412     -0.37348463102857      3.63842799191298
  H   0.92605111296924     -1.62372549847208      1.52849838368604
  H   -0.11598232403458      0.54031875479133      0.77379700090743
  H   -0.21782031722320     -0.92766604925724     -3.28424137131413
  H   0.80824426985870     -3.08766970202505     -2.53651492520704
  Cl  1.06265303298343     -1.74975626772835      5.76038069392964
  Cl  -0.93449477125407      1.41574011612325     -1.81959679058745
