51
Coordinates from ORCA-job 2094_0.0
  C   -7.46441579072266     -0.82967694878553      1.40467109033875
  C   -6.30223052883774     -1.10844793744465      0.41966019475656
  C   -7.18298555792453      0.68751358604538      1.27750326834668
  C   -5.79341416216317      0.37237575016089      0.63359489414539
  C   -4.63289596144215      0.73815215211906      1.56983199468770
  H   -5.63311232437607      0.90223905827268     -0.32173897177568
  C   -3.22252947959369      0.75367998663569      0.95379459064697
  H   -4.63959097635528      0.13315709439384      2.48906301495503
  H   -4.83881997224801      1.76664181547882      1.91317212522701
  C   -2.60548169014663     -0.63690962501141      0.63656195480420
  C   -2.43029730467386     -1.58086558258645      1.85333370056264
  H   -1.62556273635149     -0.46977147999319      0.15775053650393
  H   -3.21805212398234     -1.11066161343569     -0.14433282411205
  C   -5.48324531382198     -2.39656929131819      0.55105907542535
  H   -6.72692728820113     -1.12925176094407     -0.59897603037645
  C   -4.79398630506861     -2.72129215165948      1.90276127473659
  H   -4.74078643667094     -2.43071144597470     -0.26400328427285
  H   -6.18441682310493     -3.21660396090649      0.31292503311061
  C   -3.26236463556563     -2.87327565331052      1.85438314633383
  H   -5.20685121370322     -3.67066256096711      2.28223686132099
  H   -5.05880453891859     -1.97357597143201      2.66920504925428
  H   -2.63444043991159     -1.02403774579153      2.78345423504577
  H   -1.36842214081411     -1.87157577355239      1.92516462259648
  H   -2.99096825647913     -3.49084411492688      0.97697783582764
  H   -2.94787193227232     -3.46057521254913      2.73499162046322
  C   -2.25078513619616      1.52241494411995      1.85735996655316
  H   -3.27316319279787      1.29932391706885     -0.00661240048241
  C   -1.14004984889083      2.29868382401699      1.17085315307210
  H   -0.66421288359018      1.71096421598503      0.36953792010761
  H   -0.39052932607571      2.61395483199540      1.90923176747202
  H   -1.57331010511879      3.19568378759348      0.69447342640166
  O   -2.35702118945523      1.51001863909128      3.06596796015902
  C   -8.13850964453905      1.43041509721098      0.36865959792949
  H   -7.13729705145273      1.24656548353306      2.22569159033441
  O   -7.67804767284991      2.74983865093064      0.10427569818428
  O   -9.39685971135782      1.56826996098352      0.98362460408209
  H   -8.25428764040132      0.89673033033184     -0.60363132697940
  C   -8.77980552199430      3.65777983457035      0.19484342832971
  C   -9.97996748743285      2.71549967859735      0.40190070006062
  H   -10.45905064408772      2.47203328717772     -0.56938211192642
  H   -10.74413729479076      3.11433884172912      1.08486656943743
  C   -8.86615045077320      4.55053833436469     -1.03760756304024
  H   -8.63496426563385      4.28709470706583      1.09515032749820
  C   -7.63506525298281      5.43460635632302     -1.23675331874363
  H   -9.77337504931563      5.17621791489794     -0.94438150896631
  H   -9.01677665292752      3.90767319207990     -1.92315830129047
  H   -7.48840591867132      6.11601573565570     -0.38173243174394
  H   -7.72756039705581      6.05126333288230     -2.14492348073176
  H   -6.72889577224926      4.81670894748077     -1.33137801793800
  H   -8.46772454486596     -1.18041238714805      1.11382406446852
  H   -7.25670341114187     -1.19253207105487      2.42305467919944
