54
Coordinates from ORCA-job 2096_0.0
  C   -6.14308247156570      0.90068617371999      1.14310372475951
  C   -4.86282534370793      0.96763031576067      2.04442085354327
  C   -7.00697846712012      1.32244494487634      2.43251598939654
  C   -5.66368448238088      1.70733663401573      3.14159743616777
  C   -4.18041558985328     -0.33190199138044      2.42892239735622
  H   -4.08435827098556      1.60205579631888      1.59455418570955
  O   -3.71174211747281     -0.27970567028305      3.68355355640048
  O   -4.00244936934372     -1.26168372729613      1.68089386319066
  C   -3.00750976893490     -1.43946533872336      4.16387325942206
  C   -2.47198409305947     -1.12316805364856      5.54478792333925
  H   -2.20391622603260     -1.68797362196047      3.45192924926527
  H   -3.70699480002317     -2.29121277865822      4.17643060029982
  H   -1.78137325001558     -0.26575445770993      5.51355221893817
  H   -1.92553037006809     -1.99246732570177      5.94353153460128
  H   -3.29094560304047     -0.88248712022626      6.24045418662850
  C   -5.35812910267047      3.17582721650773      3.36724383528441
  H   -5.57509538590783      1.22197830621516      4.12533251876606
  O   -4.05098285592703      3.42830799300485      3.19696957648589
  C   -3.59567668132561      4.78344196176674      3.38317782447010
  C   -3.58507090258260      5.54207685373903      2.06658563012710
  H   -2.58161620966828      4.68723623604817      3.79946097625605
  H   -4.24451162317166      5.27599529688162      4.12198848557924
  H   -2.95112393440055      5.03501069847098      1.32280985914366
  H   -3.18962979374100      6.55861362067122      2.22662555299817
  H   -4.59981045679999      5.62419417091438      1.65093191629465
  O   -6.16927434169678      3.98864125405386      3.73758129063808
  C   -6.10461893980270      2.08122393086829      0.13765007513393
  C   -7.57637995237829      0.04890944995839      3.11191397614384
  C   -8.24181298445291      2.18282396941959      2.26599550189949
  C   -9.36373624921809      1.42566265654773      2.66491291730952
  N   -8.93878909361396      0.17439292955505      3.13555465805795
  C   -8.42902699427918      3.47867992602213      1.78989674666714
  C   -9.73469236816569      3.97312188689642      1.71947029780497
  C   -10.84338854443664      3.22318615358869      2.10304030642649
  C   -10.66142767884272      1.92069770721779      2.58925966099851
  H   -7.59783314563005      4.11200152500713      1.48710680978117
  H   -11.83894236820291      3.66471505353209      2.02488152303581
  H   -11.51828270956204      1.31974743238556      2.90212230507054
  F   -9.92314136191312      5.22371905279512      1.26312216690423
  H   -9.53675872244422     -0.53462051103854      3.54433296244665
  O   -6.93395549192629     -0.88333117791555      3.55427524183452
  C   -6.59610279879655     -0.25371191201819      0.27419570389675
  C   -6.90141469839020      0.25225155493278     -1.00701039410500
  N   -6.61999045063400      1.62636636612498     -1.04513856986783
  C   -6.77553164966401     -1.61126653008100      0.53141645898681
  C   -7.38990880576916     -0.55404134999005     -2.02957106639537
  C   -7.26488633003886     -2.41768092890925     -0.50038374133576
  C   -7.57473953636746     -1.91783296848383     -1.76253877668017
  H   -6.68419410631832      2.21740508429390     -1.86608591062611
  O   -5.68258185495438      3.20119666328887      0.35239152182660
  H   -6.53530726698824     -2.05623824696509      1.49499192652771
  H   -7.95166524895919     -2.59928010251179     -2.52783277602191
  H   -7.62083224459880     -0.14439277467389     -3.01549536060503
  F   -7.44095689215566     -3.72884222722455     -0.26253261017730
