62
Coordinates from ORCA-job 2097_0.0
  C   -6.22728547928406      0.96828701494306      1.31926467448470
  C   -4.92703776527667      1.00472473269826      2.19277758597605
  C   -7.05268242760093      1.40909617993131      2.62962678369155
  C   -5.68508739801745      1.77299017162075      3.30223421930674
  C   -4.26954990091868     -0.30615349473915      2.58208368353859
  H   -4.14044640959762      1.61395479678632      1.72264503302637
  O   -3.77594075646374     -0.24688793200252      3.82843230737562
  O   -4.12352846521250     -1.25299719819142      1.84801113820727
  C   -3.09835649257464     -1.41691908729992      4.31634571796543
  C   -2.52721034051884     -1.09306790913928      5.68142350721145
  H   -2.31574763256777     -1.70415649096292      3.59547719214803
  H   -3.82248927176475     -2.24710000680368      4.35927287663041
  H   -1.81169423913812     -0.25789094700800      5.62158892581713
  H   -1.99998887369808     -1.97143904679157      6.08631099989649
  H   -3.32500619166766     -0.81430315092791      6.38740918073763
  C   -5.33061403520640      3.23523297471247      3.49826382719700
  H   -5.58141543506785      1.29765445459395      4.28937797481812
  O   -4.01529169221900      3.43535691366242      3.30635559837784
  C   -3.49967650971598      4.77407778257171      3.43065369731782
  C   -3.26740613591094      5.38134416434028      2.05718105924558
  H   -2.55690651106899      4.67597603959631      3.99101946404608
  H   -4.20795744621495      5.37167094025476      4.02225661044103
  H   -2.55345815476518      4.77808809055939      1.47452152205282
  H   -2.85569149846427      6.39872795315428      2.16148171366679
  H   -4.20740361286790      5.43566113431552      1.48836815285482
  O   -6.10497041885328      4.08502470325159      3.86446426407206
  C   -6.19113369722883      2.15241164001543      0.31625590504661
  C   -7.62481429321380      0.14131065648548      3.32000572767447
  C   -8.27989541697859      2.28634153344989      2.49153122881354
  C   -9.39936957236208      1.54247465544025      2.90200410974786
  N   -8.98225177592105      0.28082668745949      3.36252791714875
  C   -8.44967145790549      3.59191684335200      2.02922546534528
  C   -9.74625058620899      4.13576966865740      1.97911357757392
  C   -10.85401025510225      3.36866871205117      2.37757939293142
  C   -10.68959978398203      2.06263936834317      2.84580819231125
  H   -7.58332092309992      4.17582177944139      1.73404869734412
  H   -11.84455167423787      3.82497946399157      2.32202549760883
  H   -11.55364225868787      1.47470607475503      3.16478611603961
  O   -10.01615295074258      5.40191274087093      1.55855561960158
  H   -9.58210543107934     -0.41914380369352      3.78315140288635
  O   -6.98441893611890     -0.80018047597304      3.75252654706149
  C   -6.72840939815666     -0.17276127164724      0.45839565835770
  C   -7.06906125138292      0.34540475181527     -0.80257809603234
  N   -6.75916099906778      1.71699699915546     -0.84591807495288
  C   -6.91472661628209     -1.53022436097925      0.72143655178610
  C   -7.60908885324425     -0.45508428316168     -1.80550411556604
  C   -7.44855523723944     -2.35424669726762     -0.28638857156904
  C   -7.79825150093062     -1.81276315297096     -1.53509230136823
  H   -6.84128076949010      2.31311780370415     -1.66118936914684
  O   -5.73307690331762      3.26291472859704      0.52107768731817
  H   -6.63049560045961     -1.93622518527133      1.68762600757819
  H   -8.21124403222589     -2.48352204193614     -2.29135042578887
  H   -7.87369899745191     -0.04178073069497     -2.78180415151757
  O   -7.65581872637108     -3.69084111656266     -0.13472065286242
  C   -7.25812590143096     -4.31037669564609      1.06901984294225
  H   -7.48977822768492     -5.37916473392257      0.96161590654444
  H   -7.80706770621623     -3.91098457093291      1.94149081859023
  H   -6.17523724706491     -4.19101818659315      1.25367876961345
  C   -8.94296880574493      6.25085614962553      1.21535932397213
  H   -8.24755926044111      6.39632775773051      2.06165386158711
  H   -9.38546196186408      7.21907476701889      0.94278510080403
  H   -8.36876989640653      5.86449174216698      0.35327312247177
