68
Coordinates from ORCA-job 2099_0.0
  C   -6.28221845903199      0.83651244586168      1.05158334307467
  C   -4.96008222038391      0.98604186589428      1.88039812741945
  C   -7.09168675352015      1.31625721072122      2.36094381516790
  C   -5.72249339510500      1.77604048921678      2.97087518281653
  C   -4.22622962485861     -0.26846554552744      2.31162669943379
  H   -4.22317035076159      1.60757021445791      1.34997215953645
  O   -3.72328587809893     -0.13786491644127      3.55067259545178
  O   -4.03599102710910     -1.23224147269164      1.61204465277049
  C   -2.99547153481588     -1.25575208620201      4.05902122549399
  C   -5.44340693100269      3.26106248842226      3.08722938595479
  H   -5.57069946749967      1.35492346229292      3.97596984451427
  O   -4.16301462150934      3.54310101325403      2.79561186527149
  C   -3.78113076070915      4.91544350639504      2.88812942193303
  O   -6.23691720259036      4.08183835388365      3.47610637765098
  C   -6.33209009238058      1.95987167545062     -0.00746963844335
  C   -7.58290981969235      0.07252699186851      3.13300208266698
  C   -8.35619312516127      2.12626047699809      2.21001924438459
  C   -9.43640909688075      1.35794364469254      2.69052110973666
  N   -8.96362801312077      0.12813879598658      3.21065885024021
  C   -8.60258415970038      3.40044854451029      1.69904383094469
  C   -9.91837507916672      3.88572875839121      1.66642080034119
  C   -10.97476626877777      3.10957452045759      2.14934940272494
  C   -10.74698457346987      1.82995546943279      2.67473478997667
  H   -7.78238963275231      4.01784663329693      1.33781033598070
  H   -11.99475189428992      3.50289838803605      2.12806733289265
  H   -11.56898490178918      1.23128605835197      3.06894571117361
  O   -6.87852799868458     -0.80271300652378      3.59625055538997
  C   -6.75909422048931     -0.36588064476297      0.27331929322337
  C   -7.18104407967112      0.06854698184818     -1.00001727746783
  N   -6.94581628250821      1.45774724951270     -1.14098512829359
  C   -6.85911926085779     -1.71873009189226      0.59689757675767
  C   -7.69626637633354     -0.80899643068646     -1.95108522278979
  C   -7.38299871021878     -2.61446734394730     -0.34743374220399
  C   -7.79523073552771     -2.16361946725582     -1.60384100522718
  O   -5.90458732825604      3.08929075388609      0.12872452141050
  H   -6.52591454504245     -2.08002851046739      1.56788036892034
  H   -8.19319208308752     -2.87334685707241     -2.33419163539450
  H   -8.00202056937570     -0.45763992349225     -2.93746155027154
  H   -7.45799702888968     -3.67537445156790     -0.09715723923788
  H   -10.11270518761998      4.88493743023617      1.26935506560551
  C   -7.24958802084823      2.24465519299655     -2.29045487458324
  C   -8.56444305755025      2.29185044557297     -2.77661035061782
  C   -8.86413156645736      3.06564986238770     -3.90048872722582
  C   -7.86111032254785      3.80779245493895     -4.53217564777852
  C   -6.24324253320606      2.98960438476485     -2.92030507958460
  C   -6.55458035682213      3.77170479097171     -4.03505739173851
  H   -9.34900225069350      1.73059098310247     -2.26470119579764
  H   -9.89026484213143      3.09737790600206     -4.27609807984351
  H   -8.09857578340452      4.41719277895606     -5.40796209370881
  H   -5.22559112060619      2.95954180066633     -2.52937767517747
  H   -5.76700797560618      4.35356536249668     -4.52095973793479
  C   -9.76689163265244     -0.91060837109354      3.76502129792393
  C   -10.82815771087026     -1.44658510877076      3.02013601435678
  C   -11.61321631378661     -2.46794395920495      3.56023824869088
  C   -11.33377379147702     -2.97279813122277      4.83414969124009
  C   -10.26456608881649     -2.44851509333350      5.56716393456408
  C   -9.48346487324029     -1.41663587218599      5.04145149502293
  H   -11.02740031522250     -1.06888001856236      2.01519129473233
  H   -12.44017128968806     -2.87873365121181      2.97506944387185
  H   -11.94526120692318     -3.77622924225897      5.25281730436640
  H   -10.03699633745703     -2.84182914358320      6.56141339406194
  H   -8.64854320344033     -1.00728449436119      5.61072066136826
  H   -2.59084689591649     -0.94229325417023      5.02974949429280
  H   -2.18136725694321     -1.53912286157010      3.37492287327622
  H   -3.66448351837709     -2.12045374421781      4.18798048728619
  H   -2.70173193995142      4.94700792562409      2.69301084251417
  H   -4.00413632975843      5.31862376506025      3.88752261733947
  H   -4.32028417486443      5.51396261738129      2.13783862955210
