54
Coordinates from ORCA-job 2100_0.0
  C   -6.23643230571204      0.89372806877873      1.12021424820408
  C   -4.93287322933025      1.02586096888752      1.98038667271450
  C   -7.07232877338625      1.35968926131839      2.41478233949140
  C   -5.71651871933080      1.80854241261604      3.06123467075609
  C   -4.22170955158261     -0.24016913286241      2.41650160994738
  H   -4.17725344990949      1.64684051662845      1.47621069356825
  O   -3.73809824460723     -0.12095181103198      3.66442113580865
  O   -4.03042773773563     -1.20287120035445      1.71575056227876
  C   -3.03147725493297     -1.24885831665580      4.17971115719245
  C   -5.43680018236014      3.29250295719143      3.19194571129195
  H   -5.58853494989331      1.38062591009571      4.06687104025903
  O   -4.15035548075203      3.57403062766830      2.92779353115088
  C   -3.76956800808578      4.94582635274303      3.02888171847642
  O   -6.23693378953823      4.11281232572695      3.56821935346696
  C   -6.25395619372924      2.02607650012553      0.06718544619895
  C   -7.59074305441881      0.11096530487030      3.16529364766845
  C   -8.33088089208166      2.18075392401983      2.24594832207968
  C   -9.41880491158257      1.41042653432770      2.70814146193520
  N   -8.96039280475530      0.19007774505979      3.23096357798806
  C   -8.57472803313497      3.45105770644252      1.72801045894212
  C   -9.89538298011082      3.92557407456147      1.66427293147191
  C   -10.95951520293350      3.14056088759309      2.11381489603750
  C   -10.73425053227030      1.86314471486377      2.64832179355824
  H   -7.75076305319410      4.07444639956805      1.38558302850670
  H   -11.98179444377086      3.52435538787763      2.05737822047394
  H   -11.56334171279138      1.25122608033425      3.00882597361490
  O   -6.90988433954827     -0.78652316627722      3.62894249661541
  C   -6.69527170248431     -0.30209680104937      0.31646815207807
  C   -7.06038954343452      0.15093240897465     -0.96885026881991
  N   -6.80410355613154      1.52671378288059     -1.08806765955802
  C   -6.83557926763635     -1.65435358509390      0.62108269143182
  C   -7.57587945531463     -0.70038056675215     -1.94279485595301
  C   -7.34992181362515     -2.52826132692466     -0.35112515627539
  C   -7.71872671820174     -2.05648015699756     -1.61294912859210
  O   -5.84481692241058      3.16308512460394      0.22265530625619
  H   -6.54069892541396     -2.03311370177562      1.59805215133056
  H   -8.11738929145197     -2.74936062375377     -2.35891795097064
  H   -7.85547404489381     -0.33053743886529     -2.93115415638867
  H   -7.45403244831594     -3.59039175687411     -0.11630366944459
  H   -10.08778010284801      4.92438737179209      1.26487662264176
  C   -6.99687397927472      2.31305497532141     -2.28486891838112
  C   -9.78964645208440     -0.81781614101100      3.85107206408421
  H   -2.63765432488500     -0.94351136277060      5.15746138007950
  H   -2.21047439668921     -1.53982493518381      3.50706453101631
  H   -3.71273423762402     -2.10582055451268      4.29586666851274
  H   -2.68570710727582      4.97649174217053      2.85999025204795
  H   -4.01677663493735      5.35018197742545      4.02206915061749
  H   -4.28965376737660      5.54379576942846      2.26476150150142
  H   -8.06095874606068      2.33844908802407     -2.57367209200604
  H   -6.41323806268950      1.90278952366307     -3.12629911535808
  H   -6.65455846382678      3.33447511193824     -2.07253172073848
  H   -10.34785223072612     -0.39977727614178      4.70582601487891
  H   -9.13064991036004     -1.61961747274945      4.20941165605398
  H   -10.51129806254745     -1.23485420988357      3.12881985025705
