48
Coordinates from ORCA-job 2101_0.0
  C   -6.23291602081154      0.90958009376232      1.11791329675594
  C   -4.92692581632526      1.02214908348537      1.97673081668295
  C   -7.06396450473818      1.35416481519989      2.42231243304200
  C   -5.70570253446158      1.78685676905466      3.07382237728759
  C   -4.21803309551610     -0.25385032424050      2.38739720670214
  H   -4.17052429371176      1.65036701061480      1.48261433519811
  O   -3.72756545845007     -0.15724077985750      3.63432141839525
  O   -4.03439327025805     -1.20541506113618      1.66966396804253
  C   -3.02148149557948     -1.29641264351504      4.12562686437436
  C   -5.42120157057286      3.26744611170091      3.23115856982861
  H   -5.57592309451135      1.34012834300501      4.07114647896717
  O   -4.13324808148994      3.54818267216289      2.97468893650700
  C   -3.74727329387327      4.91676234470334      3.10054020055765
  O   -6.21924173067206      4.08406800085891      3.61949659964219
  C   -6.24712485707073      2.06606318299795      0.08493229137220
  C   -7.58202873465961      0.08858255181862      3.15334512359642
  C   -8.32249495282952      2.18363087786924      2.27326790925852
  C   -9.41358551587671      1.41196300672293      2.72541105328597
  N   -8.94660118869499      0.18368985712526      3.21266038883571
  C   -8.56371278700417      3.46501523632078      1.77934196149777
  C   -9.88175071502337      3.94643789513577      1.73192350926952
  C   -10.94824808126301      3.15886926779885      2.17383148832118
  C   -10.72626902019536      1.87121256722828      2.68215712089403
  H   -7.73925479436049      4.09136164278515      1.44344426830836
  H   -11.96867756622519      3.54907160527410      2.13088119422571
  H   -11.55441350947559      1.25317595272021      3.03744876656073
  O   -6.90769479762461     -0.81698753222492      3.60392740981819
  C   -6.69577073564686     -0.27249945729788      0.29150587908940
  C   -7.05940891628840      0.20037840052468     -0.98697127811349
  N   -6.80432198083301      1.57618172548539     -1.06581164641384
  C   -6.83889348222192     -1.63070136145400      0.57210768282885
  C   -7.57162467789146     -0.63233247610295     -1.97703429047906
  C   -7.35100210961298     -2.48643075842954     -0.41621121531708
  C   -7.71534758413446     -1.99322696505292     -1.67204392000684
  O   -5.83076046657043      3.19588301814634      0.25311827188350
  H   -6.54745212535605     -2.02755504862782      1.54292216408449
  H   -8.11143967291524     -2.67318618283082     -2.43105421602549
  H   -7.84684556032251     -0.24079072430325     -2.95939183673136
  H   -7.45693032989561     -3.55227113530018     -0.20004076231333
  H   -10.07150301176863      4.95310395186281      1.35160806438504
  H   -2.64430900296372     -1.01830727123175      5.11791781223906
  H   -2.18781318511803     -1.56044613399194      3.45729325263935
  H   -3.69791316700450     -2.16118136886410      4.20478404089402
  H   -2.66297692643530      4.94600747790210      2.93442344536922
  H   -3.99482477418419      5.30433933350181      4.10028637703625
  H   -4.26348298500807      5.52981793464022      2.34587042993105
  H   -6.91213602310900      2.14764429470729     -1.89594879633637
  H   -9.51601250144458     -0.52729980065461      3.65714455412878
