41
Coordinates from ORCA-job 2103_0.0
  C   0.59325402783348      2.62314606455133      0.74901019149127
  C   0.87121429583266      1.23619297094566      0.73482728514612
  C   -0.11705927850118      0.32996845013013      0.31510503933851
  C   -1.38651280316154      0.77303767791121     -0.09239931478282
  C   -0.65016187320800      3.05434288021148      0.32236365477496
  C   -1.63207200039283      2.13931588561660     -0.09445017686890
  H   1.37785031713870      3.30435007823953      1.08592218540143
  H   0.09530741800231     -0.74074179754315      0.29792380051267
  H   -2.14423047405738      0.05184651282544     -0.41039521707875
  C   -1.30870469088947      4.42975322318907      0.20172639851639
  C   -2.84467384785568      2.99872726620483     -0.42943453443177
  C   -2.32574533292882      4.51576665531860      1.41743948314677
  C   -3.41002264286556      3.47027968055150      0.97084857550736
  C   -3.18143271003840      5.76659141256921      1.52115396979429
  H   -1.82098548747286      4.28877627997447      2.36717882129610
  N   -4.60444369242370      4.29439997868127      0.88355702835965
  H   -3.55253266017711      2.61901699868468      1.65614131622750
  N   -4.42180281686476      5.57025571825639      1.22249956918751
  C   -2.70834418971339      7.10795293661833      1.98401246245983
  C   -3.68473802464422      7.88623446308269      2.90696267178685
  F   -4.00881665451553      7.14121604662871      3.97021124219207
  F   -4.79746913494693      8.22773048159965      2.26234767145024
  F   -3.09210366383614      9.00178260457151      3.34387092089244
  O   -2.21659355996285      4.20213313184575     -0.88907464904310
  C   -0.40154480260746      5.60887287091197     -0.05919599397276
  C   -3.85209105245407      2.47538941266964     -1.42572181148673
  C   2.24069886051013      0.79678136736748      1.17938674079223
  C   2.57910657380881     -0.68367683408237      1.16216494804106
  H   1.89334659894107     -1.25598374984921      1.80810955049862
  H   3.60858974765071     -0.81253693299328      1.52014811776459
  H   2.49212368456928     -1.09766341763950      0.14414979144464
  O   3.05990471753615      1.61688041766998      1.54645327876669
  H   -5.55015011103718      3.96457693884945      0.75085455830931
  F   -2.42019463829437      7.94946881691333      0.94490530278541
  F   -1.55355019766426      6.94633895232540      2.69083321317656
  H   0.23590426971500      5.40080499805625     -0.93139078101555
  H   0.24351201233737      5.79984023801612      0.81151609607706
  H   -0.98668015229500      6.51574829486061     -0.25818744204148
  H   -3.35642711473136      2.23539326304150     -2.37789031421451
  H   -4.62279364218406      3.23652614162401     -1.61696323842353
  H   -4.33985527415144      1.56332362159349     -1.04590041177828
