40
Coordinates from ORCA-job 2104_0.0
  C   -0.48342409710456     -1.13863780554795      2.09139964567625
  C   -0.27110318061312     -2.38164566627645      2.99004322994043
  O   0.43211213657565     -1.73123884288018      1.14272057175924
  O   0.84115353045521     -2.74359875035096      2.14139245451056
  C   0.08884439278177     -2.20207096667651      4.43607542579124
  C   -0.89829696583668     -2.34194546805722      5.42544194413275
  C   -0.59016923244836     -2.12042976025411      6.76591516338790
  C   1.39620509056093     -1.85725478712053      4.81355578086431
  C   1.71006358757913     -1.64909104202524      6.15676876128429
  C   0.71692450356809     -1.77280734677324      7.14155195924294
  H   -1.34842109066561     -2.22038686264729      7.54519374861593
  H   2.16572358017296     -1.76951277508540      4.04380851530301
  H   2.72746046322677     -1.38857209107679      6.45183482932128
  H   -1.09788183419812     -3.10677136392914      2.87816467121988
  H   -1.91534877166618     -2.62841868612423      5.14196534697224
  C   0.99282316545606     -1.55398772881962      8.59426113146653
  O   0.15966549027637     -1.63783230823774      9.46732066751905
  O   2.28248586401589     -1.24896999062172      8.83464826069353
  C   2.63382090905445     -1.02630874054317     10.19992485872589
  H   2.06323859515415     -0.18270566547512     10.61813025473230
  H   3.70770537472186     -0.80132356052245     10.20715135447300
  H   2.42575225550274     -1.92000989569659     10.80817681630443
  H   -8.25907695001431     -0.70652943172866     -0.71095195571734
  H   -7.63121468641956     -1.29968788766974     -2.29543849917490
  C   -7.49111020734795     -0.57024425279878     -1.48781769866183
  H   -4.02846152668274     -1.90949144278748     -0.87432138173158
  O   -6.18645266969597     -0.80630222608423     -0.95948209127749
  C   -3.63485963790075     -1.33668263527442     -0.03360351279617
  C   -5.80936710868415     -0.02340684989638      0.06940435664682
  C   -4.42961557150186     -0.33800099894632      0.55197527347175
  H   -7.57407244589872      0.45495560298780     -1.88066133489675
  C   -2.35334058123119     -1.58981022050547      0.45557203299745
  H   -1.72585704222546     -2.35685758454407     -0.00290986513166
  O   -6.51875494562707      0.83531538010694      0.54129197730398
  C   -3.92183413419076      0.40936660613721      1.62622632331256
  C   -1.84471598215843     -0.84492879294131      1.53147411401146
  H   -4.55011106566638      1.18765340896461      2.06401080531241
  C   -2.63708981328178      0.16237662650145      2.10606300458677
  H   -2.24154688433391      0.75918849214690      2.93309662704290
  H   -0.04104251370835     -0.23325368892635      2.54560643276448
