40
Coordinates from ORCA-job 2105_0.0
  C   -1.98994689952254     -2.82181593540920      2.08205463694826
  C   -1.20820986766105     -3.44766197014294      3.27789329008542
  O   -0.95702942761894     -3.31682608041941      1.20360173751491
  O   -0.24160301993952     -3.94652723873326      2.32867368358155
  C   -0.61810641523934     -2.56576252745472      4.34468521161258
  C   -1.35048672898513     -2.30346988081769      5.51427293926127
  C   -0.83528386976496     -1.46132001602720      6.49638022559123
  C   0.65031565582015     -1.98949201232188      4.18638013959144
  C   1.17371926218388     -1.15384726236203      5.17415737121807
  C   0.43170937797089     -0.87852497322822      6.33276342664381
  H   -1.39626799636259     -1.24521437193318      7.40786444326898
  H   1.22668061711043     -2.21565307344247      3.28778748809175
  H   2.16164723505808     -0.70785937620473      5.05163055298135
  H   -1.76404072012123     -4.28106344124732      3.74217232814659
  H   -2.33241628099298     -2.76453839535475      5.65853572258561
  C   0.93595588894927      0.01763999713393      7.41716154727382
  O   0.32392752268623      0.27739450754341      8.42796727364771
  O   2.15831331267896      0.51617064822983      7.14909534175693
  C   2.71173803712751      1.39268914346818      8.12971864811249
  H   2.06724054073757      2.27336793382554      8.27549680540388
  H   3.69395401556168      1.69854346488209      7.74789905481839
  H   2.82039409614228      0.87932818913983      9.09759251359385
  H   -3.47857180994449      5.28144538824095      2.86711154443036
  H   -5.23035231979932      4.89044014078463      2.68428677974846
  C   -4.22673615849287      4.74161899190461      2.26634468226919
  H   -4.55513870416430      1.02567678172440      2.77880842630107
  O   -3.98568330011248      3.33558235032451      2.29881415369065
  C   -3.61973922884459      0.59680341872254      2.41713102011750
  C   -2.79277007168389      2.92573225247163      1.82436095762023
  C   -2.62587053044722      1.44224162099925      1.89789371498671
  H   -4.18220393958267      5.12273404073893      1.23440939926924
  C   -3.41052983320877     -0.78091602397707      2.45685769363998
  H   -4.19702655691757     -1.43428225611842      2.84677820061025
  O   -1.95894353755562      3.68722592534580      1.39100257995114
  C   -1.42802026007066      0.88813647334215      1.42151439701519
  C   -2.20564605078690     -1.33594772021916      1.99650237010095
  H   -0.66957842785359      1.55918369971561      1.01318584967226
  C   -1.21726543852620     -0.48915182447633      1.47241487200060
  H   -0.29196024494977     -0.92469681500630      1.09182208844447
  H   -2.94221792287767     -3.35063377364150      1.89931688840171
