58
Coordinates from ORCA-job 2107_0.0
  C   -0.05861299260595     -1.87025126522097      1.89104742370443
  C   -0.11104412630033     -2.34654130705847      3.38365902363402
  O   -0.63455947098968     -3.13430876216252      1.51064542408305
  O   -0.54292326091855     -3.65360385802248      2.88204020188173
  C   -1.18307053117964     -1.74446649437558      4.30887785125317
  C   -1.39554950999077     -2.70942819762554      5.49626310620943
  C   -0.08054264742442     -2.87423693078820      6.28159472401749
  C   0.36382635291886     -1.49339115722072      6.81637178590926
  C   1.53024142280208     -1.60126915728384      7.79042322065287
  O   1.87356629007655     -2.60876180651778      8.36143516790660
  O   2.12753966015456     -0.40919951321161      7.99729795361372
  C   3.19070563249754     -0.38871682634375      8.94985504008064
  H   3.55125248809712      0.64725010998224      8.98546916940580
  H   4.00414630829268     -1.06476406217445      8.64462445198127
  H   2.83314888131449     -0.70329177650633      9.94253604455529
  H   -0.74043713171240      2.63886495364028      0.71136568924942
  C   -1.15242540672953      1.63234114675404      0.80995876496409
  O   -3.16913590909293      2.51951101620145      0.01442165671305
  C   -2.49904916766685      1.42535291558447      0.45333530981036
  C   -0.37711520211659      0.57327387534346      1.26478633620220
  H   0.67031589820852      0.74298384197266      1.52416186475959
  C   -4.52667060847206      2.38128606685722     -0.38801493064499
  C   -3.04720165499546      0.13836314781616      0.56409964393127
  C   -0.91635083181935     -0.72203089661484      1.38766622528798
  H   -4.08366011226511     -0.06078257920998      0.29086355592910
  C   -2.25387497461827     -0.91867746137201      1.02789670289100
  H   -2.67993231174845     -1.92103976533065      1.09804353467560
  O   1.27119168265144     -1.74729398466848      1.48338213671274
  C   1.52010596979105     -1.90830511167004      0.09466851806006
  H   1.15989128731135     -2.88873813711177     -0.25812859800768
  H   2.60987007928479     -1.85526494675456     -0.03634543269297
  H   1.04532731615696     -1.11320344657105     -0.50691064231910
  C   -5.03708033399668      3.66585306127511     -0.85927033358514
  H   -5.13972524755324      2.01800524933593      0.46020744419729
  H   -4.60960998757664      1.62641016313279     -1.19455253721187
  C   -5.48487375798168      4.71879300299397     -1.25868845583130
  C   -6.01859933956717      5.98841567019242     -1.74092568852116
  H   -5.75399982523892      6.81504581611091     -1.06080907712054
  H   -7.11863875973426      5.95317147789231     -1.81094819863371
  H   -5.62624248071173      6.23536774882480     -2.74142329562989
  C   1.66902872205371     -1.10727551483191      4.67819554291389
  C   0.59991089785707     -0.53001634716912      5.62534928706425
  H   -0.45675598157208     -1.07164466638765      7.42989850895331
  H   -1.73627927439694     -3.68851761823906      5.12394237863269
  H   -2.19372245495386     -2.31609509813863      6.14953623386060
  C   1.21554362967925     -2.48159528398026      4.14597727176490
  C   -0.71699623407505     -0.37398205601714      4.84265125815512
  H   0.92535878614792      0.44853468495063      6.00847944882750
  H   1.84670918300135     -0.41196758681876      3.84171028814133
  H   -0.57640180803920      0.33904889150436      4.01526609341647
  H   -1.50404498807657      0.04875957982394      5.49100683100944
  H   -2.12312498026843     -1.63551510346686      3.74663699866195
  C   0.99129885296620     -3.44516928937436      5.33208803975421
  H   1.96850865525584     -2.89185759604279      3.46042987329092
  H   1.93991927165697     -3.60008086555088      5.86983835754758
  H   0.67172508216799     -4.43082506939930      4.95723244687822
  H   -0.22419495302853     -3.55937171008380      7.13090075129780
  H   2.63352390707313     -1.21838117087293      5.20281960775524
