64
Coordinates from ORCA-job 2108_0.0
  C   0.04667620921142     -1.37696401121792      1.36546636837103
  C   -0.12109881795202     -2.06658934477109      2.76381718752756
  O   -0.22887656946164     -2.63160645573940      0.74288719619987
  O   -0.30180704003824     -3.32578521594297      2.03365048861261
  C   -1.36064343111740     -1.74983106202061      3.61856694270034
  C   -1.56087236402220     -2.90735627366730      4.62284652154026
  C   -0.33028829140223     -3.02882731259642      5.54195983005681
  C   -0.15313913524442     -1.70299391979412      6.31651115508489
  C   0.90290245245770     -1.80197439010174      7.40988643631264
  O   1.39385676139999     -2.82528880696418      7.82289603711175
  O   1.20795652729583     -0.59091791719502      7.92021880623854
  C   2.14723250477190     -0.57305777524619      8.99560725279765
  H   2.27709820967543      0.48104119881466      9.27188996633105
  H   3.10918645828646     -1.00785779546629      8.68349227115556
  H   1.76998892816865     -1.14927473552519      9.85463833025629
  O   -0.52613250719827      3.35462957115647      0.63631121174523
  C   -1.15009002850868      2.15697287136462      0.57143490417664
  C   -2.48542312657721      2.00196759610244      0.11694815924499
  C   -0.40102519731794      1.04640319975197      0.96355033036103
  C   -3.01039850778326      0.68465390149750      0.07642728210754
  C   -0.90829919463441     -0.25672426570654      0.91442914877529
  O   -4.28450844559422      0.50369113190484     -0.37383136622638
  C   -2.23842432640257     -0.42813485379541      0.46620288191164
  Cl  -3.02435220278173     -1.98891571670267      0.34628244592629
  O   1.37608407159418     -0.99344756963364      1.17768265314287
  C   1.85716609602666     -1.01084223086155     -0.16021755575436
  H   1.75055052029231     -2.01399883474529     -0.60261116135981
  H   2.92176022605904     -0.74420758515115     -0.11099764136801
  H   1.33211099990653     -0.27757003220299     -0.79807835746734
  C   1.31482321628188     -0.83097279233214      4.44266232817146
  C   0.07615924581233     -0.54373814744656      5.31194439313931
  H   -1.08969117902827     -1.48657650330013      6.86692487961212
  H   -1.71795335617453     -3.85000743645088      4.07512252896638
  H   -2.47439710637238     -2.72090591171306      5.21366639757822
  C   1.12060296227249     -2.14981094539509      3.66716365564614
  C   -1.15240781531337     -0.43095045658928      4.39171153647483
  H   0.21515385970890      0.39545345783269      5.86758707314734
  H   1.48874789739736      0.00368011922563      3.74440672076167
  H   -1.01915454117916      0.41333185892895      3.69629902301864
  H   -2.05849351467208     -0.21253925202636      4.98290441100340
  H   -2.24175428534637     -1.68344178728834      2.96566858689168
  C   0.90753515929571     -3.30753674593795      4.66661594676872
  H   1.99568152755474     -2.35193399658209      3.03595851239076
  H   1.80471451050843     -3.42507054414332      5.29375901722224
  H   0.77165383370873     -4.25363096619217      4.11863563026508
  H   -0.46766399456381     -3.85138800008075      6.26043005189946
  C   -5.30247853445526      0.38802100616035      0.62052944543327
  H   -6.25337349807118      0.26524744297631      0.08364655796853
  H   -5.35159974351536      1.29696496740855      1.24477239801832
  H   -5.13672062614005     -0.49331902519343      1.25979274094851
  C   -3.23975984845482      3.19284410384632     -0.26750021132885
  C   -4.31950118135818      3.31918347607582     -1.06960895926259
  H   -2.88362262239910      4.14966430634289      0.13808978407428
  C   -4.86536591914898      4.68762566102616     -1.30429270976906
  H   -4.76498153918523      2.44534571980243     -1.53919944368569
  O   -5.90843692287115      4.82192586331441     -2.15694987290725
  C   -6.48209296138525      3.72684841964625     -2.85512115061267
  H   -5.75014059870290      3.22143641547515     -3.50696282155872
  H   -7.27762438773743      4.14999475689403     -3.48332516165516
  H   -6.93121429961144      2.98823799455127     -2.16993985096285
  O   -4.42035541654168      5.67824793915751     -0.77400559049063
  H   -1.07296468480700      4.05026495602948      0.24733425231976
  H   0.62349800256073      1.21259228264427      1.29373322024400
  H   2.22015758282421     -0.90854160221167      5.06901895475654
