64
Coordinates from ORCA-job 2109_0.0
  C   0.15927875254127     -1.22051008767704      1.38060653554107
  C   -0.08476997141510     -1.99398159283123      2.72267629925032
  O   0.15963830183998     -2.46961104896202      0.69268857941578
  O   0.06638990033660     -3.22831688890439      1.94553645778586
  C   -1.47463080098234     -1.93170299987817      3.38117674115915
  C   -1.61749506107657     -3.15123078947473      4.31910177637716
  C   -0.53531000282826     -3.10644069892537      5.41448225834860
  C   -0.70346652263931     -1.80706227805167      6.23516637444026
  C   0.18683803482866     -1.78107116337661      7.47104026032151
  O   0.74991541743821     -2.73568013644095      7.95067965500795
  O   0.24707148535914     -0.55011206032925      8.02108957688899
  C   1.01329366106547     -0.42871448414207      9.22008959497033
  H   0.96095504064700      0.62780926568412      9.51229000491719
  H   2.05913106392165     -0.72680121017110      9.04909628676307
  H   0.59871793803414     -1.06604609946767     10.01637616734008
  O   -1.23157542664102      3.46367194235983      0.84180433390330
  C   -1.46822351171705      2.14554222493224      0.65742988775650
  C   -2.71351025927911      1.82109165323499      0.05227073519782
  C   -0.58587218786610      1.13978532700244      1.04424540271165
  C   -2.99409837997684      0.45523493461036     -0.18320246568306
  C   -0.88383032571649     -0.22371397476262      0.84625845011193
  O   -4.11711643027186      0.07077661346672     -0.82049331507820
  C   -2.09434879044654     -0.56208173336564      0.21922457374741
  Cl  -2.61916041935553     -2.19707023037315     -0.10356744033439
  O   1.43349794579383     -0.64238357192235      1.38754108903393
  C   2.07547492145833     -0.52836750707268      0.12386463475211
  H   2.16089248227017     -1.51251433461902     -0.36309620965838
  H   3.08051524445710     -0.12969741577281      0.31949459546978
  H   1.53815925012404      0.16181949277677     -0.55125525535390
  C   0.84885614749054     -0.61509227542424      4.62553115610253
  C   -0.53543608394621     -0.58124875991318      5.30043175899306
  H   -1.73259989401189     -1.77589547015046      6.64360958440025
  H   -1.52425603264349     -4.08028055765257      3.73495496961561
  H   -2.62699429211354     -3.14936459996713      4.76514839198859
  C   1.00432803005027     -1.91055708626902      3.80363644652143
  C   -1.61697264336083     -0.63573074373673      4.20643900067947
  H   -0.64515319948642      0.34123921684417      5.88980328459348
  H   1.65172929092896     -0.56497552044481      5.38098857903385
  H   -1.53509335209715      0.25174598318926      3.55892811257005
  H   -2.62361464002678     -0.60460662798998      4.65765780574168
  H   -2.24717009540201     -1.98273702835638      2.60184596993064
  C   0.84851898573315     -3.13249966191010      4.73532215605088
  H   1.98487837469356     -1.93406866946045      3.31054476369869
  H   1.64975131348250     -3.12575834353076      5.49041646499950
  H   0.96164624562518     -4.06167959274148      4.15421522340751
  H   -0.63302764519235     -3.97281592195032      6.08634900039776
  C   -3.61708420508355      2.90516188290442     -0.31935116343504
  C   -4.96788168433331      2.87780141022653     -0.43995464461008
  H   -3.14397132981555      3.87578397336050     -0.49741137065760
  C   -5.68189909040259      4.12694113594835     -0.83329207350800
  H   -5.54748671060215      1.99216333144107     -0.17591521787813
  O   -7.03878055675371      4.11229023684915     -0.83547478848825
  C   -7.80468845885714      2.97904808888452     -0.45927884168154
  H   -7.64478702586325      2.12430572986477     -1.13904520479542
  H   -8.85744714846761      3.28478079666684     -0.52976981662030
  H   -7.60053355263253      2.66396847891906      0.57808404263407
  O   -5.11446317452865      5.14438109839675     -1.14633095899343
  C   -0.00682410382650      3.88994047181641      1.40419703571429
  H   0.36147409982221      1.38497225729312      1.51730334604295
  H   -4.52697337322897      0.84763993270651     -1.23315135267547
  H   -0.04121728028778      4.98717312624228      1.42191274893722
  H   0.85607440270086      3.56459264173188      0.79698792422967
  H   0.11866775350925      3.51602366888460      2.43558490521465
  H   0.97477957902420      0.26787624978051      3.97779717674127
