33
Coordinates from ORCA-job 2112_0.0
  C   6.16165334392441      9.40001794380274      1.52535185441202
  C   6.55688961519269      8.72228261503330      0.18500120414872
  C   5.09248260455490      8.28055748221108      1.61107591064687
  C   5.67185806597080     10.84437275194931      1.51688119006217
  H   6.95466458094202      9.24320726966764      2.27530100205551
  N   5.42739025860612      7.81626055612778      0.35080748549018
  O   7.78710198267888      8.04714315900584      0.23058734104184
  H   6.49266246714779      9.34364470741448     -0.73186999279708
  C   7.84163183310688      6.93413149079267     -0.67308204038364
  C   6.76780898658249      5.89715985311465     -0.28888957398471
  C   5.35725494851639      6.51499760230639     -0.27778276239501
  H   7.01019269270595      5.51174024789338      0.71614325659116
  H   6.80297060052570      5.04725132672752     -0.98999769233380
  H   4.64071757795418      5.89597521715094      0.28332513808091
  H   4.97276523655844      6.61667066027304     -1.30968996354132
  C   6.79287217789965     11.87254215179628      1.34933820236213
  H   5.13189837972968     11.02440692530385      2.46239048422864
  H   4.92209446754864     10.96673902955323      0.71422065535036
  H   7.52633764906212     11.80080988456911      2.16974091046074
  H   6.39458446006230     12.89996033460005      1.34486149463263
  H   7.34142137623426     11.72476510998611      0.40393474454747
  O   4.27948909017887      7.91131434257955      2.41766387728711
  C   9.25244677063332      6.35059661039890     -0.65004058963644
  H   7.62708353497355      7.30592815969603     -1.70009751232235
  C   10.37786248118834      7.25873152526766     -1.17444751066996
  H   9.22341991390157      5.43125250651831     -1.26037866039066
  H   9.47750532410473      6.02819770769126      0.38280665884331
  C   10.84994968783381      8.35346836625791     -0.21308534746600
  H   10.05800699308211      7.71204634508810     -2.13118803642654
  H   11.23905571332843      6.61529120187756     -1.42761293079421
  H   10.04080657757297      9.05588281473071      0.02986644606577
  H   11.68842001358366      8.92229024026697     -0.64785487147074
  H   11.20281059411398      7.91679386034725      0.73681962830489
