42
Coordinates from ORCA-job 2113_0.0
  C   -0.71148411852814      1.73834695824135     -1.98719040100686
  C   0.65949183852574      0.87155339070023     -1.87109907869460
  C   0.93541698220315      0.68908095221361     -0.38164326070912
  C   -0.20715472498915      3.13406973816242     -1.48524359648702
  C   1.33781740210201      2.77949235716981     -1.17367910773923
  C   1.36228867397710      1.88062475634090      0.05109240370410
  C   -1.78893892962752      1.32118820721282     -0.96723085555168
  C   -1.24856479805125      1.70712832831284     -3.34330129239087
  N   -1.92830541516952      2.34822427358248     -0.04155145186536
  C   -1.05814369848372      3.42211336059674     -0.23117890063716
  C   -0.29179401813909      4.23128397291047     -2.44278717523303
  O   -2.38114676853784      0.27315047024223     -0.95252912451908
  O   -0.97325707265668      4.38324993744654      0.48512915355227
  O   1.59235557365589      1.87908811174848     -2.23610900188729
  C   0.70653175080075     -0.34906581673019     -2.76499393365034
  C   -2.82961974993522      2.26114483408069      1.10273083417199
  C   -4.19265426517227      2.87809357584182      0.80010812161485
  O   -4.96772158032809      2.71530331105354      1.98656563287418
  C   -6.22992845725203      3.21456686796431      1.95653223232009
  C   -6.94237535824261      2.96368700794829      3.26108036413377
  H   -7.06456794249778      1.87962962100408      3.41454961395182
  H   -7.92580909713842      3.44826730228259      3.24042384724461
  H   -6.34453247081829      3.34681140550229      4.10205848071094
  O   -6.68558208898278      3.77130686096792      0.99193253213881
  O   1.82621159228821     -1.12396558084427     -2.37547281130430
  C   2.26293563504494     -2.20289307153643     -3.09535151024056
  O   3.17944367535519     -2.84117066564518     -2.66229395415956
  C   1.55270072677374     -2.50063392170435     -4.39882642714691
  H   1.67910699402342     -1.67212967455801     -5.11446841515738
  H   0.47108797190540     -2.64624144507230     -4.25053526395215
  H   1.98826891685215     -3.41188849086938     -4.82528714168345
  N   -1.67574961662993      1.63724782412419     -4.41807864906754
  N   -0.33284672999584      5.11873360466664     -3.18602649388392
  H   -4.68303837922644      2.37149433764437     -0.04732349405087
  H   -4.10230266324405      3.94699338361378      0.54753323795290
  H   -2.35867243059293      2.78921517672741      1.94382553626900
  H   -2.94689437996061      1.19850952412208      1.35743673724843
  H   0.75600517125382     -0.22803575490410      0.17802342396743
  H   1.61284801492346      2.19657205608051      1.06382957351338
  H   -0.23445737340297     -0.91276546230765     -2.63501478880329
  H   0.77295367980366     -0.01706561654312     -3.81258679696345
  H   1.99660752811459      3.65359399220956     -1.20408879858356
