59
Coordinates from ORCA-job 2117_0.0
  C   2.09390161137359      0.33914247327162     -0.28599823698671
  C   1.36237110304729     -0.84407355787988     -0.15149598256143
  H   0.78502639021993     -1.03597577201351      0.75393762985238
  C   1.36817557261912     -1.79670934082611     -1.17589793684469
  C   2.10558768977499     -1.55817845558486     -2.33488529967263
  H   2.11993980803000     -2.29734886854975     -3.14032677821984
  C   2.83772093121404     -0.37373285227429     -2.47767479285671
  H   3.41190364547049     -0.21656136814366     -3.38568061082924
  C   2.84019973597959      0.58453697224091     -1.45777104381750
  H   6.11079959948486      1.90951798401667      3.37079013035641
  C   5.62816247103898      1.93229849232354      2.39034905310349
  C   4.26070659162637      1.66906489549668      2.27674860590625
  C   3.64431856451152      1.68938991175111      1.02246656143728
  C   4.37995898441384      1.98920071686539     -0.13968360207179
  C   5.74690916966857      2.26101739627429     -0.00784339887115
  H   6.36014924093872      2.50728990984511     -0.87239840322804
  C   6.36814148156820      2.22878274179819      1.24527735754984
  C   3.56046675842258      1.95480263851677     -1.46286523074632
  C   2.16295967727787      1.44089327152779      0.77476525834907
  C   1.65448819178385      2.73753421895776      0.06047944404644
  C   2.35047920690932      3.02046386907475     -1.30881132325984
  H   0.79840066512779     -2.72283276168236     -1.06267332265689
  H   7.43847038100735      2.43857287655741      1.32108067412105
  C   1.81483678072841      4.01615342185397      0.87605621202756
  H   0.57038336011821      2.61684881687165     -0.09456731980182
  C   2.76945550573698      4.52761053940548     -1.17885892643296
  C   1.26141162173533      2.92294927642526     -2.40203443205739
  O   2.35486451447091      4.98775629781633      0.09616950961370
  O   1.48764356454774      4.22683051538911      2.00880746999055
  O   4.16107275395920      4.74352256916119     -1.27663938219492
  C   1.34762024378861      1.13635500182326      2.03145684264343
  C   4.56852619138436      2.15245718036040     -2.65325218787770
  H   1.59282870455555      3.25181259921957     -3.39002747350888
  H   0.41741403426398      3.57156671372251     -2.11597242961948
  H   0.87803582094456      1.89713252478560     -2.48536344267999
  O   5.32456160484300      0.97477925102716     -2.76628413458426
  C   6.69208423523593      1.04279322923772     -3.16704315030460
  C   7.42209074625155     -0.15288961933503     -2.58307199463187
  H   7.14142201452128      1.99158567261409     -2.81343348042996
  H   6.76712090694884      1.04565245815200     -4.26748041173252
  H   7.39055019233327     -0.13683600571413     -1.48299143090645
  H   8.47492782367189     -0.15123779295607     -2.90837357505925
  H   6.95813178642073     -1.09115474715314     -2.92489982377780
  C   4.05606589982040      2.58167811922512     -4.04467697229970
  H   5.21533856046845      3.00049805468239     -2.38189670474060
  F   5.07528833403659      2.56731266450269     -4.92448273470636
  F   3.60349427802083      3.85520349707045     -4.02243526886925
  F   3.08829696754462      1.81383498895933     -4.56254709287874
  H   2.27430824519432      5.15822393217283     -1.92773199975659
  C   4.57485263510079      5.98737729678356     -1.68637772557822
  C   6.07670666796981      6.08549625456266     -1.63562025695480
  H   6.44537462021241      5.75951381898914     -0.65157227490587
  H   6.38200572095598      7.11903407626394     -1.83893841419215
  H   6.51931512851172      5.41998236612052     -2.39465995763408
  O   3.81928216465622      6.84859082061006     -2.04051011703784
  H   3.67639604329659      1.45005624239738      3.17146251359701
  H   0.28707781411626      0.98531066207494      1.77724093897337
  H   1.39833979346160      1.96912728659422      2.74369113134430
  H   1.71090724866377      0.22125662472006      2.52288974486481
