40
Coordinates from ORCA-job 2118_0.0
  C   -0.68928336166459      1.62288728268648     -1.91463828685821
  C   0.68763346085584      0.84003208774419     -1.85531944795008
  C   1.09230574772670      0.73054527753694     -0.38260241528348
  C   -0.24843363944986      3.03213301052678     -1.48227156453777
  C   1.30302416474909      2.81228885866390     -1.28246275106027
  C   1.47479584383521      1.96207142870468     -0.02719736622122
  C   -1.75404279787820      1.20486605053628     -0.91833489502079
  H   -1.09035952139527      1.59926775626861     -2.93725524276843
  N   -1.92508862899768      2.25268349054941     -0.01002031694375
  C   -1.07099956582092      3.33996603763072     -0.22479108930846
  Cl  -0.57084887811906      4.30614630670450     -2.71666484457256
  O   -2.34414656341405      0.15077277190631     -0.87778818736470
  O   -1.00668631104847      4.31510269557661      0.47833175114625
  O   1.55833006647356      1.87372332541173     -2.32386512761041
  C   0.72219117387004     -0.40226984648153     -2.71484510803044
  C   -2.84199217043108      2.18707046002092      1.11827442114338
  C   -4.19404280885500      2.80943335034771      0.78138463719527
  O   -4.99240855998397      2.69997069436085      1.96078702997688
  C   -6.24524416799094      3.21125512745939      1.89273453220253
  C   -6.97949001344120      3.02094798866629      3.19630820753351
  H   -7.10951888829065      1.94538881229298      3.39601704070143
  H   -7.95986709805263      3.50903779321736      3.13983490153412
  H   -6.39214078370774      3.43798191487654      4.02858730691331
  O   -6.68405324248186      3.73596624630736      0.90162502274737
  O   1.90739519573685     -1.12510180734137     -2.42507602250039
  C   2.29827005348971     -2.21677720766777     -3.14325572994754
  O   3.28188392966828     -2.80961395835583     -2.79904548661621
  C   1.45646481739508     -2.59727605371975     -4.34516727987825
  H   1.47002855130000     -1.79705180011818     -5.10286072730514
  H   0.40503786186507     -2.77295655188451     -4.06842734629576
  H   1.87657181411629     -3.51110497482170     -4.78157379939882
  H   -4.68090724109760      2.28113967586504     -0.05460560084930
  H   -4.08611800254440      3.86809657706629      0.49532398805787
  H   -2.38534767966319      2.72645745022022      1.96050652251508
  H   -2.97071405757818      1.12901739902673      1.38696301762255
  H   1.00883781170649     -0.16885132544098      0.22695572192017
  H   1.77274396803912      2.33311143343924      0.95367387496440
  H   -0.17582477317738     -1.00474942796734     -2.48924064523001
  H   0.68101386617629     -0.08888611367147     -3.77142493778194
  H   1.90130042808033      3.72318776385632     -1.38929375684014
