57
Coordinates from ORCA-job 2120_0.0
  C   2.12606687119342      1.16540762796969     -0.12727535192814
  C   1.07517618079866      0.26693609493645     -0.28557080545106
  H   0.33200375733962      0.14199069139056      0.50667916577029
  C   0.97910306446946     -0.46859801115861     -1.47462687984138
  C   1.92129647491029     -0.28426015378439     -2.48869914153754
  H   1.83963071496970     -0.85422701314247     -3.41788018059051
  C   2.97559775990835      0.62734239795272     -2.32961917354582
  H   3.70286881501561      0.75392450055261     -3.13141343283393
  C   3.08497911515918      1.34854471698013     -1.14097032654693
  H   5.79431592877826      1.07127253780315      4.21995627191109
  C   5.49895456147754      1.32866959832875      3.19952537415233
  C   4.14254202624766      1.49211847210758      2.88627744217234
  C   3.78019058850030      1.80891476011567      1.57912762656057
  C   4.76075815931136      1.98018916844317      0.57891799558385
  C   6.11030314478288      1.83410958533585      0.89987659583460
  H   6.88127330456347      1.96575257947966      0.13995808524276
  C   6.47305666844859      1.50068318649160      2.21287712831805
  C   4.15787649942606      2.39370479512016     -0.77506483149083
  C   2.37254779529880      2.06468251235259      1.06627979191685
  N   2.37057496810270      3.43914024582931      0.50906274264533
  N   3.36747731449350      3.64422292307916     -0.48060464161966
  H   0.16210015326917     -1.18206713939990     -1.60965634525379
  H   7.52975386750480      1.37727506185448      2.46407382940721
  C   2.26165692316532      4.57335116171984      1.29750641553625
  C   3.88549420308404      4.92701160252140     -0.31851037693987
  N   3.10624135060029      5.52324777276671      0.69302187654310
  O   1.57042138513690      4.69629797385585      2.28304432819879
  O   4.78750444407305      5.43736475124934     -0.94420682052274
  C   5.16262690065337      2.68945937195993     -1.89014157629609
  O   5.87594015254887      1.47615532057083     -2.15732982785440
  C   6.79686722322412      1.52258918261444     -3.15272977951449
  C   7.50153854380466      0.19601078001643     -3.29559159588666
  H   8.08558210817142     -0.01414155524963     -2.38539282663959
  H   8.17004952404952      0.22803758314883     -4.16435296328987
  H   6.76945382741498     -0.61838937516266     -3.40542102849062
  H   3.37643148672602      1.37529376639249      3.65759528839822
  C   3.20176654543601      6.89548074731039      1.07745263326342
  C   3.07320217720935      7.26640947056159      2.42483255383158
  C   3.15157271689464      8.61168125475719      2.77833638138208
  C   3.36999000070012      9.62012628760463      1.82333358805902
  C   3.50376962419190      9.22450198030845      0.48520383489703
  C   3.41596525013673      7.88147547785415      0.10801043950388
  C   3.45090246609413     11.06825919375354      2.27545001866640
  C   3.66905395519949     12.11629116052511      1.18508727270430
  H   4.25964008484677     11.15017891382261      3.02489623339737
  H   2.52415067203192     11.30765914773306      2.82840002533569
  H   4.61608299143128     11.95424837799572      0.64495576738194
  H   3.70736865950282     13.12566965647288      1.62414717252000
  H   2.85480049710448     12.10880113821417      0.44219004633756
  H   3.04246081371321      8.88641765309600      3.83224662455366
  H   2.89301688752875      6.50556327811915      3.18292543073084
  H   3.67712268556622      9.96948575658561     -0.29364423429342
  H   3.53255817996179      7.60200338233047     -0.93881607906516
  H   4.63985946884830      3.03400707269964     -2.79484942973882
  H   5.85851316960748      3.48568637633206     -1.60012610713245
  O   7.00207438202738      2.50943010118572     -3.80996236276078
  H   1.59564296534508      2.01795609769594      1.83765813830815
