88
Coordinates from ORCA-job 2123_0.0
  C   2.85158809436459      0.74747021014039     -0.09764099819912
  C   2.09835078863292      0.08696544959567     -1.06768249164105
  H   1.30553218182248     -0.60137267325042     -0.76705675008942
  C   2.37217088542368      0.31471805361512     -2.42322968509905
  C   3.38280718965922      1.20300550859005     -2.80201033282389
  H   3.58914401648357      1.37727703586503     -3.86134089090641
  C   4.13398768851296      1.87285247338762     -1.82722958076941
  H   4.92068531018653      2.57409727974198     -2.11892562982754
  C   3.87227407661950      1.64012541803259     -0.47649461930913
  H   5.90990049173811     -1.79096842289863      3.96739451813583
  C   5.67292644134977     -0.95346610226129      3.30592217527348
  C   4.35694795896932     -0.77616829713341      2.85555637354583
  H   3.56645066698212     -1.46522790776889      3.16108503152530
  C   4.06136140093232      0.28914880799677      2.00689223388960
  C   5.07451909115051      1.18152019363448      1.60887126481299
  C   6.38117459637529      1.00627236672072      2.06342978209858
  H   7.16710119571715      1.70145472521592      1.75429834361455
  C   6.67973654995190     -0.06772851813421      2.91324393108726
  C   4.58347684571999      2.28879921564761      0.69617805719430
  C   2.67542948658975      0.62836804656981      1.42667504299398
  C   2.37099553608500      2.10230573256963      1.94961639257137
  C   3.50121582192191      3.06307120836263      1.51864196226205
  H   1.78896652515497     -0.20644066808252     -3.18703883772847
  H   7.70396034042041     -0.21190419095935      3.26724962105296
  C   1.09307345321275      2.71491428224513      1.36992003084747
  H   2.25582044346574      2.04537296252160      3.04171550190649
  C   2.81534974667366      4.15219583920500      0.70102859908402
  H   3.99003586118217      3.54160500201344      2.38120423665379
  N   1.44837676254787      3.87395728426420      0.67430113200255
  O   -0.04294013246224      2.31839082178236      1.47911999266582
  O   3.33691563486357      5.09540767097405      0.15577743988151
  C   1.61655340508423     -0.28866766950363      1.83740274981232
  C   0.48092786063621      4.70227346646643     -0.02681228725722
  C   -0.15897505301505      5.72738599624540      0.90452679316264
  H   -0.29472403157369      4.04444126592319     -0.44444637707515
  H   1.00909092289602      5.21259348385564     -0.84462604821342
  O   -1.09285726656499      6.47105021153219      0.11789946434969
  H   0.59679813576360      6.40676236355497      1.33113392639514
  H   -0.68253160983484      5.23429580754950      1.73883472786190
  C   -1.81384070998393      7.41610529113073      0.76500613010338
  C   -2.79886204706319      8.13116731744188     -0.17418216336405
  O   -1.67249705376709      7.63583093653276      1.94272825163113
  C   0.68448970130900     -0.98691628781401      2.18437458879444
  C   -0.49466525973896     -1.69449725224151      2.58269625260184
  C   -0.47695699996782     -3.06673635525832      2.90085649540404
  C   -1.64186071710008     -3.73322663529817      3.28085624631193
  C   -2.84552018961849     -3.02158534951498      3.34332044982294
  C   -2.88373454908813     -1.65677913559024      3.03620346971265
  H   -3.83653540082562     -1.12699297704051      3.09966149960201
  C   -1.71881077233613     -0.99525198478596      2.65945390396371
  H   -1.73456068309561      0.06931913383174      2.41566723849575
  H   5.38321452707359      2.97117926952130      0.37966543277239
  C   -3.53970414306642      9.20580144807371      0.66064855669881
  C   -3.77889130627378      7.07550695985344     -0.73499216662235
  C   -1.99749696878367      8.76564965729958     -1.33218860560442
  C   -4.57982701783990     10.04506070672390     -0.08541939219778
  H   -2.78379858219483      9.87236117791685      1.10802375585944
  H   -4.02013267783469      8.70259510548447      1.51584452951729
  H   -4.13914656295687     10.62101228510070     -0.91507970143531
  H   -5.04090343730725     10.77159004941101      0.60273841383291
  H   -5.39574953757724      9.43183510137667     -0.50096197824765
  H   -4.36085225246990      6.60189048552400      0.07261686749234
  H   -3.23916337201656      6.28572159721865     -1.27707294944410
  H   -4.48913507384147      7.54230666005347     -1.43451790888690
  H   -1.28614062325840      9.52111630421477     -0.95968649684309
  H   -2.67537250577247      9.26168502534895     -2.04361113871573
  H   -1.42864066864987      8.00270612013937     -1.88257609089459
  H   0.46462407834264     -3.61754188013089      2.84633638402251
  H   -5.39490785369923     -4.08844567626223      5.84464051491705
  C   -5.73180073253889     -5.08105463786493      5.51297146432314
  H   -5.02085857715197     -5.83170346781001      5.89560214713634
  H   -6.71139288437767     -5.27768844733084      5.97474460958988
  H   -6.53699095594076     -3.07220266683535      3.78184231996032
  O   -4.04217801089596     -3.58011173268743      3.76481290705994
  C   -4.46031382918263     -4.82449438808725      3.37720003101235
  C   -5.84031754337367     -5.14522442206662      3.97270415658449
  C   -6.84511300806160     -4.08172881778565      3.47465746526681
  O   -3.81436407256250     -5.54318109544596      2.66298882446964
  H   -7.84446762388691     -4.27260386040725      3.89437993447370
  H   -7.63442356704050     -7.17944460281176      5.07007068300796
  H   -6.93105621260830     -4.09680051844829      2.37578317692470
  C   -7.58306979170539     -7.09668318743642      3.97247040117870
  C   -6.23221339376617     -6.56436231223831      3.48810819676350
  H   -8.42588854390395     -6.46699936997601      3.64488378821347
  H   -5.43428376263766     -7.26220159233378      3.79119493046810
  H   -6.21205123457208     -6.56639550808226      2.38585250595470
  H   -7.75718581865839     -8.10533203617306      3.56479264113899
  H   -1.61660909131958     -4.79614816823354      3.51427463140344
