109
Coordinates from ORCA-job 2125_0.0
  C   4.29485761129829      0.75568900737388     -0.61315174623324
  C   4.10983951872513     -0.61311014824245     -0.80751110428812
  H   3.30878778595010     -1.13259557952045     -0.27450736478123
  C   4.93964961200687     -1.30695054902221     -1.69616620410709
  C   5.93780972042435     -0.61806217366008     -2.38802838964305
  H   6.58568255742542     -1.15136338753828     -3.08903373240234
  C   6.12965199473850      0.75675602171685     -2.18786938178904
  H   6.92518010378750      1.28000808559712     -2.71248483682568
  C   5.31914329553030      1.45529519231500     -1.28632474755098
  H   4.90431795496436      3.27776499411736      4.43838541944259
  C   5.02004283477069      3.23937460099804      3.35192794121589
  C   4.16484953684795      2.44175256251503      2.58369221067496
  C   4.32502220118332      2.38713889474215      1.19812143816996
  C   5.34296517505112      3.12356353330174      0.55710820387418
  C   6.16218926191444      3.95222603190326      1.33060510475662
  H   6.92812815884637      4.57037796337404      0.86495660688897
  C   6.00907355480379      3.99897417984240      2.72255594225020
  C   5.35203263072329      2.96750978025099     -0.97785828898901
  C   3.42304535335116      1.62951204250739      0.25054392921793
  C   2.75211693367564      2.69090864716676     -0.71345216174108
  C   3.89819749573818      3.47094188362768     -1.43781382659797
  H   4.80112595519515     -2.38042868001443     -1.85131311052968
  H   6.67008598970359      4.63797404921780      3.31411819032586
  C   2.10503938649035      3.78122306540608      0.17742208892112
  C   3.63093551918367      4.94239961641670     -1.13620066052097
  N   2.61322631943908      5.01839895741066     -0.19016665528962
  O   1.29546268426453      3.61423427388851      1.06162315053101
  O   4.18134273651000      5.90928984484322     -1.61400303459583
  C   6.40828374745320      3.81626185779142     -1.75124720325684
  N   7.76408965851931      3.31077277358390     -2.00763845614021
  C   8.33001510738207      3.93865295954777     -3.20707276974443
  H   3.36079949946213      1.87362303256855      3.05889939919954
  C   2.16440980129144      6.27552783549920      0.40115812962403
  C   3.09016323693696      6.77752836623835      1.51609114328837
  C   2.64599009911950      8.11566647959934      2.12391744905770
  C   1.32193096033144      8.06864821288459      2.89337427334477
  H   5.96905537137677      3.99994168804155     -2.74098887848265
  H   6.44395344376747      4.81885769229522     -1.28126689059933
  H   2.63060423954779      1.07401515636941      0.76697737312558
  H   3.85161379253660      3.35184941414980     -2.52634213428550
  N   1.75497877237668      2.04765380276841     -1.59766129377673
  C   0.37205936924656      2.53376052197910     -1.61532659895605
  C   -0.58806569709719      1.46386447977121     -2.14822130971400
  H   0.27152098620234      3.45100283559128     -2.24425865908370
  H   0.06164661226841      2.79829604703649     -0.59998623948288
  C   2.19379145511716      1.62540145376543     -2.92787224836859
  C   1.29705686925542      0.51834843658481     -3.49174264398256
  H   3.22395040076848      1.25439198248392     -2.88205291299761
  H   2.18593348187404      2.47926947179878     -3.64795479142127
  C   -0.16748554191978      0.95839078782954     -3.52913305008212
  H   1.40422768364202     -0.37822840938155     -2.85701088364594
  H   1.65459440885347      0.24794484328285     -4.50005689694891
  H   -0.81961990430132      0.13335784583381     -3.86275674277785
  H   -0.28566776198834      1.77232719126868     -4.26912852787518
  H   -1.60897948777638      1.88191431071241     -2.17415016340301
  H   -0.60103592652934      0.62092836615325     -1.43465202867742
  H   1.15004657308008      6.09277459656932      0.78193660454075
  H   2.11499724914327      7.01745898069522     -0.41131934045382
  H   4.10458473535277      6.88649580897697      1.09951113162641
  H   3.15036406511164      6.00758144490127      2.30494127736341
  H   1.09737179984097      9.04360383314616      3.35548445959790
  H   1.35641342779513      7.31687384461952      3.70000340299758
  H   0.46873321721851      7.81403983933006      2.24328707579008
  H   3.44334048319364      8.46346863550254      2.80341165947921
  H   2.58417213222491      8.87687625671297      1.32404725448804
  C   8.69777389701944      3.23860532596110     -0.88368954946861
  C   7.95001231068010      3.23500636378170     -4.51054555098538
  H   9.42644420561417      3.90455625184016     -3.14451700597557
  H   8.06120516041806      5.01343582815895     -3.28956216510373
  C   8.70315866053587      1.90415270937522     -0.13681076483173
  H   8.56136737343231      4.06424546189724     -0.15711160723307
  H   9.71845474731499      3.36294297993464     -1.27274574975895
  O   8.63000779613056      3.90126421489176     -5.55996748993574
  H   6.85393495455818      3.26694863805696     -4.68373768736567
  H   8.24969278953475      2.17594519204192     -4.45740500684744
  O   9.76737450378644      1.96802173114795      0.80143893930653
  H   8.85877750714957      1.08409971749628     -0.85532458632074
  H   7.74587764008799      1.71931099039646      0.38545011536543
  C   8.66929162191191      3.23060821600846     -6.79896127151383
  C   9.92288160023966      2.38602889497952     -6.98411984463001
  H   8.66153650221378      4.00049459977368     -7.59072375007871
  H   7.77288653261487      2.59638807227800     -6.94254686129871
  C   10.14363670915350      0.74367685814154      1.38800441027818
  C   11.30705097421276      0.06953415135673      0.67228302222593
  H   9.28785028957782      0.04352720412234      1.44259264899967
  H   10.46447588378915      0.95626344758320      2.42358204363083
  O   9.89931171095504      1.28648407405985     -6.10513242561789
  H   10.81470036732114      3.01829021542205     -6.79308529688765
  H   9.97851830932886      2.04637613608159     -8.04194640664650
  O   10.90321208306847     -0.37166645033023     -0.60234979837863
  H   11.66757031477558     -0.78313950893656      1.28918952042149
  H   12.14529652948311      0.79228537208747      0.58722773294115
  C   11.05376354279384      0.47148149637679     -6.13745049929302
  C   10.98480390721081     -0.58334053998559     -5.03822923094551
  H   11.97293015147259      1.08013155610212     -6.01336383507646
  H   11.12593610051554     -0.03455928638721     -7.12260567285687
  C   11.92497779804148     -0.95423406560816     -1.38410878309018
  C   11.40308110969642     -1.26178320099114     -2.78380711750775
  H   12.26861354898161     -1.89735612923247     -0.91012380538988
  H   12.80590158749529     -0.28289753951884     -1.45248952208727
  N   11.43318271218929     -0.14445163034997     -3.72167202466302
  H   11.62358130521367     -1.43087420525355     -5.34227213997470
  H   9.93780063093487     -0.97103578495983     -5.02038173974648
  C   10.75932531266663      1.05057561269732     -3.23586713147093
  H   10.37616188305847     -1.68286441103102     -2.66421008685003
  H   12.02414827866948     -2.06995128157482     -3.20795681184277
  H   10.87556485131603      1.86968228332619     -3.95608323240319
  H   11.19478611476358      1.36906064314081     -2.28083964571064
  H   9.67035994684970      0.89922440860445     -3.07121928513265
