62
Coordinates from ORCA-job 2126_0.0
  C   2.33695318468928      0.90329003113265     -0.05115955098323
  C   1.66030180169743      0.36499311237069     -1.14514333109117
  H   0.80902186069787     -0.30003588067406     -0.98453679938845
  C   2.08424852533051      0.68634949095868     -2.44168619074440
  C   3.16913788051417      1.54535000153254     -2.63928908582589
  H   3.49343779511418      1.79194521867753     -3.65383329356995
  C   3.84251327888769      2.09456568138558     -1.54010204438002
  H   4.68614264834746      2.77397706054895     -1.69032366886147
  C   3.42956233689736      1.76911508960807     -0.24760131033992
  H   4.83777758421814     -2.09959222426152      4.08099474510624
  C   4.70870467926091     -1.20302582413823      3.46872850755551
  C   3.45588012779294     -0.92295383290818      2.90484777530132
  H   2.60752702079031     -1.58988289687916      3.07298981232169
  C   3.29688681608732      0.21772928119346      2.11985635786160
  C   4.38441004604430      1.08418858755822      1.90134565625031
  C   5.62844198113859      0.80509252212591      2.46642962346305
  H   6.47216725095125      1.47965486046967      2.29399652349917
  C   5.79005413846752     -0.34542822972456      3.25066604761213
  C   4.03920566498509      2.28486632687502      1.04204471420768
  C   1.99422140595268      0.67023825506578      1.43151377546279
  C   1.69919593693052      2.11148968213467      2.04199999314508
  C   2.90951408487384      3.04377945449830      1.81268269701153
  H   1.56069163887780      0.26160987003745     -3.30234316757280
  H   6.76500724897116     -0.57081431458039      3.69104166278034
  C   0.51919788552308      2.83450825011203      1.38518074244275
  H   1.46448667576255      1.97416455531447      3.10754132565917
  C   2.35942820055463      4.22931170164905      1.02508754538578
  H   3.32425575731186      3.42630864161675      2.75802490119987
  N   0.99601697635734      4.02559715448104      0.83230675036074
  O   -0.63567118208449      2.48237731493648      1.34159572235882
  O   2.97961369799486      5.18596395024549      0.62181153169523
  C   0.86947764835564     -0.23476127628916      1.65008999715211
  C   0.14358219211828      4.96772783357844      0.11744521671327
  C   -0.44488538642447      6.05514043899040      1.02374420520976
  H   -0.66185116773679      4.38111874596448     -0.34959127956225
  H   0.75874170730202      5.42250078149548     -0.67402625353147
  C   -1.33147932855354      7.03282222947167      0.25191560577008
  H   0.38339556965855      6.59954363068705      1.50849716195114
  H   -1.02683139326912      5.57158411869251      1.82704300862609
  C   -0.09410186798503     -0.95160740655071      1.83894223292061
  C   -1.28607537567475     -1.71957373155096      2.03126807979039
  C   -1.25595244305181     -3.11673570024498      2.18974762269169
  C   -2.42884441495368     -3.85277266643986      2.37125131818178
  H   -2.35925344417728     -4.93398761721241      2.49350308729864
  C   -3.67218285947059     -3.19788198661374      2.39402580244765
  C   -3.71220048649505     -1.79817015999206      2.23944336528039
  H   -4.68664131373532     -1.30521585526552      2.25862825598688
  C   -2.54347058181323     -1.07160762490750      2.06135926392296
  H   -2.57896898990889      0.01335562330677      1.93842344693079
  H   4.89627968494647      2.94866684293737      0.86794894348463
  H   -0.76589055366024      7.54902006557329     -0.54222487189517
  H   -1.74640038545585      7.80480492513572      0.91898140880947
  H   -2.18040100103041      6.51570363492522     -0.22640355914417
  H   -5.44325386984877     -5.12614557415867      4.83529422650869
  C   -4.74054075413311     -5.64619764538547      4.16569045879722
  H   -4.90479816860270     -6.73136091569694      4.26819315088706
  H   -5.99464113363587     -5.46929538212493      2.40981977878186
  C   -4.96900235113942     -5.21736738592427      2.72135368236757
  O   -4.87320702014402     -3.80924690746027      2.54162489001005
  H   -3.71738529247018     -5.42207186900774      4.50466537817309
  H   -4.28406840576885     -5.74156647412948      2.03094988916644
  H   -0.29523176218019     -3.63666558316615      2.17119851834916
