72
Coordinates from ORCA-job 2127_0.0
  C   -0.59754258625317      0.57834131806071      0.06255628949361
  C   0.45037717053903      0.83804634682356     -1.12873181474132
  C   1.84416202799861      0.55321139512123     -0.47329086445310
  C   -0.25652998781223      1.70365281238785      1.07982974197860
  C   0.89400801833762      2.49933588797900      0.38487429339175
  C   2.08226709473259      1.56500504554704      0.38943097326056
  C   -2.09915214523658      0.77383007314117     -0.19986681195203
  H   -0.47478785217953     -0.43586280245955      0.46610659019116
  N   -2.52229147853650      1.92532627472428      0.46748080751584
  C   -1.52626030047419      2.52381454083311      1.24042539445269
  H   0.04784598939885      1.34083440802102      2.07263389850548
  O   -2.85876639478147      0.05616994607414     -0.81041051642216
  O   -1.68287665917865      3.51839118862976      1.90777018731168
  C   0.47203344502487      2.39687238618490     -1.09096223005441
  C   -3.89471051972538      2.40337858596686      0.42810239951628
  H   -0.50859331172097      2.84414650331264     -1.32313867826134
  H   1.22081447516090      2.82741849980591     -1.76616561582888
  C   -4.11303020105523      3.39464550913547     -0.71053832337829
  O   -5.48572588082613      3.78619254775077     -0.64989716155336
  C   -5.90107890189335      4.68101310614342     -1.57650749886725
  C   -7.36411045195760      5.00355552295118     -1.39917817042459
  H   -7.96441751524208      4.08389190039818     -1.47942509791869
  H   -7.67665351853165      5.72535386448046     -2.16324940686051
  H   -7.53792782737332      5.41832330525648     -0.39395614639771
  O   -5.17041597661070      5.13940193342331     -2.41743013702419
  H   1.04643630723640      3.50068113104856      0.80815173939353
  H   -3.89631607897215      2.93453210873409     -1.68837058312815
  H   -3.46415293669194      4.27842879304774     -0.59948249154659
  H   -4.11194428923996      2.88808937266247      1.39060983445065
  H   -4.55314133198117      1.53305262451591      0.29670142013477
  C   0.22145069683127      0.18396969065832     -2.47929514833592
  C   2.78191575977071     -0.55988246866922     -0.73155383140276
  H   2.93126679152847      1.64356848886234      1.07144570797572
  C   4.19558043045338     -0.29083639732862     -0.79268904505260
  C   4.98782144226307     -1.39250480227131     -1.01659287053447
  S   3.97960435879356     -2.81346513773831     -1.14463465655945
  C   2.50975192921625     -1.91013312429912     -0.90800070009741
  C   6.45100642091030     -1.46912969560649     -1.14385939770652
  C   7.27232467082961     -0.47626668270132     -0.57025507719539
  C   8.66059935520797     -0.53301154714469     -0.69636700949857
  C   9.26655305051908     -1.58805633803886     -1.38721343742991
  C   8.46635454820418     -2.58504745435059     -1.95359565474164
  C   7.07666745560993     -2.52507662672146     -1.83710125639078
  H   6.81713587934163      0.33821500655889     -0.00208935677231
  H   9.27556437147583      0.24784663007785     -0.24054266232502
  H   10.35463179704789     -1.63397656760824     -1.48071999933702
  H   8.92635839990460     -3.41426858915720     -2.49788611626835
  H   6.46408556057855     -3.30079067162309     -2.30433709463351
  H   4.59777568659760      0.72007620313158     -0.71472974550574
  C   1.21929254899548     -2.67557668611754     -0.87930895995145
  H   0.44062176418007     -2.12064597479944     -0.34083793584254
  H   1.34786545365104     -3.64334059652850     -0.36813956524017
  H   0.83551795177465     -2.88076801507357     -1.89210196308079
  C   1.01748702587976      0.43094331342726     -3.59226605048713
  C   -0.78503296879127     -0.79714105304867     -2.76219232520644
  C   -0.76121467064935     -1.28329369410308     -4.04455296732923
  S   0.52102941381536     -0.53700558474113     -4.94700476562379
  H   -1.52725494874061     -1.12345911315930     -2.03665698660615
  C   2.17645075022969      1.36941630045714     -3.78269234646986
  H   2.83111708850090      1.38530712099109     -2.89919516803082
  H   1.84073402429040      2.40372375776796     -3.97330320890094
  H   2.79229375600380      1.06554732270163     -4.64249764849885
  C   -1.61622211184445     -2.36115927954753     -4.61630269038287
  O   -0.93010622538532     -3.62953595759682     -4.47936157447127
  H   -1.84714184093746     -2.20084445750179     -5.68133812800858
  H   -2.57564140023056     -2.41462958181003     -4.07909222634114
  C   -1.60160328248868     -4.72123915755633     -4.90251465751790
  C   -0.78724543141918     -5.97553100175009     -4.69065517111495
  H   0.19475066239720     -5.87750582179583     -5.17838136495474
  H   -1.32918832129728     -6.83812271235831     -5.09702963391155
  H   -0.60262727057817     -6.12349055500633     -3.61485717035645
  O   -2.70881895459480     -4.67438261858296     -5.37885216064461
