60
Coordinates from ORCA-job 2128_0.0
  C   2.57640048913502      0.41727256023984     -0.09772293514034
  C   2.32755958842346     -0.95179378946434     -0.00997102582348
  H   1.68830418803824     -1.34205842462715      0.78732033871570
  C   2.89707278707967     -1.81922950804747     -0.95097871447751
  C   3.69013169554192     -1.30589341565458     -1.97935025952693
  H   4.12386214506841     -1.97929656536088     -2.72334265404588
  C   3.93712167842482      0.07160095936850     -2.07254059341246
  H   4.53939581394078      0.44498829565166     -2.90163209401474
  C   3.39541259413355      0.93833227860219     -1.11912582172529
  H   4.60306644652418      3.63726352033133      4.12007028332845
  C   4.42082129215878      3.41617906801120      3.06511295790598
  C   3.33943808732743      2.60588497796675      2.69886527240768
  C   3.11744410375439      2.32310738106484      1.35066308337444
  C   3.96716854620862      2.84921984444002      0.35644880588376
  C   5.03821901342538      3.66744640272178      0.72726204770527
  H   5.71005100798662      4.07958098468305     -0.02578244631217
  C   5.26245774042395      3.94385938824388      2.08259013088629
  C   3.54910068426397      2.46959422453095     -1.07217018329170
  C   1.98293123659403      1.48194557534364      0.80192749445519
  C   1.14435715682860      2.39243215948826     -0.15662283246039
  C   2.06761347747955      3.01496340300535     -1.23138889826163
  H   2.71232939840122     -2.89465556288523     -0.88408275784593
  H   6.10519249450577      4.57869615925670      2.36836126051204
  C   0.49371599911774      3.56905910438165      0.55816066894502
  C   1.92135186897448      4.52550896502601     -1.03796275404655
  N   1.00504941197209      4.74881565543413     -0.00511560432820
  O   -0.32959885494658      3.53286068873088      1.43726703935107
  O   2.46095648587103      5.41077605959903     -1.66062488171589
  C   4.43164340191050      3.04850811963480     -2.18135728439656
  O   5.79787727211886      2.64943406206046     -2.00540398364522
  C   6.49207207588291      2.19289229628237     -3.07504163974393
  C   7.89974419908534      1.91871909871705     -2.70486311510870
  C   8.77453784639782      1.46649247164876     -3.61712311658538
  H   2.66945014710894      2.19779230603677      3.46071443312616
  C   0.58752735244784      6.06707231179306      0.41825605802962
  O   1.38262542504986      6.59712615438735      1.45874214443265
  C   2.50087844205179      7.27191143713795      1.12782970460569
  C   3.30632762836991      7.81961230528027      2.05768258111950
  C   4.51426098567742      8.56781735616344      1.64031238240106
  C   5.36062970968753      9.14312620745023      2.76432910341800
  H   4.76388532683642      9.84269370184765      3.37445425700708
  H   6.22894757109169      9.66729086885946      2.34382107592416
  H   5.70041554136374      8.33975756457601      3.44007743087982
  H   4.08147848374511      2.72118593831403     -3.17033550857581
  H   4.39648005256840      4.14652808191016     -2.15623132117500
  O   6.00360622693527      2.02850017740379     -4.17170099420467
  H   1.34270076427097      1.06818560627821      1.59246402739664
  H   1.72594782111576      2.78119423828448     -2.25229477323793
  C   10.21434275734387      1.15920519452955     -3.36602580536158
  H   10.86154324349869      1.77356562582115     -4.01711376875032
  H   10.43775961995594      0.10746158426614     -3.61878839498178
  H   10.50378251395937      1.33636597884669     -2.31922739870130
  H   -0.42575331172468      5.97254960662833      0.82817214221268
  H   0.60398932340565      6.72754968807033     -0.46217924281902
  O   4.82260330380145      8.72202165743341      0.47030080193013
  H   3.06704009329413      7.71191860353559      3.11901514080162
  H   8.39466206811672      1.31214186886722     -4.63508471673310
  H   8.18489359843720      2.10350069016789     -1.66535455583172
  H   0.33952012202997      1.78543653209735     -0.59800789288311
  H   2.73879381750772      7.35723227558749      0.05997730240855
