54
Coordinates from ORCA-job 2130_0.0
  C   1.97960484737405      0.20003138282021     -0.36943523267610
  C   1.37020803220496     -1.05976411795960     -0.44552631863337
  H   0.72176799476559     -1.40479495374872      0.36040080366107
  C   1.57414411297801     -1.89611385435268     -1.54803994188259
  C   2.38973285939963     -1.47401380917043     -2.59707643197218
  H   2.55386033361663     -2.11871320619494     -3.46466867217108
  C   2.99468797107171     -0.21464566302749     -2.53985158599867
  H   3.62374695141947      0.10797909705421     -3.37055626100413
  C   2.80211537423238      0.62890977132546     -1.43795381088123
  C   3.43589129920497      2.00842931173231     -1.33051483718859
  C   1.77748830726700      1.16757377176527      0.79420738113876
  C   1.36480677964096      2.54398411761828      0.17942786480266
  C   2.33798594399230      3.03410610636763     -0.91961808188755
  H   1.09007031723478     -2.87576669840094     -1.58306911818617
  C   1.32013037540089      3.68381366571431      1.19630371749793
  C   2.91977872588952      4.34097994724879     -0.38118986754060
  N   2.26509765672814      4.65574694970313      0.82264936270976
  O   0.60560086962769      3.77229588209272      2.16658591604628
  O   3.78816824586773      5.01605788492466     -0.87948478570424
  C   4.20491528673769      2.45871417296526     -2.57605753581274
  C   2.51033026819387      5.85283639095851      1.56714876525500
  C   1.42423540839785      6.59234225754100      2.05383875570110
  C   1.67590483575746      7.75965166297744      2.77773942663895
  C   2.98217091642949      8.19489970525697      3.01593309694987
  H   3.54542963784371      2.49261557153432     -3.45948600944167
  H   4.61988640463907      3.46323613246163     -2.42580518208063
  H   1.77595770853338      3.29951986759817     -1.83179472179405
  C   4.05158430902487      7.44647781924926      2.52216142506724
  H   3.14023699694238      9.11085476669083      3.58858281678879
  C   3.82668362243451      6.27382164286062      1.79885483166206
  H   5.07609110181943      7.78053726309372      2.70327513353591
  H   4.66293168462760      5.69799632905357      1.40498776460860
  H   0.34142072400793      2.43110736469630     -0.21378645189569
  H   5.03461346200041      1.77035502632244     -2.79846201049975
  C   0.82211083848066      0.68248410099030      1.89982144173982
  H   2.76755008523947      1.32505570324489      1.26638498590696
  C   1.44754041426797     -0.32439297029874      2.87645927868332
  H   -0.08711034875892      0.25451651769461      1.44053844041956
  H   0.47715598739517      1.55285572039639      2.47564971707073
  C   0.46135480135384     -0.81558381597614      3.93799497929659
  H   2.31019125692721      0.15687689127604      3.37269186778354
  H   1.86465558536316     -1.18837114340378      2.33097260998638
  H   0.04911864662947      0.02575178760247      4.52018953915971
  H   0.94186485154973     -1.50924644984364      4.64673583012880
  H   -0.39127093914039     -1.34632649419390      3.48070751425605
  H   4.15733272733603      1.96604758384858     -0.49123121550543
  H   -0.83772227727459     10.56470810932300      3.89433841183032
  O   -0.76619587718842      8.43121557642458      1.59084475878704
  C   -0.50123953525933      8.80825531721338      2.69904784340086
  C   -1.37878751742448      9.65838483269381      3.58182799540748
  O   0.66632406308762      8.51914966314973      3.35139771319613
  H   -2.29263723219771      9.92774894824599      3.03885845365779
  H   -1.63457791793615      9.10121392594703      4.49702393602272
  H   0.40564302224350      6.26191463689297      1.87542569395863
