54
Coordinates from ORCA-job 2131_0.0
  C   2.10356594242756      0.21615085319317     -0.25431780118594
  C   1.56647380070253     -1.07831082395449     -0.24075665567801
  H   0.80833081973934     -1.34947536512895      0.49463044787261
  C   1.98481162054321     -2.04396489711794     -1.16206124293907
  C   2.94649942833106     -1.71952490944638     -2.11810645710808
  H   3.28010249689132     -2.46644353212162     -2.84343515816856
  C   3.48042301597210     -0.42768519886940     -2.15233740531031
  H   4.22531279365787     -0.18332953804332     -2.91080705920856
  C   3.07148288735930      0.54621485394905     -1.23187674810207
  C   3.61265578173801      1.96846882536717     -1.23577292651555
  C   1.67877924484320      1.31842579560741      0.71261068448640
  C   1.31059454750662      2.57054115406527     -0.14640696901360
  C   2.40956891396521      2.95677350861063     -1.16699797812258
  H   1.55349237923329     -3.04805650841749     -1.12956306257057
  C   1.08168229803420      3.83636461696619      0.67929257586559
  C   2.82938048391592      4.37475149148132     -0.78094088698223
  N   2.01366708115824      4.80908742356899      0.27721785207334
  O   0.24645601998938      4.01183192548709      1.53457216399825
  O   3.70521844060483      5.04076479492038     -1.27993846823458
  C   4.55603136555245      2.29016780740294     -2.39822027758350
  C   2.10403438299897      6.11230595778387      0.86046117216841
  C   0.94629336122619      6.85641148421311      1.11366082576407
  C   1.02045107733929      8.12898192525563      1.68699956398966
  C   2.27719374906071      8.66170539146040      2.00116135637773
  H   4.05237114999364      2.14727677147497     -3.36888481947646
  H   4.88973909274559      3.33378672295514     -2.34273083165427
  H   1.98153845063488      3.02393823109056     -2.18195058615285
  C   3.43969736130319      7.92284412110523      1.74516322362481
  C   3.35755694375814      6.65322584228361      1.18185510548541
  H   4.40691448766370      8.36152390544531      1.99816413056751
  H   4.26735980113351      6.08916887175207      0.97900299010501
  H   0.35772139271272      2.34860793963092     -0.65432846824852
  H   5.44445434313885      1.64039090682785     -2.37819594403240
  C   0.58357287583334      0.92786125528914      1.72094383720699
  H   2.57519524557248      1.60013596800207      1.30025052034725
  C   1.08960693534006      0.09358860415589      2.90727510883859
  H   -0.22747443246511      0.39208928485605      1.19540088251341
  H   0.12299998499394      1.84490549965897      2.11461881214398
  C   -0.03151062439517     -0.33659739687503      3.85523603602983
  H   1.83320101846727      0.69115344986664      3.46576497139274
  H   1.63447433651683     -0.79765126354190      2.55134352704437
  H   -0.57841195087993      0.53596422499467      4.25031437126055
  H   0.36100855478965     -0.90305192805236      4.71513371757382
  H   -0.76698238770664     -0.97956677182304      3.34201644686501
  H   4.18333385848774      2.10046435591248     -0.29583940143574
  H   -0.03169256389635      6.43907080977837      0.87566860824394
  H   2.80842592363832     11.75314230336180      4.40060201622122
  O   2.51543811185454      9.90216770662275      2.57069637722657
  C   2.25888493429919     12.04428996556406      3.49169665054183
  H   1.50600623305511     12.80361931716253      3.73474081050884
  C   1.57889635177761     10.83775609255622      2.89309232144978
  H   2.99574958742749     12.45298440392741      2.78287286602812
  O   0.39479382543268     10.71546379968362      2.72535194881013
  H   0.11666922598175      8.69866997010068      1.88293722509762
