68
Coordinates from ORCA-job 2132_0.0
  C   2.22257150082474      0.59224589721387     -0.38616027516677
  C   2.03880569947984     -0.76159696599101     -0.07368263555059
  H   1.98004353238291     -1.08027345531462      0.96756015212603
  C   1.92595888626014     -1.72707078827686     -1.07940331179619
  C   1.98825370457462     -1.34346671411147     -2.41841788737969
  H   1.89887015598725     -2.08922381549022     -3.21293784802566
  C   2.15941456132831      0.00538074109032     -2.74490402527931
  H   2.19834013410947      0.29403585342059     -3.79616457687667
  C   2.27848202781107      0.98041979744304     -1.74580660850067
  C   2.46324946012455      2.45989699260159     -2.05153535579367
  C   2.33279927404729      1.69336644323524      0.66525127128734
  C   1.31182609998791      2.80981364044475      0.27639143079330
  C   1.45778089723873      3.28212133905071     -1.19270097341627
  H   1.78620253472647     -2.77750183971652     -0.81035763487818
  C   1.45221963909224      4.08388803516323      1.11189046308641
  C   1.83161442985724      4.76396588805694     -1.10069486813527
  N   1.80565215787618      5.13575963080395      0.25244405186475
  O   1.29438478920368      4.21245488250669      2.30185952875640
  O   2.10381976989752      5.51847330594220     -2.00184163150685
  C   2.37371645767281      2.82613996987296     -3.53603239843408
  C   2.01182588121696      6.47852012605228      0.70614816481287
  C   0.88774432332328      7.22703004978802      1.06152759653924
  C   1.03861645659752      8.53872452044859      1.51069638013321
  C   2.31649906077250      9.13526488449577      1.61014586045470
  H   1.39460666694040      2.53993093065252     -3.95510164429367
  H   2.49513735723440      3.90873759563399     -3.66792962871060
  H   0.47915621261417      3.24143883826174     -1.70140385529179
  C   3.46067618117415      8.35919466283701      1.24675208521958
  C   3.31483275908502      7.00925357077643      0.79107007952402
  H   0.30280047353474      2.41123945768280      0.47000397414165
  H   3.15526469417255      2.31590693048720     -4.11978061963234
  C   2.19563180916047      1.23091416152352      2.12719810139007
  H   3.33934636020544      2.14537274574232      0.56044921449485
  C   3.46684463510709      0.59630525073672      2.71010418003427
  H   1.34414319278948      0.53236893250937      2.21504484947986
  H   1.92768013446236      2.09894105033901      2.74627867628868
  C   3.28454932749076      0.10608744287004      4.14783352617922
  H   4.27900785055591      1.34565859136794      2.67937690168803
  H   3.81166959655571     -0.23897570244662      2.07612329215682
  H   2.97093243984943      0.92760331194317      4.81359170328796
  H   4.21890248659546     -0.31493828923362      4.55299316536948
  H   2.51189428035640     -0.67933208545238      4.21025258662757
  H   3.47792167959000      2.73464662229957     -1.70186785090250
  H   -1.80957213645385     11.24969353659052      1.92780557540410
  O   -1.73670002928795      8.32777640940638      0.84613975532969
  C   -1.32177891213868      9.18457239644014      1.57815035591871
  C   -2.15087444459996     10.25223924266487      2.24634066218086
  O   -0.01059877551703      9.33655131101125      1.93352544097930
  H   -3.20563709886205     10.11409590143157      1.98003231659599
  H   -2.02500165637969     10.19705682223336      3.33891946576908
  H   -0.10119095008396      6.78685128655686      0.97696511212426
  C   4.49578996821350      6.26238730492821      0.45022551817542
  C   4.76627030920029      8.93844652931174      1.34552569950019
  C   5.92179035998813      8.17138939478984      0.99411745151812
  C   5.73781546932269      6.81666612913296      0.54757576853545
  C   2.50231557632681     10.48636214127742      2.06692008918346
  C   3.74872855976498     11.03464821395473      2.15270503022665
  C   4.92403340675222     10.28651659244230      1.79857876891983
  C   7.19482758341136      8.76103381808623      1.09924539128549
  C   7.33855028498531     10.07809404330814      1.54018842874142
  C   6.21788967688194     10.83415199579921      1.88639509728184
  H   1.62111130894177     11.06495988416908      2.34433802624960
  H   3.87274685462004     12.06431904787908      2.49980342784213
  H   6.33582964963779     11.86469209494905      2.23272328247985
  H   8.07640046478038      8.17265025980371      0.83016452463203
  H   8.33577363429859     10.51957917023969      1.61549367279279
  H   6.62295793664619      6.23125396640155      0.28416730526285
  H   4.38574338768377      5.23162006993094      0.11079022690534
