55
Coordinates from ORCA-job 2135-2_0.0
  C   -0.59055426329178      2.02926249106665     -2.16465482383437
  C   0.31445506409904      0.76379320035059     -1.80721552836610
  C   0.28645918272377      0.50311717008929     -0.30212471784669
  C   0.19070285722454      3.16394920253591     -1.46526913559392
  C   1.45610823384676      2.39355330447705     -0.89966381157740
  C   0.98913557702220      1.49764840773430      0.25815236387377
  C   -2.09325486752246      2.00905217847667     -1.83349856001117
  C   -0.69378560635232      3.93500021074468     -0.46132911598947
  H   0.56930592016974      3.86358057387535     -2.22794996829357
  N   1.61704576430039      1.42215914052798     -2.00862861865165
  H   -0.24885375983080     -0.30504441669940      0.19842328266684
  H   1.16229316783137      1.68315441472696      1.31902027731486
  C   2.63019946612562      3.32003999902734     -0.64202565904796
  C   2.78280695860510      0.55728116886096     -2.01425043131301
  H   2.92635466446549     -0.03043908874149     -1.08329285787479
  H   3.68717260675514      1.15682656797850     -2.19696592214967
  H   2.69225701562716     -0.14902651877427     -2.85494754725276
  C   -2.42942035677362      1.96266811260262     -0.34961948232684
  C   -1.66948913979902      3.09709215455159      0.40566491673846
  H   -2.17130890424707      0.97657895650500      0.06275234134920
  H   -3.51630397217484      2.08342626604758     -0.21235663330843
  H   -1.12423978176928      2.65591987196309      1.25169688822979
  H   -2.39576968653460      3.79541525513873      0.85264143377384
  H   -1.28094892916180      4.66484868291317     -1.04320589032037
  H   -0.06190624723601      4.54618672011729      0.20665756547871
  O   3.61099203281111      2.68967201787901      0.19760350712293
  H   2.28389634435553      4.22037527811457     -0.10853009185572
  H   3.09352688735027      3.63151089752390     -1.58874250432310
  C   4.91231367048781      2.73137387974045     -0.17055230014956
  C   5.77265400860985      2.01719784369785      0.84321758580278
  H   5.58805053543026      2.42006019163239      1.85067021982297
  H   6.82983884279938      2.12933621934547      0.57407110744945
  H   5.50459754064657      0.94890389268947      0.86573399803114
  O   5.31141310104107      3.25780365262815     -1.17869896440901
  N   -2.58598718332776      0.94850672806887     -2.71498102886932
  H   -2.47487236552203      2.99853134970662     -2.18824134973005
  C   -0.69980518385658      2.02052530110202     -3.69005158850859
  C   -1.96950650813894      1.20862200603540     -4.01532261635040
  H   -1.71788632747676      0.28130296808285     -4.56140824825557
  H   -2.58355526453502      1.82940012415305     -4.70150337357870
  C   -3.99265291453271      0.59898244207131     -2.69865488249986
  C   -4.97249808464698      1.72041807820460     -3.06426535147304
  H   -4.26066473709791      0.22006264495836     -1.69798768686538
  H   -4.15044543691612     -0.24137888629150     -3.39605423923559
  O   -6.28560481539301      1.14605625895927     -3.03926519282970
  H   -4.77843682886020      2.13757315945112     -4.06632575808937
  H   -4.92813136127651      2.56113892155379     -2.35309164787017
  C   -7.32384525740494      1.98886555212690     -3.23409435579040
  C   -8.63928509941837      1.24934524384696     -3.19232806429458
  H   -8.65934815635694      0.47503881398423     -3.97518903850944
  H   -9.46359570401212      1.95680408294626     -3.34288594600111
  H   -8.75312469884563      0.73553636789695     -2.22505950211908
  O   -7.18646499269511      3.17252802423422     -3.41596190861581
  O   0.00240408133805      2.56473831289996     -4.50040297957346
  H   0.14921291134114     -0.10828539333882     -2.45336816409940
