55
Coordinates from ORCA-job 2135-4_0.0
  C   -0.39354023333047      1.88135779095316     -2.33088400175453
  C   0.58512127533367      0.58050504391853     -2.27310054629618
  C   0.63785983959469      0.06872841644462     -0.82751341841701
  C   0.39800443754524      2.88840329897264     -1.45648055945679
  C   1.69954865418501      2.07702870866872     -1.12714195136729
  C   1.34486540849692      0.97005122957326     -0.13239638548634
  C   -1.87530599330147      1.77733012639769     -1.91680162355408
  C   -0.43607816812925      3.40818582709133     -0.26332023506188
  H   0.70865367770743      3.74049289751813     -2.08035552130882
  N   1.84983173647213      1.34667165201721     -2.39564088353115
  H   0.14191812115124     -0.83231384602464     -0.46623649479691
  H   1.55316143803928      0.97101525175426      0.93919870051958
  C   3.09771254321682      0.62377903842086     -2.56847143051419
  H   3.31136540338941     -0.12415354283820     -1.77656120784069
  H   3.92172604580254      1.35526520811669     -2.58278563404555
  H   3.10203655144848      0.10214997129167     -3.53573741321220
  C   -2.12204084468122      1.39784965135864     -0.46519100900199
  C   -1.34436851920667      2.38141832531823      0.46543790318477
  H   -1.81780357245852      0.35701509100052     -0.28414202619495
  H   -3.20085421842394      1.45004132148385     -0.24603943962494
  H   -0.74657419669341      1.79721936753025      1.17857797250882
  H   -2.06061509584827      2.95259666030349      1.07850783064859
  H   -1.06809186682984      4.23116815821995     -0.63580276592674
  H   0.23695115704970      3.87644363347003      0.47609014996076
  N   -2.45564498127607      0.97646098560793     -2.99676795410527
  H   -2.25625299863736      2.82511890897080     -2.00355951222402
  C   -0.60725709172635      2.22678359776388     -3.81047356283153
  C   -1.95124196421147      1.59047593082847     -4.22128190032698
  H   -1.81769886730913      0.86479648375396     -5.04277859292742
  H   -2.58543815752081      2.41360904914825     -4.61638526047516
  C   -3.85660951045654      0.60599347485314     -2.95145432879709
  C   -4.86577777943067      1.75971906634019     -2.94072010036309
  H   -4.03445624465788     -0.01734223393918     -2.05970386371200
  H   -4.07310158969518     -0.03699896938187     -3.82146715087875
  O   -6.16839347622054      1.16159316174795     -2.93827735037473
  H   -4.76870152968159      2.41412473131062     -3.82286054244251
  H   -4.75715396200003      2.40142448062655     -2.05127985932998
  C   -7.22430917319613      1.99756998017061     -2.83146211699411
  C   -8.52510961858518      1.23155276936791     -2.84457694770440
  H   -8.61743721218660      0.66455610805638     -3.78419780794102
  H   -9.36465154996663      1.92975911837398     -2.74323257745606
  H   -8.53952171836135      0.49976265181059     -2.02190366001216
  O   -7.11074088231770      3.19415291082567     -2.73914740884147
  O   0.07618715584391      2.90963316323659     -4.52739570686261
  H   2.17083234916937     -3.98206954822735     -3.55023072981497
  C   1.74184355316474     -3.81625027381291     -2.55057466522168
  H   2.56579428961709     -3.49977939215127     -1.89110145801358
  H   1.29456553350710     -4.74095454323186     -2.16627069824931
  O   1.19075352284342     -1.61874928055738     -3.19107409483557
  C   0.69615501521628     -2.72943190541543     -2.60178927658905
  C   0.32480949489005     -0.47911639903907     -3.33744652284408
  O   -0.42700264664096     -2.82033820301213     -2.16977414769555
  H   2.56348728962768      2.70835556729870     -0.87519129386885
  H   -0.72113894668248     -0.80316693621606     -3.27279448317027
  H   0.53830811635154     -0.07733373606857     -4.33798643452690
