55
Coordinates from ORCA-job 2135-3_0.0
  C   -0.85808696251969      1.72737616373366     -2.10347415299425
  C   -0.16988613444799      0.57782643590804     -1.19065886615427
  C   1.20571273028830      0.34046104729560     -1.84451591608554
  C   0.02608265345937      2.96426579518431     -1.74811875724881
  C   1.05084056878229      2.34053837652330     -0.74547712038627
  C   1.95235731669331      1.41190027754058     -1.55633609576586
  C   -2.35749663137975      2.03001673785063     -1.87156006734288
  C   -0.80889435392812      4.10660891668324     -1.12707104385374
  H   0.55028282865225      3.33697365034751     -2.64150059696468
  N   0.16856733208202      1.41191654817950     -0.01419597019894
  H   1.45796235307374     -0.49740914392203     -2.49480157107512
  H   2.95162274181705      1.64807450616229     -1.92673750861097
  C   0.76381184932313      0.76941800847174      1.14784041193143
  H   0.03803275741938      0.08934945522598      1.61609761273658
  H   1.01007970116957      1.55027582675068      1.88583785929711
  H   1.68318430148845      0.19100189088643      0.92976677476691
  C   -2.71529767305402      2.45858572408233     -0.45542577503408
  C   -1.82447156532405      3.67234955200072     -0.04581493968104
  H   -2.57264708616753      1.62620783049765      0.24827759726435
  H   -3.78114435416979      2.73772133023843     -0.41393915068746
  H   -1.28233862777625      3.41576828836430      0.87422195755018
  H   -2.45966191766905      4.54115521838551      0.19447736110770
  H   -1.33742275712721      4.63438888476560     -1.93864956467392
  H   -0.12090694361705      4.85413106561725     -0.69614393782662
  N   -3.01781706377407      0.87004925147519     -2.47275451550516
  H   -2.56080382667576      2.92546432412631     -2.50713828324413
  C   -0.94405651212587      1.25045266770359     -3.55514957081261
  C   -2.35996834647774      0.68465158169328     -3.76027280457533
  H   -2.32201610126170     -0.37317631922539     -4.07766828301998
  H   -2.81579557432723      1.25542275106976     -4.59943522060706
  C   -4.46216594489227      0.75689915013817     -2.42651060902738
  C   -5.24872110085306      1.88609515802155     -3.10143599425467
  H   -4.78597706233673      0.69208202038312     -1.37437247813813
  H   -4.74993701667379     -0.19965930667231     -2.89452884910975
  O   -6.63650693730789      1.55057010390997     -2.97898219363343
  H   -4.99465111294105      1.99534047801912     -4.16920995251449
  H   -5.06614165592818      2.86349527692858     -2.62668189760414
  C   -7.52803514527061      2.48097556077567     -3.38540156163834
  C   -8.94363109005862      1.98573241572315     -3.21417435114249
  H   -9.10275177892016      1.08950915284331     -3.83443461005399
  H   -9.64749370816051      2.77350244195274     -3.50851003582807
  H   -9.11813287005201      1.69038534175668     -2.16803630095040
  O   -7.20484752598347      3.55566152533355     -3.82584908396736
  O   -0.09893830207458      1.32201645094597     -4.41135226041348
  H   1.33148117991770     -3.81245577455566     -0.11616675645425
  H   0.57693638283729     -3.49754422745293      1.45558130288474
  O   -0.13510696495465     -1.65969223360638     -0.32146621630266
  C   0.37467610460415     -3.83800980490351      0.42775948083390
  C   -0.98973776332891     -0.67556503564698     -0.93371648378835
  C   -0.62298316291523     -2.91562818420006     -0.23074369582968
  H   -0.02489524297510     -4.85917867144473      0.44537297108659
  O   -1.71629391572514     -3.23181046820108     -0.62954596249443
  H   -1.85083152544505     -0.48056137992635     -0.27972386991765
  H   1.54803545696646      3.07659613062153     -0.09723096410679
  H   -1.39324399995444     -1.08956276435921     -1.86627948994070
