51
Coordinates from ORCA-job 2136_0.0
  C   -0.60544242890335      2.11103726587693     -1.97592619109643
  C   0.31390709385449      0.88316263198716     -1.49793450084371
  C   0.21724686917203      0.68949794151756      0.00670322810670
  C   0.12540790939696      3.29136555057174     -1.30435013739954
  C   1.36743730767813      2.54685602550757     -0.65823400072568
  C   0.88382303109731      1.72286536400611      0.53606124057680
  C   -2.12011520849520      2.08056900588151     -1.72736171263352
  C   -0.81164681853787      4.09691508173402     -0.37893099815596
  H   0.53302085615174      3.95640078574855     -2.08321742649782
  O   1.58215293376491      1.51628403300593     -1.63259249924166
  H   -0.32347159551755     -0.10974253513440      0.51384689315175
  H   1.02526697300559      1.97979086816671      1.58611235770794
  C   2.59687442803967      3.40978692082953     -0.48348451150014
  C   -2.52805797436042      2.10442448731243     -0.26083371837423
  C   -1.81659098665212      3.28233684896060      0.47679610336190
  H   -2.28202665586836      1.14227445564978      0.21200790777460
  H   -3.62131705965657      2.21879814348289     -0.18189977201327
  H   -1.30621449487373      2.88554791665756      1.36562434334500
  H   -2.57135775343197      3.98828512675413      0.85933599672540
  H   -1.37860118730216      4.79465899034557     -1.01744714551263
  H   -0.21649052029957      4.74230244782468      0.29074875682174
  O   3.61559453071651      2.68584252724101      0.21041003002849
  H   2.34988674237424      4.29622442250630      0.12291539387638
  H   2.97181804195820      3.73106449644527     -1.46562748454440
  C   4.76855396164834      2.40253867654779     -0.44791343198171
  C   5.64149969293958      1.50110636500199      0.38935366117314
  H   5.76350200081874      1.91717364991854      1.40087793102613
  H   6.61752237871401      1.37865700287248     -0.09560836656235
  H   5.15261257631420      0.51948813414373      0.49537851094574
  O   5.03989507317798      2.82180849122146     -1.54239745715851
  N   -2.54106995166469      0.96101402666336     -2.57315466518505
  H   -2.50255615453245      3.04076840108098     -2.15428693225255
  C   -0.61446406462666      2.00309957665171     -3.49898779201809
  C   -1.85387525538158      1.15745954164333     -3.84992608965835
  H   -1.55977482912723      0.20487767337464     -4.32662498114206
  H   -2.43493470118461      1.72899879661972     -4.60434611909099
  C   -3.93977333058928      0.58159965274611     -2.61639930406712
  C   -4.91796136372155      1.65756310266846     -3.10146482225895
  H   -4.25768525217922      0.25491023971363     -1.61192482999178
  H   -4.03976122436012     -0.30114341588125     -3.27066406002553
  O   -6.21825503894792      1.05518860676561     -3.11787206271245
  H   -4.67406258421804      2.02159952689604     -4.11348417713226
  H   -4.93179651166960      2.53828623516908     -2.43917009855193
  C   -7.26366151093896      1.86740709946821     -3.39135442884429
  C   -8.56285586520684      1.09883574568360     -3.38945523111317
  H   -8.53324965557795      0.31218622351300     -4.15970756919300
  H   -9.39598706370637      1.78425766006591     -3.58613851712540
  H   -8.70447904393321      0.59767636898444     -2.41933321793191
  O   -7.14216546050881      3.04720587552033     -3.60621024848505
  O   0.14579141103817      2.49453455808649     -4.29064781798060
  H   0.24509773411323     -0.01590661801868     -2.12155003561950
