53
Coordinates from ORCA-job 2137_0.0
  C   -0.58598872548454      1.99193635699199     -2.07782926685346
  C   0.29455050317592      0.72818948002692     -1.63651529771744
  C   0.25683114406148      0.56859336719527     -0.12736364868844
  C   0.16841606667864      3.17356337360787     -1.41113163762118
  C   1.42737345570929      2.47144830016319     -0.74512871641378
  C   0.93373471683195      1.59825825212312      0.40527344565512
  C   -2.10068808077484      1.99837868394015     -1.79221785150553
  C   -0.75946034453455      3.99029619317401     -0.48234965598195
  H   0.55415838432199      3.84624343288104     -2.19634121524184
  C   1.69467501483306      1.36875417361574     -1.80194311313530
  H   -0.27626706579580     -0.22070427752989      0.40569446468454
  H   1.07196919601841      1.82448724037694      1.46453324145707
  C   2.54199282833932      3.45490419055540     -0.42634864328934
  C   -2.47888205080289      2.01335426563711     -0.31873846729643
  C   -1.74449976560452      3.18518011653973      0.40299489738584
  H   -2.22788666181157      1.04783817406816      0.14380990354518
  H   -3.56969885379114      2.13487371485604     -0.21729328979222
  H   -1.21206625747279      2.78654326575289      1.27765158132693
  H   -2.48542958198132      3.89623669480569      0.80359540878515
  H   -1.34069213317112      4.67859269680714     -1.11851062075301
  H   -0.15514549847543      4.64685330151988      0.16722338152169
  O   3.61609359517134      2.83490227416994      0.29981187958483
  H   2.17256444453256      4.25394362244589      0.23526616652581
  H   2.93528702217495      3.90422163412104     -1.34997055931743
  C   4.71961077351430      2.45654548758733     -0.38410674311085
  C   5.73649941511587      1.84186989849520      0.54737734385617
  H   6.02050896879743      2.56934552739441      1.32375511577626
  H   6.62123538885121      1.53508591524537     -0.02332980530242
  H   5.29689010789173      0.97305304444891      1.06153136266050
  O   4.85855603598062      2.60380139000170     -1.57236588104406
  N   -2.58669558468570      0.91570653932840     -2.64828706129135
  H   -2.46011055704556      2.97781048958507     -2.19511986200852
  C   -0.64903110795809      1.90022708817140     -3.60262074587800
  C   -1.93622239181682      1.12833335812442     -3.93788947414146
  H   -1.70220799027531      0.18473593899813     -4.46286812196783
  H   -2.51361842300887      1.75769286206577     -4.64920203246166
  C   -3.99772883810141      0.58380986429273     -2.65576458029391
  C   -4.95337924348282      1.70324260727867     -3.08550128701934
  H   -4.29476208793480      0.24311119063794     -1.64972293257207
  H   -4.14819618753563     -0.27859136721217     -3.32743596113896
  O   -6.27418850458956      1.14679836073263     -3.07399882258363
  H   -4.72854056390969      2.08274522181248     -4.09612902896171
  H   -4.91577049326654      2.56813879799638     -2.40348534433209
  C   -7.29476915423420      1.99449316315357     -3.33163886347548
  C   -8.62068908556952      1.27343168747287     -3.30183304807186
  H   -8.64046421123214      0.49626012733452     -4.08214742729336
  H   -9.43315876085662      1.99075541060353     -3.46916057202551
  H   -8.75456874766394      0.76522244250863     -2.33441348869796
  O   -7.13561556077238      3.16816004165833     -3.55592415492794
  O   0.12843316402269      2.33868583661523     -4.41342232428959
  H   1.89731125054870      1.76768408785041     -2.80591353897302
  H   2.50048958267184      0.68306675821733     -1.50384113419606
  H   0.08034145439690     -0.18016029824454     -2.21420397309905
