66
Coordinates from ORCA-job 2138-2_0.0
  C   1.50973473431120      1.55520800585346     -0.30216426168662
  C   2.42331817707954      1.61246410803709     -1.27701849044127
  C   4.65093797898050      3.30163041645046      2.82966404122591
  C   3.29361190567082      3.05723556815264      2.46893500454805
  C   2.93404197101865      2.92536357081545      1.14825610493817
  C   3.90801209559073      3.02378606268794      0.10733444493260
  C   5.21985488073145      3.29653363342586      0.42676773013770
  H   5.97738143070402      3.42422226004296     -0.34919034691344
  C   5.62785876591386      3.43609570154319      1.78694808086931
  C   3.31528978725188      2.85042498086381     -1.29431688436775
  C   1.52835385527882      2.74741176792814      0.61887366627221
  C   1.23372497919894      4.02842171450651     -0.27705848938732
  C   2.25371702580708      4.07056433392215     -1.47380089679119
  C   4.35283641207527      2.78064569930498     -2.42621397700981
  O   6.13553144544684      1.66521999106766     -3.53254375347523
  C   6.91229023598332      0.60001994077453     -3.82349916806211
  C   7.87733951309486      0.91959964485042     -4.94047505423412
  H   2.53938901007821      2.98461446523199      3.25883308677627
  O   6.82396429079450     -0.45878471518480     -3.25351198495395
  H   0.78703340688623      2.68227158712011      1.42773371692445
  H   0.78313204675469      0.74658655608971     -0.18845805611347
  H   2.50956335397642      0.85373925206736     -2.05835643510993
  C   5.06850006438588      3.43171070655803      4.18325553860445
  C   6.38842715620091      3.68744218238368      4.49647010644190
  C   7.35268055829367      3.82623909715810      3.46673172735269
  C   6.97885574023267      3.70356903515721      2.14357389541172
  H   4.32245381743891      3.32728439817434      4.97668891123044
  H   6.69453104318432      3.78577028946303      5.54151918711857
  H   8.39479732132155      4.03252115547911      3.72503125061563
  H   7.72082665279157      3.81268441044408      1.34724744776086
  H   8.51828560730162      0.05051757605389     -5.13189669670282
  H   8.49227170017978      1.79245859926535     -4.67177869551444
  H   7.32035199620456      1.18236742380457     -5.85368419373103
  C   5.17250601573507      1.49548906126042     -2.47633754089603
  H   5.06355427158544      3.61178595128556     -2.33859394566427
  H   3.83848262950318      2.89746663165768     -3.39412781679813
  H   4.56637484451805      0.60299223295374     -2.69102711278500
  H   5.70310470029361      1.29920461654230     -1.53159495475127
  C   2.84581471600134      5.43795557264450     -1.71907553304901
  C   2.68663543423517      6.53100348655553     -0.91346487940784
  C   1.88678976436859      6.39513957848245      0.33333566737828
  C   1.20636310797995      5.24823266563192      0.59209445392413
  H   0.58581793600158      5.19100741357352      1.49233933913287
  C   3.19470469727783      7.84470746542383     -1.23362899875984
  C   3.04554051363684      8.91823092632968     -0.38853644816669
  C   2.33895251880305      8.75735217037097      0.89562097725352
  C   1.79588033265322      7.53890761215099      1.21351668981769
  H   3.72974680478932      7.99607460581206     -2.17030922850917
  H   1.24930368894976      7.41672531806782      2.15318073999299
  C   3.57366936492821     10.22770451942580     -0.71118818331948
  C   3.43407421919560     11.27726124100266      0.14501725990658
  C   2.74954210784927     11.11536550462831      1.40941745135621
  C   2.22850831825584      9.90962276287630      1.76651123486538
  H   4.09692662298903     10.35161398230182     -1.66361444031476
  H   1.70911026487859      9.78567448696229      2.72110414642917
  H   2.65534341823586     11.97604621858782      2.07690564831718
  H   4.17433539027783      6.32727878999310     -5.24903208878617
  C   5.01298067049823      5.89741131679399     -4.68402846443905
  O   5.52411001347590      6.04967178520989     -2.32818877728327
  C   4.72312936127642      5.87082841378308     -3.20483312091128
  H   5.15682125743376      4.85952884009199     -5.02845311224957
  O   3.40811176586042      5.56151237329914     -2.98949002773469
  H   5.93878209479393      6.45760015311483     -4.86567488513789
  H   3.84308435210652     12.25717285833309     -0.11522451431554
  H   1.71620922346034      3.81832580086311     -2.40248301297427
  H   0.21700061798867      3.87944622449655     -0.68296307878721
