66
Coordinates from ORCA-job 2139_0.0
  C   1.33538006806984      1.00402200611950     -0.81262525493838
  C   2.29204286995794      1.13528062601810     -1.73777282887668
  C   3.36293849682052      4.35425277174125      1.89439119843340
  C   2.19048634268630      3.62357318510447      1.54314614683342
  C   2.05939676603034      3.07212996810788      0.28986680271839
  C   3.08856673628121      3.22160863468029     -0.69037496540170
  C   4.21875275294615      3.94807127910011     -0.38637028895731
  H   5.00685586640894      4.10833768165662     -1.12544787818541
  C   4.39202503404109      4.52334766433343      0.90820642787438
  C   2.73449426332837      2.56575943880121     -2.02907472349480
  C   0.85701966404019      2.31362745634525     -0.22790250580282
  C   3.83223581236126      2.64880872031855     -3.10292278100190
  O   6.00523181288652      2.06120361528252     -3.88023565905915
  C   7.06632015203630      1.23580999762618     -3.99599023530514
  C   8.01462147833891      1.71999291829513     -5.06697052767329
  H   1.39249950846449      3.51115297900657      2.28332570928552
  O   7.21745809446922      0.24944370688099     -3.31846000269167
  H   0.90004779898627      0.04748431702867     -0.51202068937006
  H   2.71772823766073      0.29072599536604     -2.28466928439660
  C   3.54490132066234      4.92776966464536      3.18350028558595
  C   4.68833915313021      5.63861456433788      3.48844380290070
  C   5.70405221166706      5.80833603874149      2.51413629987536
  C   5.55726046610218      5.26282733630950      1.25446664972282
  H   2.75881439955577      4.79660022374314      3.93298775982379
  H   4.81411247934092      6.07392833644248      4.48350897608307
  H   6.60557124972605      6.37402912586931      2.76456552883008
  H   6.34029445532127      5.39339340440843      0.50171881131950
  H   8.83896010540625      1.00533293680724     -5.17901841819707
  H   8.41152481958457      2.71013395202153     -4.79223512157258
  H   7.48046549394364      1.83921945416995     -6.02217390761701
  C   5.03221810037964      1.73700809787105     -2.87318157979108
  H   4.19934348073517      3.68262440367348     -3.18734571517661
  H   3.39470985226509      2.39631219238749     -4.08476273531129
  H   4.77925253710163      0.66946438477203     -2.95383935682104
  H   5.48299288734998      1.88122157904096     -1.87819257676829
  H   -4.69681402155252      6.48735775941154      2.47682097409270
  C   -3.84689295301695      6.56439050801883      1.79342993508161
  H   -3.85277609624002      8.74191651464175      1.80304627984095
  C   -3.36800921552246      7.84373672712062      1.41125462590083
  C   -3.24489564308556      5.42124882698461      1.30645457707328
  C   -2.29654261351677      7.95619525431616      0.54886243648624
  H   -3.61316911464695      4.43407727850157      1.60103191679348
  H   -1.92625112171156      8.94159361700184      0.25161717955015
  C   -2.13740457737551      5.50435234829278      0.41800611895047
  C   -1.65486938783662      6.79647517735314      0.02930557774262
  C   -1.48261039929659      4.35284940431350     -0.10100864829359
  H   2.42722835883158      9.54770865366452     -2.43830837688169
  C   -0.56343087617899      6.86834132523298     -0.87469169578413
  H   -1.86072090188760      3.37143341855407      0.20231554760023
  H   -0.20928413662476      7.84815398641740     -1.19772026125774
  C   0.05050328057289      5.72857780179201     -1.37104248448815
  C   -0.40324369394163      4.43225544391578     -0.95847714465981
  C   2.59936305173292      9.03357765451504     -3.39733692968246
  O   1.41358531456008      7.11258912064137     -2.75031783141816
  C   1.12122922077511      5.80525248091852     -2.37456935944492
  H   1.76461613940842      9.29789174409200     -4.06440894084643
  C   0.26702391823868      3.15050501450010     -1.44007736779831
  C   2.63705639551237      7.54123939006558     -3.17683210327370
  C   1.68693678431158      4.72386240289769     -2.93426824195035
  C   1.39111002703938      3.31496130478363     -2.51749413924655
  O   3.59401837008420      6.83469402268277     -3.34721649654531
  H   2.42182555025828      4.86351319545735     -3.72295923975576
  H   3.55209665761209      9.36386940347750     -3.82851064204784
  H   0.09423406359989      2.17686442709835      0.54906396244778
  H   -0.52555646344313      2.52291690204207     -1.87574579505758
  H   1.08733931525358      2.76312023424029     -3.42328079600421
