52
Coordinates from ORCA-job 2141_0.0
  C   -6.30522620380123      8.25319994262969     -1.73808587146553
  C   -7.14383807385350      8.27919363453518     -2.85961681446754
  C   -6.60907355171740      8.42197032749552     -4.13645175760157
  C   -5.22167697061720      8.54948574983048     -4.30065877578891
  C   -4.38847294185066      8.52370090940047     -3.17620454253142
  C   -4.91831222886593      8.37170180858965     -1.89209184687008
  H   -8.22133635196067      8.18371224523809     -2.71167201740012
  H   -7.26962689058735      8.45166409501598     -5.00183853388516
  H   -3.30962106307928      8.61334645408108     -3.29818217559128
  H   -4.26475671141914      8.35521763696176     -1.02469538129352
  O   -6.97845510380997      8.09304827053840     -0.53702343765965
  O   -5.26335973307286      8.31869902481261      0.94278472198141
  C   -6.42895157056446      8.13966346097757      0.70848874439770
  C   -7.50818953926380      7.93267294886763      1.74271515254481
  H   -7.06418766047010      7.96752184493751      2.74482187611338
  H   -8.00274445725458      6.96202095749212      1.58137043342319
  H   -8.28004807672016      8.71174495890258      1.64297539635098
  N   -4.66288664845775      8.71169959983639     -5.60700589005739
  C   -5.21356606642719      9.55194505469629     -6.59008312760105
  C   -4.30689764817913      9.52128332143735     -7.81512384902870
  C   -3.52250955177572      8.02702387254200     -6.06049982479411
  C   -3.27383275804016      8.40088754440845     -7.52702064043637
  O   -6.23441954472994     10.18293651131864     -6.47006154993555
  O   -2.88677155175763      7.24977640275076     -5.38857570912055
  C   -3.64113226338553     10.91485933134751     -8.09685555277881
  H   -4.94824587140532      9.28032419531624     -8.67679485688561
  C   -2.40258590049314     11.12229321294548     -7.23430357908348
  C   -1.49928036442157     10.13715982349838     -7.12941174544691
  C   -1.81184340581415      8.82709390055950     -7.83112147705427
  H   -3.51249455702838      7.49696692369636     -8.11363701977697
  C   -0.65284845160827      7.88574317534478     -7.42460844527881
  H   -1.77262588456265      8.98693906861357     -8.92794916149800
  C   0.51173606274111      8.84653207721131     -7.11148844454814
  H   -0.40638190904650      7.15992810548222     -8.21566852379609
  H   -0.92640311920366      7.31581061475844     -6.52615420056707
  C   -0.16455037214116     10.05765531513159     -6.43137932017383
  H   0.99489042040764      9.17595668791999     -8.04802680709901
  H   1.29121198982849      8.38257325625020     -6.48756451281102
  H   0.41776720964884     10.99039432753287     -6.51282015096095
  H   -0.30532868969042      9.86224443811792     -5.35109249483127
  C   -4.51326003438053     12.13125758302913     -7.94685897789220
  H   -3.30399384922974     10.84724767110622     -9.15228709626564
  C   -3.96451761068760     13.09317838199287     -7.18824993020394
  H   -5.48333102667474     12.23048951486469     -8.42443556254256
  S   -2.35967318077271     12.72933426668380     -6.48538971375632
  O   -4.40888456364861     14.33440914976731     -6.82778066601195
  C   -5.50091375899983     14.94394710114660     -7.39757708241617
  C   -5.70491080553721     16.29682653327590     -6.76816005032714
  H   -5.83484776184759     16.18878583369449     -5.68015645598644
  H   -6.58777025774989     16.77440787459624     -7.20953520362593
  H   -4.81428568624645     16.92410410903473     -6.92974448259513
  O   -6.16868545977427     14.45112094978474     -8.26232306506892
