37
Coordinates from ORCA-job 2145_0.0
  C   -1.43369726106719      4.39537156877137     -4.18839274492218
  C   -1.07873859372627      5.67613367717808     -4.37539287721973
  C   0.37068082659264      5.67034284050702     -4.86273291467714
  C   1.22076905941583      5.33874588797330     -3.57419598892377
  C   0.91748909989426      3.81893311837598     -3.49898311239376
  C   -0.17434223948604      3.60955987473765     -4.58987028999421
  H   -2.34182457669634      3.98392202540850     -3.76218886234963
  O   0.37903604758657      4.45935295289443     -5.61675517372480
  H   0.71305892212950      6.52472182933540     -5.45660845004111
  C   -0.35842923737827      2.14593096870096     -4.96845152401617
  C   2.26227946753781      3.26391697564944     -4.02602232060483
  C   2.35174986997545      1.75681682220178     -3.93613284976443
  O   3.23003175942251      4.07043888663804     -3.35390638757841
  H   2.30865572229760      3.50987992836195     -5.09567266626387
  S   1.16433177449156      1.10929048583265     -5.20597357918195
  H   2.14349549467941      1.35102885180057     -2.93310984615624
  H   3.33423594785837      1.38671848657446     -4.26594046689546
  H   -0.88845294235892      2.06996520381420     -5.92993688238984
  H   -0.98238815295743      1.68892371539871     -4.18717231322827
  C   2.77724756637612      5.40483461932816     -3.59474183366135
  H   0.84326049265684      5.91450528265289     -2.71668337868179
  O   3.20618334464794      5.90975917720178     -4.81829624241733
  H   3.18754867831226      6.01106550158808     -2.76488081245947
  C   4.60329520332513      6.10905583931845     -4.91905044207596
  H   4.80319987873622      6.51830701785937     -5.91911883933683
  H   5.15647730469310      5.16301640079143     -4.79347140549606
  H   4.96151152045301      6.82948145176556     -4.15751768311679
  O   -1.66594494677008      6.88134171652714     -4.12125734843021
  C   -2.94127975548235      6.97536346361774     -3.61759679003018
  C   -3.31725709987847      8.42286537217463     -3.44052655015243
  H   -2.64480614382253      8.89637463073176     -2.70752590321291
  H   -4.35464807610089      8.49034476245006     -3.09180280929938
  H   -3.19742810775136      8.96553375711767     -4.39074112973584
  O   -3.62454814568256      6.02247397089481     -3.36813821619876
  C   0.58954265378632      3.32285305802292     -2.11090035449424
  O   -0.42907775937413      2.75088916397279     -1.80450432323966
  H   1.38559240366435      3.52394071383010     -1.34743668763489
