64
Coordinates from ORCA-job 2147_0.0
  C   -1.14664686618553      3.11588465467466     -1.47269781744851
  C   -1.89013062733722      3.84870577784626     -0.62969533596793
  C   -1.70356306818729      5.31197836064949     -1.00707471828649
  C   -0.24534422707201      5.69347592872080     -0.59169728918110
  C   0.62214108462778      4.84885555446127     -1.58432475504106
  C   -0.45389849798478      4.07753567482367     -2.43838002480338
  H   -0.96663331160820      2.04042418090703     -1.44531995516637
  C   -1.53973113258387      5.18084099865960     -2.53551342388292
  H   -2.46864075232774      6.01024034679830     -0.63876383039417
  H   -1.17885064305304      6.10260892391327     -3.02401715124872
  H   -2.44127592626032      4.81705126331013     -3.04638633020382
  H   -2.44663229398051      3.49347391954014      0.24089879232586
  C   0.05384942234440      3.49147954530482     -3.74374570443182
  O   -1.03884843984970      2.97127223201336     -4.46606280195575
  H   0.80069572418444      2.70200886144429     -3.53369750956876
  H   0.56788796700061      4.28239992458213     -4.33435616420531
  C   -0.68896690667179      2.35389441267908     -5.68291008808232
  C   -1.94462050912757      1.81127231751699     -6.34159718510206
  H   0.04050835725139      1.53497514136521     -5.50380373558813
  H   -0.18351915221592      3.08257717688495     -6.35363139343367
  H   -2.43648204904294      1.07510926305659     -5.68658165127377
  H   -1.70114764731320      1.32131629655808     -7.29782173287938
  H   -2.66104252438397      2.62445351837165     -6.53857898317405
  H   -0.03374908619673      5.45440080410129      0.45929106364413
  H   -0.06297258244706      6.77096174667804     -0.72728141834944
  C   1.68204131951980      3.96059700884705     -0.95566767511404
  H   1.17849902494303      5.53453362146509     -2.24969990656250
  O   2.36746046118324      4.60816696298069      0.00630090867109
  C   3.45275228444117      3.89504168417459      0.66031146709571
  C   4.45895043341459      4.89593616441197      1.27913481935383
  C   2.84645376904045      2.94682657881244      1.71938984827175
  H   3.95059496333064      3.30087644905530     -0.11822967725726
  C   3.96623285363936      5.29876265262986      2.68259486495018
  C   3.75701289367053      2.73872396544340      2.93658643706782
  H   1.89484156198552      3.38892952841513      2.06461632603751
  H   2.58904819573506      1.98869692179766      1.24306013115370
  C   3.99040900193761      4.09270626853572      3.64984456520452
  H   4.73143554585938      2.37020295906883      2.56532263304836
  C   3.20708263358097      1.67578882451480      3.89153599029431
  H   4.57537069319527      6.11535074841797      3.09807819632119
  H   2.94105291798368      5.69601744228926      2.60240006520986
  H   4.95437366902724      4.05573835710342      4.18663379420623
  H   3.21668078500764      4.23350685204800      4.42529318636160
  O   1.93056358255821      2.82640949186283     -1.29682423516686
  C   4.96324173735021      6.07421893737482      0.36628061953981
  H   5.36079846344663      4.27534508598389      1.43157890043708
  C   5.22399677024716      5.55004501495334     -1.06161958743015
  H   5.84485583636056      4.63862516629526     -1.04031889647777
  H   5.76866429468705      6.29495047505872     -1.66214407605545
  H   4.29301888857727      5.31139663072536     -1.59693156478645
  C   6.31659748489318      6.55909937403410      0.93651158455538
  H   7.06160688507415      5.74595845475313      0.93017549047114
  H   6.22417935128071      6.92147720648294      1.97267385272924
  H   6.72985966616081      7.38389512333035      0.33584830020087
  C   3.95111241304583      7.25671418060386      0.35263290239021
  C   4.25799272912275      8.41428880053658     -0.60519673719857
  H   3.88148108760204      7.66361094872218      1.37582364868086
  H   2.95403908546179      6.85866922084288      0.11589549169536
  H   5.24021717935330      8.87665464396407     -0.41460150001146
  H   3.50184001242324      9.20867554265593     -0.49355815150683
  H   4.24010507802942      8.09902622745866     -1.66084793850962
  H   2.20460809184303      1.95558285128516      4.25932820742314
  H   3.86133179169395      1.55296946364431      4.77063332623948
  H   3.11977025171384      0.69421734455832      3.39739353216576
