35
Coordinates from ORCA-job 2148_0.0
  C   3.48027234199756      6.14062564204918      1.63272200387395
  C   2.30344585165673      5.89579421304376      0.65301408979110
  C   2.78440897406817      5.36176361819381      2.75982253365465
  C   1.54985919667245      5.18698783638489      1.81597327436707
  C   3.16457454391327      3.87708231373176      3.11937769675905
  H   2.64460326994948      5.96835894249467      3.66942149318399
  C   3.62362596134945      3.17734703814920      1.84922224911630
  C   2.55132603396710      3.02458083358091      1.05578193489088
  C   1.34121378228743      3.62767883655529      1.77267395782078
  H   0.63893724949867      5.71921622779878      2.12549329479319
  H   4.66108268517545      2.93196202547049      1.61197965984362
  H   2.52985042580997      2.61904018613596      0.04213410948600
  C   1.73050418080974      3.29628440390986      3.24365008630361
  H   3.82497230562042      3.78452332192799      3.99140246888279
  H   1.10031583807904      3.81281246198961      3.98563469350716
  H   1.72829238690242      2.21751372684819      3.45610419125393
  O   4.48684243767192      6.78366057615184      1.55371262291004
  O   1.74624982132314      7.10349745024654      0.15356949521880
  C   0.77116633124026      6.97306904719941     -0.77710382794628
  O   0.35802218846042      5.90279050722815     -1.15120245912695
  C   0.29683962257098      8.32073240174952     -1.25706553286236
  H   1.14149783153365      8.88240373977569     -1.68544556276680
  H   -0.08404821724279      8.90830275614467     -0.40717005190905
  H   -0.49089168579666      8.18858968869605     -2.00836566931295
  C   -0.02706343954684      3.23607999113557      1.23778584776611
  O   -0.16660525993765      1.81381940706665      1.08631021067461
  H   -0.16128886684245      3.65741817557549      0.23065466171713
  H   -0.82209004503434      3.61239762939683      1.89844786567695
  C   -0.73013544867529      1.11688338317141      2.09667546207566
  C   -0.81779348107605     -0.34985560290369      1.75059562330189
  H   0.18933129708184     -0.74794587520372      1.55089303927356
  H   -1.40615555055222     -0.48284879299758      0.82939924627600
  H   -1.28278942573863     -0.89798801150708      2.57881175362884
  O   -1.10959634682711      1.61606676697666      3.12766313735159
  H   2.56084320963043      5.22250513383305     -0.17939359947495
