38
Coordinates from ORCA-job 2149_0.0
  C   3.41580758441971      6.05558321730460      1.64336797245941
  C   2.17763226188515      5.70498301721358      0.78715469868779
  C   2.88984365974487      5.25446396952879      2.84265753897781
  C   1.57652802301728      4.98483941672628      2.03464686431237
  C   3.55583332436824      3.91227411930695      3.23912599272015
  H   2.77397043078440      5.89674784143693      3.73266431216799
  C   3.69314452441642      3.04118273755580      2.01122780267903
  C   2.54518971532403      2.79685381224822      1.36122883331763
  C   1.30909980246696      3.45498197096041      1.95344213643964
  H   0.69874934916648      5.52073205888428      2.42727334581203
  H   4.66004107490695      2.63185889302187      1.70554578549691
  H   2.47075957194374      2.15912457155251      0.47669647586630
  C   1.20305948909573      2.97014343393389      3.43543538890485
  O   4.37111726526987      6.75260229161057      1.45674708035460
  O   1.49404592087378      6.84913130768758      0.29695484851988
  C   0.68240429055130      6.68410471646713     -0.77596088539894
  O   0.47409108020680      5.61354664302412     -1.29108048628101
  C   0.10904193847398      8.00349229109039     -1.22466565515018
  H   0.91730045457804      8.62935534260787     -1.63616512213779
  H   -0.31884639340999      8.54657307132440     -0.36884517202826
  H   -0.65353625864294      7.83213044152455     -1.99389120157402
  C   0.03405423371342      3.17836768250985      1.15741232460555
  O   -0.15895009547955      1.76287205750097      0.99629826262292
  H   0.11138243025116      3.61303903118931      0.14876349132930
  H   -0.84454536100908      3.60411720138478      1.66323916354195
  C   -1.31186506910400      1.20291859252175      1.42967375826862
  C   -1.31820569455857     -0.28024678162290      1.14721584658012
  H   -1.18778407852451     -0.45624471903853      0.06816328005229
  H   -2.26421704562830     -0.71650452753267      1.48988584375736
  H   -0.47181429588744     -0.76437531044621      1.65920124232311
  O   -2.20211877016875      1.81433294259370      1.96502838916685
  C   2.53970129422436      3.21408273743389      4.18919819212996
  H   0.94377997106902      1.90144758085534      3.43893439482796
  H   0.36912332644858      3.50186537584040      3.92321484498052
  H   2.96985549127892      2.26420347349541      4.54152509272555
  H   2.37988147211404      3.84310360770076      5.08028532904148
  H   4.51744354909121      4.08757726944363      3.74274917177459
  H   2.41565153272866      5.01705862115966     -0.03966918187432
