41
Coordinates from ORCA-job 2150_0.0
  C   3.26259627463934      6.01084176921210      1.77073889449768
  C   2.02845981434232      5.53487280698372      0.98692893678906
  C   2.90479592190205      5.13392963166389      2.98083511073529
  C   1.54469250276783      4.81024992917209      2.28417265284289
  C   3.78307243273187      3.89371194431798      3.27445214370112
  H   2.82284512646950      5.75317151964761      3.88997924708188
  C   3.68025450290296      2.91128145384451      2.12429538349500
  C   2.47004204493701      2.60610611809149      1.63273245453913
  C   1.23511459517174      3.29315599669037      2.20556060613804
  H   0.70238624039405      5.35899719619097      2.73323859592069
  H   4.58615495048795      2.43602577545546      1.73515622659290
  H   2.34617141689462      1.87042641986281      0.83316274465883
  C   0.92500755385735      2.77156971405313      3.65303593927113
  O   4.11538949102430      6.82468383157232      1.55658935268279
  O   1.21104835244379      6.56875086915230      0.46630266929041
  C   0.62608328787420      6.37657636413190     -0.74451434210402
  O   0.73558716430603      5.35867904818942     -1.38065354780465
  C   -0.16318853100948      7.59265921415535     -1.15390086477298
  H   0.49790816504378      8.47231878881553     -1.18940966769934
  H   -0.94178821743364      7.80084167018500     -0.40350952309123
  H   -0.62267923332691      7.42133439491002     -2.13457728270764
  C   0.00716706898731      3.09540782949941      1.31063912116350
  O   -0.25043258959787      1.68922938247411      1.17347172097952
  H   0.16630082998950      3.52445250002858      0.30800976609828
  H   -0.87856885337976      3.58568721350066      1.74642562234759
  C   -1.43234796222100      1.33231792434471      0.62153351532346
  C   -1.54840827323139     -0.16906638742062      0.51305693322686
  H   -0.73796393063591     -0.56284640691614     -0.12015906976828
  H   -2.52162688833179     -0.43127072994873      0.08083483514504
  H   -1.43895515884680     -0.63153089026920      1.50639374373457
  O   -2.26593188187536      2.12923147140169      0.27225167080021
  C   3.32529316303853      3.22605858797126      4.60598975489144
  H   4.82210660378341      4.23938048613436      3.39674634793081
  C   2.12766288914951      2.26982106949775      4.47066936900471
  H   0.39848008197113      3.57468607466711      4.19999151899732
  H   0.21260389948369      1.93596314329626      3.57111056215149
  H   3.09727943594641      4.02500718478819      5.33345610540049
  H   4.17019678427757      2.65889190834879      5.03186108052990
  H   2.48098339016590      1.32857846893015      4.02004802910261
  H   1.77407217745696      2.00118908676903      5.48109093008435
  H   2.30820535744920      4.83026762660446      0.18706271279905
