61
Coordinates from ORCA-job 2157_0.0
  C   3.65699144973825      8.05186628598638     -0.94649119361083
  C   2.11913094859608      7.98645732177725     -0.93332590031177
  C   4.00969943220350      6.91888967482133      0.10197211775783
  C   3.59800260926419      7.42261886544634      1.47914611201838
  C   2.26035452632866      7.36678330013069      1.48584005273739
  C   1.85514335142529      6.81898016075296      0.11327080830588
  H   4.27018941032525      7.83201749624675      2.23427233548106
  O   2.98103393719403      5.98047626993532     -0.19951058300247
  H   5.00673250884410      6.47803215974190     -0.01153674894271
  C   1.65722005505904      9.37581872008131     -0.53049896588058
  C   4.00245929944996      9.48016416974108     -0.55768239669270
  N   2.79884286341050     10.16685438058523     -0.35261003691408
  C   2.74654120988304     11.54994908367756      0.08835199740557
  C   2.84420095458266     12.51950005666813     -1.08515971327055
  O   2.80116090560015     13.83649654094605     -0.52685861072855
  O   0.52379815973687      9.76320815933031     -0.36543394974782
  O   5.09719937830581      9.97425654509812     -0.42548341062901
  C   0.53075788779675      6.09579009553578     -0.02566614565807
  H   1.56857375506029      7.72276326365370      2.25045774586391
  C   0.38336132243781      4.89536185910677      0.91063391842243
  H   0.43135878906986      5.76973464399169     -1.07518630261365
  H   -0.26909507072623      6.83629242546132      0.14682564626597
  H   1.18722854507050      4.16468386130254      0.73467794909692
  H   -0.58281170099491      4.39126238283247      0.75197590775690
  H   0.43331605345630      5.19685723886668      1.96961011640282
  H   4.11113343523746      7.80839232741317     -1.91759215038470
  H   1.67163509152835      7.70852620539735     -1.89856005180137
  H   3.78463208212049     12.37898589935319     -1.64055938352442
  H   2.00700545112543     12.38385174969945     -1.78921566277784
  H   1.79558707481721     11.69617108461463      0.61994393855841
  H   3.58421137199162     11.72622276736363      0.77902668367482
  C   2.97819657211301     14.86575122691591     -1.37897695931900
  C   2.97865146129426     16.18706294742845     -0.64076947687662
  O   3.13543334389322     14.72248614754516     -2.56648988364611
  C   2.94730149041391     17.38587994490824     -1.57980552162095
  H   3.88430426885847     16.22086958726740     -0.01150310510904
  H   2.13780787826831     16.19637242302012      0.07113969664520
  C   3.30162790082973     18.68060405833646     -0.88148582706336
  H   1.96794092159524     17.50239399486177     -2.07089265322028
  H   3.66415470428938     17.23994595779649     -2.40590913107240
  O   3.05761182659037     19.74412636253669     -1.67453696557995
  O   3.76292388393071     18.77831385371868      0.22932973551156
  C   3.40458762897337     21.02676909918763     -1.15012057979275
  C   3.14596381696426     22.10109808622619     -2.17808394586789
  H   4.46707107064998     21.02025137312734     -0.84921202845409
  H   2.82583046324257     21.21553546117052     -0.22956558364803
  C   2.77178307806491     21.80775181104973     -3.49769670658935
  C   3.30438157898484     23.44452118790174     -1.80139048508441
  C   3.09893496778835     24.47196156043077     -2.72106151598051
  C   2.72397891596814     24.18088001628615     -4.04463159828161
  C   2.56312974078613     22.83601735788227     -4.41577183795965
  H   2.64379538972851     20.76728854665324     -3.79868634276490
  H   3.59274184708998     23.69047539324631     -0.77456832323337
  H   3.23111819390349     25.50604684207987     -2.39626048072182
  H   2.27057219947812     22.61992725407019     -5.44560158550395
  C   2.48494262781038     25.24012177094920     -5.08500422968226
  C   2.67112007172404     26.69735052514069     -4.69858591890325
  H   1.99233164656234     26.97925286777069     -3.87692310070317
  H   2.46098284411158     27.32349427506499     -5.57524692155564
  H   3.70035751594608     26.88665858667105     -4.35181321714500
  O   2.14996706220782     24.93423648519584     -6.21306963003455
