36
Coordinates from ORCA-job 2158_0.0
  N   3.66550367822754      8.13042588996480      0.32989739755960
  N   2.50168702951682      8.14038998391893     -0.04234784821364
  C   4.12240662515665      6.81459768342682      0.94232862684647
  C   3.17086720634665      6.52910275755157      2.07586493178115
  C   1.88046680286177      6.53613007106655      1.66681561314252
  C   1.76146631817475      6.83419006783548      0.19491739768863
  C   3.71151513937801      6.26731018678130      3.45067326816830
  C   0.41107008972271      6.95190817257108     -0.48148761170978
  C   0.67872178017612      6.21797674630285      2.50278903696169
  O   -0.33655736563869      5.75247367071093     -0.28190845253767
  H   0.57334793880525      7.10814738119280     -1.56001819684717
  H   -0.13300963669515      7.81831042579948     -0.08625191375648
  N   2.63670383200297      5.80915581225808     -0.52492179701945
  N   3.79853416123829      5.79781088708695     -0.15422741352976
  C   5.60937532472423      6.84520210103833      1.20206973939855
  H   5.86184031151931      7.62683770871638      1.93265097188722
  H   6.13815903032669      7.06580989462467      0.26390129071719
  H   5.96068050785272      5.87316195229483      1.57640858146196
  H   4.34438976634998      5.36367872640759      3.46857526914463
  H   2.90807286388457      6.12455105150984      4.18552768315742
  H   4.33975416818054      7.10368611388590      3.79897717260092
  O   -0.23819489877133      7.33027391632497      2.47681929615772
  H   0.96893073098854      6.02613708475314      3.54624259420927
  H   0.15878426810717      5.32363962429244      2.13292344479376
  C   -1.53512516117463      7.06397647098862      2.75852018847169
  C   -2.39765843037397      8.28833990762246      2.59926967997352
  H   -1.84956158854360      9.20388628931874      2.85985250040555
  H   -3.30240720022595      8.18212736373209      3.21136174400516
  H   -2.69657157512528      8.35225508895621      1.53931187953676
  O   -1.93013955751911      5.96053385958781      3.05163190582253
  C   -1.68601935349736      5.83794450160649     -0.39146444631000
  C   -2.34492501545275      4.51282099882293     -0.11492197023575
  H   -1.71761885964024      3.67519438774877     -0.44862961971491
  H   -3.32873788895813      4.48548792679595     -0.60054368759518
  H   -2.48816260063895      4.42957479696842      0.97552226158191
  O   -2.25900844128624      6.87127049753522     -0.63692951800446
