41
Coordinates from ORCA-job 2159_0.0
  C   4.07601113418910      8.01709429722671     -0.23575111844197
  C   2.66739299769671      7.90025322975271     -0.84309793991574
  C   3.96410387611513      6.99790008788244      0.96984706286265
  C   3.03219363146558      7.61369532869242      2.00545700842628
  C   1.80720175929342      7.51662208020453      1.47405353935746
  C   1.99017062901868      6.83006895279663      0.11675328059260
  H   3.34258089551832      8.11593556131619      2.92256183635763
  O   3.13873117224523      6.00160764087656      0.37184250435385
  H   4.91753650782439      6.58063579066042      1.31382139408879
  C   2.09528116532945      9.30696916496601     -0.80835341659837
  C   4.24149810752169      9.48785473716304      0.11585216608537
  N   3.06554670769257     10.14927472616339     -0.25927606983791
  C   2.85476652472009     11.57533509135140     -0.05409205602422
  C   3.13734184055033     12.40138656326825     -1.32635016429156
  C   2.93638880796607     13.87671775190009     -1.13002780326653
  O   0.99837942805534      9.66981585874196     -1.16885192105152
  O   5.19225571069954     10.02413613194382      0.63428302792202
  C   0.82869707800886      6.05738576032613     -0.47552462579983
  H   0.86833591017019      7.92357270168783      1.85202841922775
  C   0.28422593762627      4.95982822257212      0.43986310128951
  H   1.16616757232012      5.61984220816561     -1.43064043354885
  H   0.04333520359334      6.78983350699093     -0.72938310169701
  H   1.07785644599273      4.24425855823947      0.70310319569853
  H   -0.52963299546106      4.40606717224243     -0.05403183741344
  H   -0.11620363453361      5.37452198665973      1.37926844679864
  H   4.88569111205126      7.70322753167701     -0.91011226931219
  H   2.65167042131005      7.51525081834186     -1.87312564395753
  H   4.16767277479157     12.19103753417592     -1.66025560915336
  H   2.45933253642813     12.06145459381763     -2.12521687209961
  H   1.81122821397117     11.72351557471623      0.26000072577079
  H   3.52418194116624     11.88705213191632      0.76011028585410
  C   1.86715967607302     14.65112954092690     -1.50863599022637
  C   1.99158404701020     16.02321212197304     -1.12530561678134
  C   3.15431851639938     16.30279188159669     -0.44980063726215
  C   3.63081893601514     17.61711802568131      0.09225572045489
  H   2.88161663355866     18.39766326972555     -0.10912770694769
  H   4.58090632318884     17.93473671365554     -0.37037334663287
  H   3.79495065482641     17.58038544337442      1.18268398972022
  H   1.01134758552691     14.24732417658355     -2.05441093717768
  H   1.24202423471947     16.78597599660452     -1.34798913361775
  S   4.11540397934495     14.85339153344212     -0.28277145380558
