55
Coordinates from ORCA-job 2160_0.0
  C   8.05300150165443      2.10163816686844      0.10241091993847
  C   6.67370058386191      1.77620937775789      0.10837864123650
  C   9.06958806338189      1.08304910408613      0.56062176715562
  H   8.91441059107971      0.80957060757844      1.61851674291419
  H   10.09714487138876      1.46295962214860      0.46007212489902
  H   8.99608591522087      0.15073305306160     -0.02458983570241
  C   8.44108007205823      3.36959940850195     -0.32981168515654
  C   7.47351248214992      4.30293922891906     -0.74745734521546
  C   6.10261494097777      3.95402347900816     -0.72727280078378
  C   5.69941145504695      2.68120851808371     -0.30062252951295
  H   6.36511923775041      0.78163124841008      0.44436718682204
  H   4.64261204808407      2.40343384885493     -0.28719229393124
  H   9.49729128126166      3.65040997601683     -0.34860609663506
  C   7.65204970779716      5.65270285259417     -1.22480244641759
  C   6.48873606026260      6.29544827807413     -1.54284554200353
  C   6.41890086029592      7.72292154011388     -1.98306444717910
  C   7.80802410211299      8.41180285593519     -1.71423076095219
  H   5.67276351611788      8.26944272891907     -1.38362052149225
  C   5.96883292934583      7.90538650048051     -3.43992988984475
  C   8.98461526528652      7.45118527254645     -2.01093921600480
  C   7.84739859531706      9.04769864224023     -0.32860607706041
  H   7.90184898322614      9.23857758534588     -2.43356093110849
  O   8.89074687975940      6.21099187712570     -1.29053741289416
  H   9.90247788234175      7.91760763725474     -1.61979240508469
  C   9.16876314018429      7.15631465855639     -3.51008152207454
  S   5.08238778073224      5.26910523262092     -1.28493867949386
  C   10.45131463496279      6.41335436759122     -3.82031975133516
  H   9.16302662413075      8.08389383057637     -4.10377910583495
  H   8.32677133553043      6.53470145206592     -3.86492704634121
  O   11.15333536240921      6.65153749362466     -4.77094852059797
  O   5.59390196800299      9.17961640808236     -3.65047650203206
  C   5.15850458416518      9.52314181679969     -4.98252066518917
  C   4.76740650882125     10.98588554104041     -4.98721500793413
  H   4.31608130448236      8.86780382319083     -5.25672166868946
  H   5.97675566145501      9.30798709344920     -5.68912931241267
  H   3.95430821951837     11.17924442569146     -4.27020930197508
  H   4.41835907959562     11.27583352136237     -5.99072460334151
  H   5.62234207761275     11.62770690803941     -4.72251218157845
  O   5.95142429708429      7.05389071690033     -4.29286679319729
  H   10.71047584966772      5.59532920373686     -3.09894119762319
  C   8.37852894417377      8.40786864657805      0.80218321709893
  C   7.30370804303506     10.33776136941422     -0.16952007178751
  C   8.36556244602997      9.03852563924437      2.04999042437950
  C   7.82265269024637     10.32302183090742      2.20370031668497
  C   7.29029540403795     10.96504228638184      1.07150295228307
  H   6.88250900300708     10.85205520067585     -1.03894140918956
  H   8.80855644374500      7.40966373272140      0.71285073904395
  H   8.78717556032497      8.50971258841611      2.90738172201635
  H   6.87257816857259     11.96626138927464      1.19653595865315
  C   7.78206452166250     11.05203858962558      3.51887664159047
  C   8.33364332943046     10.36079671855808      4.75313666193173
  H   7.79648871571948      9.41874068574034      4.95181751705107
  H   8.22096708063204     11.03284585726002      5.61356186132994
  H   9.39864566632329     10.10763291391038      4.62308435523028
  O   7.31469772892392     12.17252464803707      3.58872582734797
