58
Coordinates from ORCA-job 2161_0.0
  C   8.19640858737776      2.21568519618180      0.24245405848637
  C   6.85307020010213      1.77119348398247      0.16365709356508
  C   9.26253576679183      1.29616139865989      0.78957505965817
  H   9.01105726966200      0.94925298042999      1.80627727015714
  H   10.24191725491109      1.79509818325150      0.83697722576634
  H   9.37473453703179      0.39493923143444      0.16237807782163
  C   8.50390779298525      3.50325357945821     -0.19675271668838
  C   7.49207405041316      4.33916827087080     -0.70565714933798
  C   6.15777960639004      3.87284385937658     -0.76731826383542
  C   5.83595238119898      2.57887973280506     -0.33521971938339
  H   6.60769053293386      0.76170919214397      0.50742382762695
  H   4.80788107839261      2.21142338046424     -0.38366165358953
  H   9.52945135720724      3.87803212047552     -0.14723153010234
  C   7.58889511776762      5.69190598625274     -1.19968826444571
  C   6.39762380746735      6.22555600419698     -1.60848387895246
  C   6.23429093255397      7.64975295337441     -2.04246290985596
  C   7.54056190132330      8.44067675643681     -1.70458618943358
  H   5.41800217465620      8.13158285983528     -1.47754717290833
  C   5.82812379598787      7.80296780203917     -3.51528942672688
  C   8.80276337560187      7.56929709060987     -1.95660296285866
  C   7.55122293579271      9.03791116751136     -0.30002502967939
  H   7.60866549644971      9.28634039307219     -2.40445708542336
  O   8.77314778566162      6.35535885300221     -1.19407619520369
  H   9.67183856134170      8.11587020082645     -1.56182980741591
  C   9.04915550506657      7.25445500257602     -3.44664501988311
  S   5.06917963543639      5.08454071804836     -1.42202627284330
  C   10.37821029421612      6.59801283048856     -3.68082521365708
  H   8.97516385350190      8.18514849381989     -4.02807361300515
  H   8.25086886640424      6.58472585317029     -3.81046241271888
  C   11.31380004603250      6.96149476779553     -4.56552900469644
  O   5.45646131117246      9.07121973564102     -3.76597571072580
  C   5.04782429489927      9.37817919219317     -5.11366487494952
  O   5.82765867168367      6.93193936049579     -4.34863677122675
  H   10.60227934675083      5.72392354459982     -3.06070875702750
  C   6.91957675867947      8.44034663286624      0.80171276995244
  C   8.23794197975050     10.24372680774721     -0.08139494225988
  C   6.97197327838970      9.03144698455898      2.06689927729205
  C   7.65949729992965     10.23430040367132      2.28689993053995
  C   8.29404263483042     10.82871393572707      1.18507196247866
  H   8.72939168133099     10.74431331786263     -0.92218415531408
  H   6.37308990204105      7.50303324040338      0.67949558146907
  H   6.45939631814348      8.54441603766018      2.90241519381000
  H   8.82922317817262     11.77440452656158      1.31620015776290
  C   7.74080361426963     10.84954770670089      3.66789604802079
  C   8.91149393460366     10.31202971508986      4.50654968966573
  H   8.83048174726640      9.22228047262257      4.64998235649934
  H   8.93479726263064     10.78459876407915      5.50226079498338
  H   9.87742664437813     10.50959044287252      4.01388850162597
  Br  11.13871837127754      8.44415953964292     -5.75134390686303
  Br  12.94949365979119      6.00657754751480     -4.74809541042747
  H   6.79499838931445     10.66408178221118      4.20548086106861
  H   7.83333880372841     11.94500905719926      3.57390753996493
  C   4.64972933160575     10.83846670906650     -5.16296211793962
  H   4.21454696100360      8.71188427099748     -5.39007736897468
  H   5.88131971574493      9.15047745935897     -5.79837622676649
  H   3.81976083545272     11.04447481158279     -4.46917504705975
  H   4.32311081484891     11.10329200350605     -6.18093861228113
  H   5.49531875764939     11.48999765497497     -4.89201788375472
