39
Coordinates from ORCA-job 2164_0.0
  C   3.91443844064174      8.51867752856758     -0.40304071674646
  C   2.41308919110736      8.49697666206850     -0.72328032188133
  C   3.96527926425943      7.64945915364533      0.91566513552873
  C   3.31947685881693      8.46128569933881      2.03222571962003
  C   2.00806566706509      8.45843706614829      1.76033321206424
  C   1.85844653095147      7.62841697844445      0.49396517261736
  H   3.85391458939862      8.99802162863920      2.81660475040666
  O   2.94321966968408      6.69387349796018      0.61307426246046
  H   4.92538108787290      7.16116568785048      1.11680037582504
  C   1.99087874247308      9.95634275475219     -0.80179862201020
  C   4.28070436370643      9.98610073983595     -0.25375368632367
  N   3.12511840783323     10.74958232221895     -0.50452200267192
  C   3.09425526487172     12.17954083830568     -0.45117694293801
  O   0.90299952072113     10.38363221273232     -1.08767533386202
  O   5.36559699524380     10.42826931508827      0.03600595912088
  C   0.50827943126737      6.96299767601705      0.25839097760532
  H   1.18445428442193      8.97837235365871      2.24832971817896
  N   0.59747652831439      5.70489636784096     -0.24689634886188
  H   4.54526286541129      8.05875246668668     -1.17727471137074
  H   2.15604391191506      7.98822885745306     -1.66305138295582
  C   2.41606961272478     12.90746767380671     -1.43899621285087
  C   2.38570392399361     14.30026378517442     -1.37631383064958
  C   3.03091287740423     15.00353733542646     -0.34594958600148
  C   3.01595988078738     16.51235448407677     -0.30906323013529
  H   3.75263086487052     16.93402958489293     -1.01586725184365
  H   3.26506564618650     16.89574781166205      0.69209372444673
  H   2.03011727139865     16.91363068593693     -0.59355290021252
  H   1.89970180262314     12.38535581229094     -2.24392524021615
  H   1.84535031329223     14.85335791748368     -2.15031765310670
  C   -0.56607173254773      4.89219591461780     -0.53307313488438
  H   -0.64752096553376      4.03596941789347      0.15913710333371
  H   -0.53748510923315      4.50469884576573     -1.56512362939512
  H   -1.45649690807778      5.52387269952043     -0.41370953083061
  O   -0.52736128216311      7.56045898767384      0.49106730480127
  H   1.52496812498034      5.29633110058726     -0.29568797808728
  C   3.73793385317477     12.86109091322033      0.58940799597511
  C   3.70507218899832     14.25604339583835      0.63136514822246
  H   4.27180471293266     12.30386947714775      1.35863479598772
  H   4.21382330821113     14.77389434973049      1.44967889164105
