40
Coordinates from ORCA-job 2165_0.0
  C   4.19649391186137      8.61801425827014     -0.36979664579276
  C   2.74228424471265      8.45671810809723     -0.93497827200027
  C   4.21022660754528      7.60405891381404      0.84068591292662
  C   3.24604862133493      8.13424560618718      1.88827291789830
  C   2.00355073172414      7.99791936488847      1.39953665841644
  C   2.10224493059670      7.36413702266964      0.01125676148195
  H   3.53639387001435      8.63814444643862      2.81269354241568
  C   3.35525998704780      6.46933035054218      0.23305649874489
  H   5.21734408061979      7.34060546051074      1.19472529862251
  C   2.12042890904998      9.87458105870822     -0.93279258611978
  C   4.31553482660201     10.08722703752302     -0.06944678560831
  C   3.19900197519566     10.77685015243996     -0.35971403773280
  C   2.93973822416030     12.24691021122388     -0.18394030596941
  C   0.83298828456510      6.72392392207029     -0.54883850695016
  H   1.07918637188728      8.36520657027868      1.85239758242930
  C   0.22294050934975      5.60494155188242      0.30460921340993
  H   4.96465067984218      8.29082613632436     -1.09383658843599
  H   2.76177560596043      8.04443043195960     -1.95622468874862
  C   -1.07837514309580      5.04729840102669     -0.27611459945157
  H   -1.84925934313684      5.83226310357267     -0.36192986501973
  H   -1.49173303029091      4.24300161390364      0.35397114182156
  H   -0.92176999575203      4.63074771123964     -1.28591222144853
  C   4.08840167205063     13.07570193642545      0.39663197228349
  C   3.74533236166644     14.56003692904106      0.53808647107389
  H   3.76575529833229      6.06157246266766     -0.70691855857761
  H   3.17716374643657      5.64591262259937      0.94136306814271
  H   2.04086393997191     12.36770845738399      0.45343506320994
  H   2.64024485146328     12.66925306725448     -1.16426530896244
  H   4.97978030523873     12.96128469320508     -0.24518858964419
  H   4.37010148050951     12.66497378141585      1.38229289181066
  H   3.49320543586286     15.00946228766411     -0.43761174310465
  H   4.58851453110846     15.13154045645271      0.95856485637369
  H   2.87747133893773     14.71069008328652      1.20262731043793
  H   5.22585359935169     10.52710458862722      0.34657402011951
  H   1.19557729775208      9.93353415766461     -0.32878517972689
  H   1.83490288311095     10.20380538108322     -1.94894476151233
  H   0.03964847021811      5.98021834636593      1.32718932729002
  H   0.95461358849988      4.78521965943062      0.41464644625419
  H   0.07419445602388      7.51645816559937     -0.69503803613799
  H   1.04987988367084      6.33129149026130     -1.55999967421918
