40
Coordinates from ORCA-job 2166_0.0
  C   3.41752014973412      9.11873501707374      1.85973147200479
  C   1.90899777061884      8.91645846222032      1.45528524394643
  C   4.08996650567522      7.77774987651886      1.37810524657508
  C   3.53433889325050      6.70127145345316      2.29830528607524
  C   2.24337494607506      6.53314891943057      1.97596883123048
  C   1.90768547488250      7.46942594945678      0.80981930171861
  H   4.06922693902554      6.25844820046644      3.14202438717806
  C   3.28683198888865      7.48546537014376      0.09320899881475
  H   5.18480336214387      7.82983892464551      1.28783336303196
  C   1.56940796538347     10.10884542798461      0.51759391795893
  C   3.83629907892063     10.36396500392996      1.12560095026208
  C   2.85068477426223     10.91046008726616      0.39466802694479
  C   2.90027986782734     12.14290481128812     -0.46482108383871
  C   0.65650502432581      7.10078195753298      0.01124934762087
  H   1.50588652207339      5.92299021118131      2.50455921056327
  C   0.67819738025544      5.70803846981354     -0.63336257317635
  H   3.56305774946726      9.23176223136815      2.94784122607043
  H   1.24291930202126      8.92174946809607      2.33065336919127
  C   -0.61819746927945      5.36727798599140     -1.37171592568012
  H   -1.48549875866933      5.38071358335793     -0.68961888428599
  H   -0.57192729158660      4.36621512557392     -1.83048303571783
  H   -0.82438439807423      6.09267025533015     -2.17732137959543
  C   4.23546804245226     12.89151231219113     -0.49734701049144
  C   4.20762373997452     14.13282419592564     -1.39133791126562
  H   3.37807443883193      8.27169752066943     -0.67355264474556
  H   3.54873966409773      6.51309632165242     -0.34987615870655
  H   2.09915216465116     12.83339960642433     -0.13304820392432
  H   2.61064087988395     11.86204548628832     -1.49739019996061
  H   5.02866210721463     12.20496231514671     -0.84245183531357
  H   4.51301647496215     13.18224236465657      0.53124316681050
  H   3.96809946809194     13.87129137543445     -2.43618652265741
  H   5.18042107458288     14.65040075166640     -1.39334659031403
  H   3.44715927432227     14.85644880819287     -1.05141847474939
  H   4.85190047367873     10.76233012019875      1.19924403446210
  H   0.75622576726513     10.73233972808825      0.93308587189027
  H   1.21126126601279      9.78809774108476     -0.47788868833565
  H   0.87348934763912      4.94488997233415      0.14081195330494
  H   1.52667967158258      5.64273513495217     -1.33684626606090
  H   -0.22021521234586      7.17176234213876      0.68366611299266
  H   0.48617557988054      7.85171711083129     -0.78006592982803
