100
Coordinates from ORCA-job 2169_0.0
  C   2.73675531247239     11.00881747390758     -1.35370230103631
  C   1.26864306138782     11.35040419506232     -1.69760744296616
  C   2.66264318817252      9.45476212998858     -1.17696202849344
  C   2.39008749350350      8.85567837123060     -2.54921212802710
  C   1.11193321650240      9.14462640370014     -2.82032521371377
  C   0.59244985126115      9.92071463156662     -1.60920715866388
  H   3.13152012120718      8.36943529075911     -3.18316874861521
  C   -0.90020233505820      9.87517752409745     -1.31912624272960
  H   0.53663907494768      8.94828835900638     -3.72484551242953
  O   -1.50165236280530      8.63650147252906     -1.66523518479176
  C   -1.68505251482477      7.61464654866547     -0.75980498944545
  H   -1.07925247362339     10.13000305063476     -0.26282943368406
  H   -1.40115289397809     10.64174436150295     -1.92867249203182
  O   -2.61112838696427      6.85590590570120     -0.90510275797521
  N   -0.76184658328735      7.55150346367308      0.24597253862969
  O   1.37918955000906      9.34548068304142     -0.54124086387115
  H   3.45673946852004      9.01941357707106     -0.55875900925023
  C   0.81933328436340     12.29937547550263     -0.59045023074176
  H   1.09737889318664     11.81943005143888     -2.67594583073436
  C   3.00701612609620     11.71270778442468     -0.02545972667741
  H   3.48821308472885     11.31637100276934     -2.09450906523177
  N   1.87058205514896     12.45776395439123      0.30917362677489
  C   -0.82310717249872      6.47340014390118      1.21935659575568
  O   -0.26495528830957     12.82431614303622     -0.47837041103805
  O   4.00774050594294     11.63727222633728      0.64199056844941
  H   0.13877672248601      8.00494672021220      0.09763230797851
  C   -0.08334988442838      6.79476724473800      2.54483367875922
  H   -0.40858338221434      5.54004631742241      0.78953570849176
  H   -1.88606345440146      6.27095913845037      1.42049229133258
  C   -0.27177720350135      5.55016888837671      3.44668475422627
  C   0.66003537046332      5.45624366397415      4.66921585067407
  H   -0.08167920856395      4.64624316287806      2.84209668320238
  H   -1.32035242455014      5.48080982486359      3.78263344468164
  C   2.13675808021600      5.57096402995841      4.21951861111787
  C   2.46644536921465      6.87392022398292      3.40328174445828
  C   1.43059667152672      6.97451815994905      2.24335650702614
  H   1.70619998920923      6.19004977407129      1.51562813572506
  H   1.59449632650610      7.93586834586590      1.72682277155636
  C   -0.72453162853556      8.05508336415173      3.16215132313102
  C   3.19020622011377      5.22319908419511      5.28985915457107
  H   2.25940568714085      4.75051634653564      3.49292097019159
  C   3.00338359806924      5.63284808504586      6.73806382177648
  H   2.76813107734755      6.70249233600999      6.83589484505656
  H   3.92094292714150      5.38740282461017      7.28975356577418
  H   2.15625783726467      5.08664981296560      7.18450133828244
  O   4.18246840048064      4.61135615903743      4.95086526522505
  H   -1.80170801428588      7.89291148707731      3.33331230103022
  H   -0.62434980688362      8.91129485353095      2.47853383164764
  H   -0.27369205728421      8.33313014155823      4.12075289846964
  C   3.85223038789719      6.73273416723995      2.73451675187805
  H   4.66549560362460      6.69079067436971      3.47259757715858
  H   4.03769632563065      7.60064329348540      2.07971849484878
  H   3.91818076832496      5.82006536899717      2.12133711411644
  C   2.51147515043730      8.14790994877604      4.27493397258650
  H   1.61217840045403      8.29200333846448      4.88455517194846
  H   2.64091324857510      9.03533131709645      3.63411525331213
  H   3.37448195958859      8.11890436874985      4.95937883210334
  N   0.28978332324964      6.39826895340665      5.70985513675281
  H   0.53583419370226      4.44362489216452      5.09444666340850
  C   -0.58789381455821      6.64557144572506      6.49543167571803
  O   -1.37490746306916      6.98322144718841      7.30020253786974
  C   1.74715491200467     13.22952293271730      1.53821506288338
  C   1.81677107289377     14.74012231539073      1.28120751429774
  H   2.56432104865216     12.92095966162463      2.20368667372427
  H   0.77648169440374     12.99330065212489      2.00114477124177
  O   1.41277906501502     15.46954081131862      2.43759458472014
  H   1.10082712565756     15.02189366631826      0.49705982708388
  H   2.83633971790143     15.03199825749864      0.98613979367311
  C   2.34188270188397     15.62133547497669      3.42451415197096
  N   1.81361765296965     16.34989974887186      4.44552743248686
  C   2.57653515659070     16.72195986123211      5.62210204020932
  C   2.12885669083383     16.02914305830633      6.94048786519005
  H   2.54640348733969     17.81894949325254      5.72767191559132
  H   3.62172748186697     16.44936813222747      5.41521086651799
  O   3.46332815254333     15.16356363239897      3.37641606275647
  H   0.87773200057504     16.71263070048099      4.30884162621217
  C   3.02590641992667     16.52630693508945      8.09924256589827
  C   0.65071757952419     16.34051471971598      7.28160026083926
  C   0.36955035283627     17.79827552035188      7.68743213806360
  H   0.34724069396010     15.68576528508020      8.11933039259898
  H   0.00405841399326     16.05288862065677      6.43366300456972
  C   1.29107602383709     18.21333471983614      8.84605444729632
  C   2.77327069060817     17.98528724909736      8.51267161582779
  H   1.03854583067124     17.62265325083533      9.74593690007938
  H   1.12803498972365     19.27369404603633      9.10515320336176
  H   4.09093322990301     16.39779583481809      7.84276413596364
  H   2.84181554879238     15.89595734815778      8.98647611576331
  C   -1.10621579254055     18.00855063055253      8.04294351777104
  H   0.59840445003760     18.45479209688001      6.82589144210533
  H   -1.76435135141032     17.74148102446168      7.19984354020555
  H   -1.31008587935309     19.05854474593768      8.30920803033497
  H   -1.39850151756344     17.38327307110345      8.90388162487918
  N   3.63579496381853     18.32570759004380      9.61997719076986
  H   3.04603545005044     18.64971279218339      7.67252850466590
  C   3.83423377270886     19.12473828888632     10.49549901087328
  O   4.12314842013259     19.83973878953417     11.38361671573767
  C   2.30838798904666     14.50881324154557      6.78795453505611
  H   1.67631132451335     14.11271354488889      5.97800295684878
  H   2.02764044296499     13.98743784059653      7.71744432873489
  H   3.35344042019680     14.25087498590232      6.55325608964545
