72
Coordinates from ORCA-job 2171-2_0.0
  C   1.21311249637100      2.49037745590284      0.16396237892677
  C   2.00941209132753      2.37296774960703     -0.98037035121876
  C   4.83328282911883      4.22412983306767      2.78131653882905
  C   3.36862658164946      4.06235881316211      2.59970257760096
  C   2.89680533308950      3.88897272817265      1.19876153644814
  C   3.72514599042236      3.79851552544251      0.12912141095683
  C   5.18629690226996      4.03516212321296      0.31589933840349
  C   5.66129849990552      4.21187818237740      1.72413278008922
  C   2.95327503622377      3.59135497785209     -1.22192370697489
  C   1.41407423439259      3.81605920756611      0.88721827577394
  O   3.66817004759102      3.54431253432649     -2.40522671199885
  C   5.67739201359368      3.24980819762807     -3.59051069459322
  O   6.61759206058772      2.24013832214776     -3.97987494664988
  C   7.56209641013891      2.60076677440397     -4.87312669565916
  C   4.67635677454508      2.57482808200379     -2.66893719662409
  H   4.25655847480621      1.69360695466196     -3.18146492703369
  H   5.17210293864942      2.23039525744404     -1.75014682119337
  C   -0.21210686024320      6.79526729448875     -1.19011998477665
  C   0.12496339854938      5.91838543305079      0.01037480238861
  C   0.79964710579732      6.79290426199855     -2.37682560386039
  C   1.16228706584852      4.87934182705218     -0.17948492061590
  C   2.05194990827842      5.92223134113992     -2.24239121354854
  C   1.98089037385271      4.80338763295180     -1.25692423285864
  H   0.78837468384962      3.95313779685492      1.77459178438346
  H   5.18191948728707      4.35575378256696      3.80904880894479
  H   6.74272706290030      4.34144867508636      1.81989590220219
  C   1.87118027785473      1.28376450327785     -1.83870352314450
  C   0.30433727476901      1.49128572648187      0.50289591215547
  C   0.18775186103845      0.37004072030928     -0.32242995761472
  C   0.95732364845426      0.27517202331091     -1.48725732648045
  H   2.43276297403752      1.20652113827593     -2.76007465436232
  H   -0.31841498152728      1.58675318334116      1.39570900663275
  O   -0.45077205138421      6.05567888025619      1.07178947313435
  O   3.05404566597378      6.19839278480130     -2.86120099337673
  O   2.59446365803638      4.07095527918357      3.54111009552444
  O   5.99362350426726      4.11132167526813     -0.59352251560637
  H   5.16682150279768      3.65908447854822     -4.47630471326621
  H   6.18860098408924      4.07531864352264     -3.07726927877761
  C   8.47027489560058      1.43814828940195     -5.19841156190584
  H   8.88453019598354      1.00736619473613     -4.27406993797663
  H   9.27880221927106      1.77667170408050     -5.85763228323250
  H   7.89174435262363      0.64392757954081     -5.69676452433539
  O   7.64366985262832      3.70787372968816     -5.34218467547703
  C   -1.57146535924712      6.39149724410931     -1.88646847068380
  C   -0.10126898309397      6.39261506012853     -3.60134834526291
  C   -1.42733752718146      7.17875088019888     -3.25342443679322
  C   -1.45535019143070      4.96146519141659     -2.38425036597323
  Cl  -2.99950786997836      6.74980165281223     -0.88908482397042
  C   -0.58000967233777      4.96202395105627     -3.40511519460314
  Cl  0.62368215706269      6.72592283307893     -5.18949889211148
  Cl  -2.18551049384011      3.60837537326671     -1.62588032849956
  Cl  0.05292475034053      3.61458674457228     -4.25135604453514
  O   -2.34748228187025      6.93538819465782     -4.24796713825291
  C   -3.70380840742688      7.32491526835058     -4.04758643665468
  H   -3.77857617564617      8.28014509721657     -3.50491313874149
  H   -4.25826079158263      6.55483688065774     -3.48836165237067
  H   -4.14528894900640      7.43491502086455     -5.04839630123993
  O   -1.28955961954805      8.52584719450125     -2.95454454546136
  C   -1.04186704766797      9.44250506440852     -4.02003381807692
  H   0.01665984057143      9.42899744985713     -4.32429024081035
  H   -1.29824863227584     10.43881644610403     -3.63371444796687
  H   -1.66310710508382      9.21684021784123     -4.89987211753751
  H   1.16320898671637      7.81182038475662     -2.56267233106445
  H   -0.34963458306167      7.81690162854961     -0.81362000130869
  H   0.88530751542218     -3.35139062722576     -3.04628000111721
  C   0.81366051693842     -2.58144507712627     -3.83055768042838
  H   -0.25512951736866     -2.44985808904583     -4.06056822745192
  O   0.70659810891349     -0.86601038235977     -2.23444523518153
  H   1.35671021573022     -2.90506819406769     -4.72648747108473
  C   1.39766181270997     -1.28345394800652     -3.33140680412588
  O   2.32986971410641     -0.70316668686502     -3.82269434292146
  H   -0.51213718618063     -0.43473207190310     -0.08924783500213
