74
Coordinates from ORCA-job 2171-3_0.0
  C   1.75273410271030      1.87518056501192      0.71049004955664
  C   2.63220218247045      1.71423404355412     -0.57018395601740
  C   4.39319491186839      5.57242179776758      2.30340025519433
  C   3.09841355308343      4.84682436929869      2.31187927964344
  C   2.75403082903597      4.10442206077301      1.06838607706347
  C   3.58313680473035      3.99918805399095      0.00035419454907
  C   4.89290166159069      4.71551727878523      0.01036471442835
  C   5.20809479255653      5.51195955337828      1.23717688628289
  C   2.98611475423769      3.18333864253370     -1.16528508995744
  C   1.43044103172367      3.41851570966597      0.92053989399995
  O   3.74664050342748      3.15162795938096     -2.32516724747328
  C   5.68160082439726      2.87079843609334     -3.61062567404213
  O   6.77388551462694      1.97009612667940     -3.82817473258920
  C   7.61383645616783      2.26847053802687     -4.84156280768931
  C   4.90420810596403      2.33887218026612     -2.42028967591364
  H   4.63756061972636      1.28206844885539     -2.59931603584385
  H   5.52701045265910      2.39450111308559     -1.51328201979217
  C   -0.96355758292581      5.24228896822010     -1.64078756215367
  C   -0.56692616674065      4.43536408877565     -0.40842602922712
  C   -0.09571900062874      5.03425433860475     -2.92078318948690
  C   0.82205269118550      3.92281368393208     -0.36410369933042
  C   1.05128517869631      4.02533967576388     -2.82450999592023
  C   1.61324122524617      3.79579166675570     -1.45956644422042
  H   0.77737685217192      3.57862847316585      1.78549162621691
  H   4.63659689970944      6.13952986227666      3.20585407761414
  H   6.17051482388543      6.02967313594694      1.20168038214957
  C   2.05745399590478      0.84428377674680     -1.66128677395786
  C   0.48126997142048      1.06831182247749      0.73246203725707
  C   0.08489939293040      0.29912892856445     -0.29054434687007
  C   0.89006844745596      0.19456366405985     -1.51123488403171
  H   2.61940879754233      0.74961907441548     -2.58435873548932
  H   -0.13038471751112      1.14592631974741      1.63596041654514
  O   -1.34747390682269      4.24944470429218      0.50397243416830
  O   1.41622904913780      3.42287374951463     -3.80881377451469
  O   2.35818651482317      4.85582665421420      3.28093270758445
  O   5.70573344850497      4.68763071830651     -0.89799219895284
  H   5.03505069559015      2.91073171286547     -4.50162438928386
  H   6.05216269054758      3.88568554577737     -3.40821181271190
  C   8.69577159352157      1.22275506381138     -4.97264366557729
  H   9.24576997971741      1.12553584711962     -4.02374470229378
  H   9.38221290165810      1.50359383098919     -5.78049623038275
  H   8.24299572685264      0.24200016820029     -5.18786361182211
  O   7.49078676003546      3.24422349581729     -5.53806770040594
  C   -0.86774052283395      6.79704010408184     -1.41039075041282
  C   0.38622800695851      6.49650180703753     -3.26474865632239
  C   -0.91997931863295      7.31541348674516     -2.90382362147572
  C   0.56948448229638      7.15169693913001     -1.06023565883277
  Cl  -2.09022134356209      7.45544641477746     -0.30067459687539
  C   1.31647957935873      6.97486274562685     -2.16393471920466
  Cl  1.01018083616508      6.63923829311158     -4.92442233469270
  Cl  1.10732212890341      7.52535281486464      0.52525466456979
  Cl  3.02170347297876      7.06977492744761     -2.31305453040840
  O   -1.95512339693918      6.83512023301897     -3.69053004069513
  C   -3.26796945306219      7.35441386187222     -3.48413847313806
  H   -3.75641867788347      6.87846452108989     -2.61898027033492
  H   -3.83670794169319      7.12617966837985     -4.39633009984727
  H   -3.25052100303733      8.44261194017119     -3.32238157637059
  O   -0.84705355680219      8.69003241878032     -2.88480579983589
  C   -0.60348951234135      9.38811286344356     -4.10309957112437
  H   -1.14065598069343      8.93278099365437     -4.94994762796346
  H   0.47244781327519      9.41315975500117     -4.33733394433703
  H   -0.96490689654633     10.41466907361660     -3.94800993934587
  H   -0.72465959430137      4.70796700209084     -3.75764776482042
  H   -2.01514107216021      5.00712391674168     -1.85203523074867
  O   2.05309444410129     -1.03633437476362     -3.80805203398092
  C   0.89382529358948     -1.18309994234293     -3.52992646035636
  H   -0.90163471499545     -1.35269405952028     -4.69381584287822
  H   -0.57645825462018     -2.75210944178772     -3.65491920649220
  O   0.27622976187260     -0.62284381107312     -2.44832499202236
  C   -0.10166715176476     -2.00544385771052     -4.30969913221711
  H   0.40856412382960     -2.49959053894337     -5.14513412646442
  H   -0.84442176964434     -0.27360545084888     -0.25147439745032
  H   3.60745029724266      1.29089376240975     -0.27989844489867
  H   2.34416655805701      1.58368808638857      1.59331713267516
