72
Coordinates from ORCA-job 2171_0.0
  C   1.11881447767012      2.03195119628959      0.11703093352189
  C   1.90539836884115      1.89701920913689     -1.03464234885649
  C   4.65307524114836      4.17766901096206      2.54986671987619
  C   3.20163196976432      3.90114806589479      2.40699094077378
  C   2.72295985520584      3.60432731302486      1.02877127919027
  C   3.54035544866624      3.50137561999657     -0.04782714931454
  C   4.98134664610460      3.86398465068333      0.09424967403380
  C   5.46382566514795      4.15900059023724      1.47941921270897
  C   2.76682915098145      3.15301968226356     -1.36677350111002
  C   1.24472657844172      3.41326108892207      0.75113383260338
  O   3.46659783061810      3.06386485970623     -2.55773338111709
  C   5.48668195635264      2.82367927689692     -3.73951057872498
  O   6.51133129693956      1.86810397779727     -4.03937977071699
  C   7.44097078873867      2.23982073939434     -4.94451071435457
  C   4.54800119019638      2.15585018346618     -2.74984026422413
  H   4.19591788134654      1.19876368016407     -3.16925007635636
  H   5.07522822579675      1.93448764598384     -1.81167351074560
  C   -0.67206926420653      6.02425846669663     -1.54782684999555
  C   -0.22385449238034      5.33152002864257     -0.26080954024889
  C   0.30350925987391      5.97310962374334     -2.77281347662743
  C   0.90508411854457      4.38129966350488     -0.38111267948902
  C   1.67022790920393      5.32153731917494     -2.53901886982944
  C   1.70849548597108      4.28433759824526     -1.46633735895545
  H   0.62423502542710      3.56667601657232      1.63959009562009
  H   5.00669425798681      4.39870577188083      3.56035815480042
  H   6.53395875382321      4.37284623507912      1.54560572370649
  C   1.81016489056556      0.75890930387363     -1.82965804489241
  C   0.27557926356634      1.00339663486859      0.52640216272466
  C   0.21175054645061     -0.16976766837594     -0.23521070522545
  C   0.96456928905197     -0.27945221778517     -1.40635513176865
  H   2.36293805416391      0.66889432069793     -2.75765068660692
  H   -0.33850574976659      1.11269752297993      1.42375359101877
  O   -0.82000683297581      5.47356559476948      0.78703356912166
  O   2.65474632045821      5.64986954173265     -3.15796561653713
  O   2.44193394037197      3.91487575110054      3.35985653637537
  O   5.76287523777022      3.95274485646471     -0.83601377865101
  H   4.94440045059879      3.10285299595731     -4.65676744144931
  H   5.92229899313659      3.73525228293438     -3.30898985655541
  C   8.45685651393829      1.14261682510703     -5.15779663435256
  H   8.93051268466206      0.87487841851895     -4.20065520800251
  H   9.21577853744221      1.47949651893556     -5.87427106985647
  H   7.95687505482265      0.23747652229629     -5.53710384090536
  O   7.43562992774632      3.31005344840170     -5.49851960286323
  C   -0.97806797323359      7.55101306543229     -1.42589499794256
  C   0.38149438510209      7.47089118079046     -3.23180312278128
  C   -1.10099640816321      7.94055836132964     -2.95242686714296
  C   0.31182991922695      8.28439136103362     -1.07129288005211
  Cl  -2.38272110062442      7.97128308490687     -0.41890243477026
  C   1.11585320439138      8.25464594570419     -2.15082814280337
  Cl  0.96620827435323      7.67303855100551     -4.90067246964676
  Cl  0.65797884061386      8.92873669681160      0.47846342521310
  Cl  2.70006917458133      8.88479532627136     -2.29824659448428
  O   -1.94731646399660      7.15217107381474     -3.72407836912691
  C   -3.35637423010844      7.33221139431221     -3.59662605938675
  H   -3.75179966738615      6.80460486884771     -2.71378536711594
  H   -3.80525496708450      6.90889990903203     -4.50627573795995
  H   -3.62267710473392      8.39658427398918     -3.51478053183821
  O   -1.39175812906485      9.28340951638835     -3.03084267550220
  C   -1.29295163150699      9.94912746800453     -4.28632572012465
  H   -1.66085304810950      9.32108683976553     -5.11295300996925
  H   -0.25322012253364     10.24303315356287     -4.49914832033428
  H   -1.91568507115295     10.85160172891832     -4.20515058662166
  H   -0.17416986347747      5.40284027904793     -3.58518304345354
  H   -1.61488585434246      5.52612514971051     -1.82322398268819
  O   2.89852224076304     -1.67825661490943     -2.88572870992173
  C   1.76337158653116     -2.06677306360897     -2.83441068850253
  H   2.01094049196148     -3.78533019142227     -4.08399364562775
  H   0.36906455221744     -3.04166101588848     -4.14749590199541
  O   0.76381399622928     -1.43557485512558     -2.14517458270636
  C   1.21829605016831     -3.30476401642469     -3.49822767313896
  H   0.83945447113241     -4.00170895566882     -2.73417414840888
  H   -0.43746629996084     -0.99825868246879      0.05462810109101
