128
Coordinates from ORCA-job 2173_0.0
  C   -0.86266175656667      0.59030082268249     -0.33514868973650
  C   0.38697750129736     -0.11531347173583      0.34432092615280
  C   -0.15457739380866     -1.11376950766128      1.36755256666660
  C   -1.40772754574606      1.43416019853066      0.82213777242320
  C   -0.38001414303511      1.07058352166681      1.96957390726102
  C   -0.63066431013682     -0.37484072033198      2.37767226396945
  C   -1.99967708901096     -0.32249535635392     -0.75234865019031
  H   -0.52068339508769      1.17655875782824     -1.20100090928077
  N   -3.11421373536323     -0.02857558417784      0.05810996954484
  C   -2.84415553902651      0.97656898082886      1.01435779718794
  H   -1.38832028536073      2.51832398446577      0.64058959229860
  O   -1.96244419390502     -1.16694617289334     -1.61502401479643
  O   -3.63008131883315      1.38539565743817      1.83238469226487
  O   0.81553891990020      0.96372826361769      1.19395932808911
  C   1.44486364495251     -0.58383166185933     -0.64000507826979
  C   -4.37086731792604     -0.70596599208550     -0.04216590525538
  O   2.45189400625344     -1.38936664470464     -0.08531028820737
  H   -0.19609029361118     -2.19460184197211      1.23528653111253
  H   -1.17072957325228     -0.70078983044580      3.26731087630147
  H   0.93531079319824     -1.19041344744117     -1.40600252414654
  H   1.87340223100065      0.30779638203645     -1.14058230246552
  H   -0.28296058613597      1.82288107740920      2.76056483110431
  C   -5.56939887627976      0.02034973671973      0.02999566789386
  C   -4.41769486509063     -2.09283210320914     -0.21698385316621
  C   -5.65046318005689     -2.74382358086776     -0.32401067854211
  C   -6.85924952437404     -2.03823313025072     -0.25057302235868
  C   -6.78849973032829     -0.64518931824478     -0.06886536004775
  H   -5.54585690409318      1.10015506160533      0.17534594433736
  H   -3.49351961243594     -2.66557930667176     -0.28608205055522
  H   -5.65397271089325     -3.82602167027406     -0.46622873131570
  H   -7.71437237888568     -0.06496992616024     -0.00645886938552
  C   -8.21981394655479     -2.70524865107760     -0.35810741636440
  C   -8.22829686578008     -4.21816813963171     -0.57206741503754
  H   -8.77607612428167     -2.21892079597732     -1.18030332433670
  H   -8.79352298740971     -2.46464513150106      0.55578086937857
  H   -7.71207974875839     -4.50313862519466     -1.50328172849999
  H   -9.26258677588160     -4.59029010834606     -0.64065664650298
  H   -7.73965826613918     -4.75269304858729      0.25893247142968
  C   3.43862997268878     -0.71602368518415      0.68531521901304
  C   4.63362942824860     -1.64748985952286      0.86717569967155
  H   3.02417758048998     -0.41046195640294      1.66266561272767
  H   3.76529341614802      0.20029594956481      0.15579761241183
  C   5.65002947604525     -1.07895134593681      1.85141720871918
  O   5.29346808346258     -1.85444779700971     -0.36783549471051
  H   4.26697025474857     -2.60540633611826      1.27693520567943
  O   6.47668532421646     -2.13561922403790      2.29801066777965
  H   5.13958930739904     -0.60946193395979      2.71644992609654
  H   6.24304971402532     -0.30727658699621      1.33120735954737
  C   7.60373495673985     -1.77934875750668      3.04061289927450
  C   8.00834528048439     -3.01371691816381      3.84608840115097
  O   7.07185999105102     -3.17792088093709      4.88870233858307
  C   6.96168500423539     -4.44503647461844      5.52317503304527
  C   8.27038128042842     -4.84162765139369      6.21736128809717
  O   7.99093939691743     -5.90060453443380      7.10586072268537
  H   8.66108479283447     -3.96060682830392      6.76535853441651
  H   9.03666399113123     -5.13713074328694      5.47191329111002
  C   9.09016645371292     -6.38730945061966      7.86323189388133
  C   8.49775675599576     -6.73277066989600      9.22982703432847
  O   9.47687346709172     -7.24424412797387     10.09395941339991
  H   7.67077374194563     -7.46076344492529      9.08037559228896
  H   8.03865282519624     -5.81226534929029      9.64681039979754
  C   9.00368742719284     -7.49937720102828     11.39783017251385
  C   10.15102641901739     -7.99000727229821     12.26203161255439
  H   8.18609483084768     -8.25187658445063     11.37138120625855
  H   8.56437376806316     -6.57476222969822     11.83046387584459
  H   10.56664246884614     -8.93074510903981     11.86771088784347
  H   9.80716985417857     -8.16951387392759     13.29317223651941
  H   10.96011537367561     -7.24325013206126     12.28862324542783
  C   9.76189302527858     -7.56088728970283      7.13456846331942
  H   9.85874649699669     -5.60189742593462      7.99335864121603
  O   11.09292342411250     -7.65866568268120      7.57204579149699
  H   9.70880534977563     -7.36116784782716      6.04518339693175
  H   9.18199558038132     -8.48474522640345      7.31964808709480
  C   11.80190981180296     -8.89801482107992      7.42048115658357
  C   11.17356995699601     -9.99089283761012      8.30182551509488
  H   11.04623119549388     -9.61099180963585      9.32619826738600
  H   11.81560368135346    -10.88574394745971      8.32625886532657
  H   10.18636856324045    -10.30743845893012      7.92974871433885
  C   11.84356020590141     -9.33201374995013      5.94661842325037
  H   10.84027591478713     -9.58009110072929      5.56520931921952
  H   12.47366531366441    -10.22726109812390      5.82429299517842
  H   12.26206773526528     -8.52834110536418      5.31988229875471
  C   13.21200680957760     -8.56630024050788      7.91934809921994
  H   13.16789066377434     -8.21956156184110      8.96305072222192
  H   13.64814374521719     -7.75884485430029      7.31109619498600
  H   13.87126758656080     -9.44668300666944      7.86448666412638
  H   5.14791067314967     -4.25055584268585      3.43649658021136
  H   5.25412506021228     -6.50083287768364      2.28278096912400
  C   5.05170253230625     -5.19268053887236      3.99785160382741
  C   3.20101400700020     -5.95579713432414      2.42638913078677
  C   1.91147743068457     -4.71111616605821      1.13656435837724
  C   1.95847495941426     -6.53162776455691      2.43944111608196
  C   4.50504972337698     -6.29205819388845      3.07009956119188
  C   1.11981904594769     -5.72287934753097      1.59704290704842
  O   3.17118241564553     -4.84471886012466      1.63412741995164
  C   6.40981768412796     -5.54534447385915      4.60853250668451
  H   1.75370420095501     -3.84933335887535      0.49230935102747
  H   1.67658261894090     -7.43173366486379      2.98272028240213
  H   0.06758534948587     -5.87915657235900      1.36604775544646
  H   4.32090539642348     -5.00263321979631      4.80436160767623
  H   4.37295634098200     -7.23384242692891      3.62806697186842
  H   6.22717458036861     -4.27366034004460      6.32851430276077
  H   9.02971375526923     -2.86229224335734      4.23965322706340
  H   8.03439969187456     -3.87009732508649      3.14891271255014
  O   8.64747408281344     -1.40756246734577      2.17110095593541
  H   7.35492678514549     -0.96056730313922      3.74604793959763
  C   9.44805153679739     -0.22845521479595      2.40478125229451
  C   10.16080533011594     -0.29372187064676      3.76572701731431
  H   9.44736234190638     -0.28796513802693      4.60509818806023
  H   10.82440713357382      0.57649047964950      3.89179278362743
  H   10.77615184046389     -1.20405144805031      3.83900632188385
  C   10.47550028434317     -0.26851314488808      1.26949429089480
  H   11.06878702556952     -1.19382599128973      1.32797744256427
  H   11.15874659368552      0.59373074522155      1.32251147824288
  H   9.96260527151380     -0.25492238611487      0.29584373526841
  C   8.59926316046925      1.04885105674534      2.30185596019901
  H   7.81866612342552      1.08878581389301      3.07760000361131
  H   8.11386667955333      1.11136941590718      1.31595845714443
  H   9.23316804142877      1.94072345071312      2.42845352585098
  C   5.06388564968931     -3.09074398677882     -1.01780995960201
  C   5.94956945233789     -3.15035966575035     -2.24907677288198
  H   3.99910577817622     -3.18819087494698     -1.30253422829029
  H   5.29665966465908     -3.92953317906682     -0.33322594736754
  H   5.71053453079777     -2.32617671182048     -2.94015580926717
  H   5.80749059963558     -4.10392544534057     -2.78281354664877
  H   7.01014819846321     -3.06059131612214     -1.96541429255710
  H   7.13729464537224     -5.76527277645055      3.80541437296472
  H   6.34152196410477     -6.46494729362140      5.21368520642078
