46
Coordinates from ORCA-job 2175-2_0.0
  C   2.81952191361293     -7.34035505477423     -0.82665443458773
  C   4.01467873509768     -7.76113314724781     -1.67975206130255
  C   4.01740537346037     -7.03133968613879     -3.03427476353543
  H   4.00438961071749     -8.85129442015119     -1.84370523626045
  H   4.95078462649290     -7.55783443849501     -1.13023335939036
  C   3.41935420022207     -5.59732943355756     -2.95984257766063
  H   3.43955959082266     -7.60090050714538     -3.77503234465182
  H   5.04446954778173     -6.98942725486704     -3.41911193137252
  C   3.64156351404155     -4.96308325868500     -1.53994179545189
  C   2.80313354309991     -5.81668568808223     -0.54332674733487
  H   1.75903428692604     -5.47933448595678     -0.59359055438247
  H   3.12484980874932     -5.61381130162783      0.48870096486623
  H   2.80006405783792     -7.89657348265009      0.12510649987486
  H   1.89482458548149     -7.62412677626418     -1.35871418849346
  C   3.82846502054650     -4.66598128131943     -4.08922817281725
  H   2.32012808684461     -5.70070710510411     -3.04257464833203
  C   3.28579195174967     -3.40321858729076     -1.47410864154408
  C   5.15744290005869     -4.97660281582828     -1.21335208263874
  C   2.75885628615514     -2.81505447960161     -2.81172912554379
  C   2.35637645986639     -2.95953421091939     -0.31523921551226
  H   4.24477578689971     -2.88132367926884     -1.31377002024935
  C   3.49071039919801     -3.36737565763258     -3.99922095486999
  C   1.80402360261773     -1.52367939562476     -0.49159084063726
  H   2.90834764123267     -3.03395596581578      0.63669716774518
  H   1.50080119273032     -3.64173747230019     -0.21923493863969
  C   2.71173305236330     -0.66338823202231     -1.37045325889289
  H   1.65584495450748     -1.05717308293253      0.49603014889998
  H   0.80338552250191     -1.56647372108302     -0.95728402058067
  C   2.82193310518840     -1.26143734104074     -2.78532641371869
  H   3.71193465638573     -0.59803861758176     -0.90727685006149
  H   2.33653401421838      0.37174627525517     -1.42481019745326
  H   3.76705345551904     -0.93130116576638     -3.24893273288148
  H   2.01360652079604     -0.86746082050110     -3.42497516002349
  H   1.69534954799957     -3.12017857778678     -2.89645980498395
  C   5.59440762345398     -4.85925792217368      0.24120800023047
  H   4.98760343343402     -4.13802313440857      0.80943913876098
  H   6.65277441015569     -4.56711136672407      0.26788375521759
  H   5.48955002548937     -5.83542170441467      0.74293482784301
  O   5.99330646676184     -5.01676806962597     -2.09140042748023
  H   3.72093395324913     -2.67357951931995     -4.81324591332117
  C   4.43601696981893     -5.19510874221645     -5.35713514673269
  C   5.47940356678837     -4.34405823946758     -6.05959529733964
  H   5.11202532581712     -3.33034107069286     -6.28221554747448
  H   5.77698529531628     -4.83976437848177     -6.99332664600287
  H   6.35391569039763     -4.23187820033712     -5.39708189886560
  O   4.11412968759409     -6.28131278232869     -5.80123255241691
