49
Coordinates from ORCA-job 2176_0.0
  C   2.66347452839621      7.13872642714402     -3.16947533677480
  C   2.99977090249125      5.97239707675440     -2.18428745237377
  C   1.89941218317720      5.83283328294686     -1.15051256992292
  C   1.18159137740607      7.14163543341382     -3.61062783349618
  C   0.35600654906625      5.93691433034047     -3.05892062644533
  C   0.60166107773440      5.81774235999923     -1.55564735923155
  C   2.90168595966014      8.51474086419278     -2.54618486972630
  N   1.68737316543350      9.21875386213398     -2.54480288337213
  C   0.64300338888524      8.50109927548840     -3.15442641990263
  O   3.95360499189907      8.93598285872393     -2.13464498710460
  O   -0.48033973656127      8.91591813952405     -3.29892484033802
  H   0.81664138929451      5.04576684028716     -3.52816266376559
  C   -1.12033017870852      5.94419714603343     -3.46378240653260
  H   3.34776679507941      7.05603618653059     -4.02839333411646
  H   1.09762022933921      7.12572792595095     -4.70970613336792
  H   -1.66331216016653      6.79204741819996     -3.02685929046499
  H   -1.60606387720037      5.01179171096733     -3.13817063339822
  H   -1.21598108442162      6.01455463021144     -4.55845174416332
  C   4.31334860813531      6.04486727099918     -1.45912229845375
  H   2.98570758831633      5.05673656171718     -2.81116742203111
  C   4.19320920251546      5.92094424879538     -0.12910826475443
  S   2.51766489901223      5.73892685376774      0.48778027849019
  C   -0.47837823182619      5.70010870747512     -0.63203259290586
  N   -1.35891577493019      5.60472461514474      0.12258394892969
  H   5.26616550664186      6.16707488322912     -1.96544255787077
  O   5.10558586128510      5.91004212490947      0.88203343218283
  C   6.46785982107712      5.87993220723738      0.66814755169713
  O   6.96691725576215      5.85204108481829     -0.42015532243113
  C   7.18413575581258      5.89072849955717      1.99098167533631
  H   6.84644465978062      5.04701850542126      2.61238031337451
  H   6.94132666100012      6.81582971274182      2.53731316944855
  H   8.26539052969165      5.82922545576503      1.82001921810013
  C   1.53070153783300     10.53901623159669     -2.01474111056067
  C   2.49034820665684     11.52478767182415     -2.27035013066588
  C   2.34602897903323     12.81714925929096     -1.75756397320200
  C   1.21705725569947     13.12105091303594     -0.98614993800206
  C   0.25378341021406     12.13682267069659     -0.72786646345906
  C   0.40802775967616     10.85007285964694     -1.23369663265217
  H   3.37181716572503     11.28690738913841     -2.86520495438203
  H   3.09555638504855     13.57682223761872     -1.96000125255863
  H   -0.61539884531704     12.39829207297296     -0.12127835224096
  H   -0.34864172840271     10.09281518011324     -1.03080330545817
  O   0.93250980627491     14.34875908073193     -0.41115440801118
  C   1.65472788673868     15.49577185754386     -0.55318110017693
  C   0.99121268970160     16.60631738083160      0.22295698433150
  H   -0.03151701991769     16.76774296690197     -0.15218154956177
  H   1.57991590073410     17.52565600900213      0.11964364629017
  H   0.90750065642538     16.32652338785374      1.28468634880596
  O   2.66326211079794     15.60062633077785     -1.19897355311101
