54
Coordinates from ORCA-job 2179_0.0
  C   1.45157719933765      1.32532155839949     -0.11674941409639
  C   2.41278585219380      1.33210172519581     -1.14602707877137
  C   4.02208104363563      4.37494483570515      2.36759642197848
  C   2.75494938148711      3.83717176241476      2.11152639012280
  C   2.46290609774509      3.32599021573266      0.84714480776847
  C   3.42550830720939      3.35627288226284     -0.18157351168160
  C   4.68804916997703      3.89752337025506      0.08032159343119
  C   4.98330360075531      4.40030120466498      1.35475335001226
  C   2.93182405404818      2.73915457117580     -1.49521308340043
  C   1.15085325277982      2.70107655928671      0.43017324896253
  O   4.56653965541545      3.90315960740631     -2.90417296924615
  C   5.38133792209513      3.96171900555510     -3.98171538028560
  C   5.91247503819115      5.36135506237104     -4.17312429280179
  H   1.99743556133405      3.80892425657678      2.90040902350031
  O   5.63110821815251      3.00623648498361     -4.67306164476177
  H   6.60712676448607      5.60773306309199     -3.35376760808365
  H   5.08699966427555      6.08759121065156     -4.13018062990997
  H   6.44297072531168      5.42544222235390     -5.13115696440017
  C   3.98405765957445      2.63109292220636     -2.59844767045063
  C   0.57275547878177      6.06627293820880     -0.86474732172992
  C   0.18211921493759      4.92795173514438     -0.27500132286244
  C   2.36056012000712      8.29589436313463     -4.79170883323205
  C   1.66003738758838      7.39194589675689     -2.71092164449771
  C   1.41074341762253      6.05087698306250     -2.07436987728782
  C   0.57871769819158      3.55700960008953     -0.76142961275177
  O   2.42178483064403      7.26548452729798     -3.91527427307990
  C   1.87670890616883      4.89027103078109     -2.56562056992290
  C   1.60868473383770      3.53789213478017     -1.94921713241922
  H   2.46149408252115      4.90831996534962     -3.48311280842654
  H   0.42666990335164      2.66684423166556      1.25745262180610
  H   -0.34330336462649      3.04394068825103     -1.08770443060496
  H   1.18846569861694      2.90860449978356     -2.75174704459193
  H   4.25849790085285      4.76964998485405      3.35944639091178
  H   5.97484080182803      4.81644440964902      1.55311123270070
  C   2.77068502342666      0.12502187733581     -1.75553915262180
  C   0.86090924490629      0.13207805222107      0.29821723871845
  C   1.23019405040568     -1.07468676519913     -0.30999733102323
  C   2.18129032571644     -1.07495588026580     -1.33196050497190
  H   2.47286624947176     -2.01509085024575     -1.80774545127912
  H   3.50824591688415      0.09056328371989     -2.55932983909776
  H   0.11588575140433      0.14092065550884      1.09938508086223
  H   0.77595282244301     -2.01380162319861      0.01696557872145
  H   0.24667241451527      7.03214774995722     -0.46516524699307
  H   -0.46429008143681      4.96143331870081      0.60874192833170
  H   0.70864812143370      7.90271640497927     -2.93664552273080
  H   2.20415526343006      8.05307932749977     -2.01015811689927
  C   3.19882766952596      8.02155974595157     -6.01697581965044
  H   4.26750628603923      8.06603716688686     -5.75154573683978
  H   2.98607123812033      8.78004062186058     -6.78019694699344
  H   2.99779043754766      7.01348852852540     -6.40872495884747
  O   1.72100790317472      9.29723857162382     -4.59284677358797
  H   4.78854400764740      1.94547915486351     -2.28707376258239
  H   3.54303084107884      2.21189044494702     -3.51638966913224
  H   5.44554053593637      3.94012470522877     -0.70173495528093
