72
Coordinates from ORCA-job 2180_0.0
  C   1.55761741092908      0.06239649355530     -0.92012163231719
  C   2.78735721627568      0.35572738428646     -1.54452859186662
  C   3.01212071474728      1.79185527217501     -1.94321420675018
  C   0.61171537035281      1.21365052402350     -0.70448519208335
  C   -0.03782827231823      4.55150096818102     -2.01011486082993
  C   -0.38892540162748      3.30421785770550     -1.66814684863728
  C   1.48738779686699      6.25082391390893     -3.11275723404448
  C   1.20508820205776      4.82281253669522     -2.75120555917870
  C   0.42398004904851      2.07183196721647     -1.98919744245047
  C   2.74793124744538      6.58895284323831     -3.89311904662477
  C   2.03304941349436      3.80560050681117     -3.07440659912286
  C   1.78729865202523      2.36145302370434     -2.71921415522749
  H   2.96316825555556      4.00120852105305     -3.61703132950001
  C   3.71462186745030     -0.66284647072670     -1.76695318706716
  C   1.29976049275173     -1.25395570866234     -0.53701500026583
  C   2.24245113041377     -2.26745137243993     -0.75807949708244
  C   3.46947998500517     -1.99598202627277     -1.38097299946135
  H   4.66418177518823     -0.41075384942831     -2.24738426334375
  H   0.34980768842468     -1.50214752710848     -0.05354999343898
  H   -0.65790896684460      5.41325206234641     -1.75720043917716
  H   -1.31959498157277      3.13426985653594     -1.11489904513066
  H   -0.36981231210117      0.85810071121527     -0.35236290563098
  H   1.00800758128943      1.86895113728868      0.09387450061966
  H   3.17133462058934      2.40924733861256     -1.03970088481315
  H   3.92277518426197      1.89399678313395     -2.55493019390473
  H   1.77212912772832      1.80958846484653     -3.67683486476348
  H   -0.18620214491274      1.45388722875342     -2.67286122971054
  H   1.98891064383066     -3.27855671585249     -0.44110443157266
  C   4.53085066643482     -3.08170454531933     -1.71529916073280
  C   5.91049581992550     -2.53611721055775     -1.27256141070347
  C   6.07419751131801     -2.08441779966338      0.05153973922281
  C   7.02765906527967     -2.46618768486954     -2.11957519352017
  C   8.26080973549397     -1.98362861942554     -1.66047267919017
  C   8.40586280173525     -1.55480506754752     -0.34097252566172
  C   7.29950632916007     -1.60557395252040      0.51499380726269
  H   5.21977743762872     -2.10022591715717      0.73296300617823
  H   6.95807004542616     -2.79650998406199     -3.15614202098410
  H   9.11165487336422     -1.94501091636795     -2.34666749266011
  H   9.36764057986779     -1.17872102932759      0.01799390631508
  H   7.39101702129032     -1.26619499759280      1.55064070430901
  C   4.49153390178607     -3.31274825455877     -3.26178641902272
  C   3.16020109644862     -3.78778970595747     -3.88077057710559
  H   5.27328555649058     -4.03882935811152     -3.51696251611870
  H   4.79170834498199     -2.37358011376017     -3.75626820211077
  C   2.26732469642618     -2.68718850650916     -4.46345207858952
  H   2.55764536884512     -4.36686605024520     -3.16341143677867
  H   3.39267055191656     -4.49393119361144     -4.69926081718110
  N   1.05521199220909     -3.26819442769317     -5.03339332126225
  H   2.86935330186576     -2.08871243940097     -5.18552276890996
  H   1.96786526158489     -1.99005861761221     -3.66557370768667
  H   1.28241886596907     -3.82851376340579     -5.85690804019791
  H   0.42276127473943     -2.53587646068685     -5.35577487016522
  C   4.20983018227586     -4.39655839622393     -0.92496844853402
  C   5.12097653316036     -5.65990319184418     -0.91057683146794
  H   3.22094776239647     -4.74531294431695     -1.26207502735747
  H   4.06965699022076     -4.10880402753129      0.12997448643052
  C   5.29897017518630     -6.36169370110835     -2.27521905409352
  C   5.69704998938724     -7.83828322575907     -2.17576255105996
  H   6.05798023889742     -5.82934563861347     -2.87470685430809
  H   4.35491301956048     -6.29118076860255     -2.84183525520962
  H   6.67658436155470     -7.97411675201197     -1.69001777077240
  H   5.76263075201734     -8.29867162043146     -3.17509682543254
  H   4.95672540478333     -8.41396691320992     -1.59395835689598
  C   6.45673832787977     -5.49547681530029     -0.16776164111072
  H   4.52357933493100     -6.36419020528144     -0.29865310608801
  H   6.91578641135852     -6.47801324006583      0.02645163135246
  H   6.31464775568170     -5.00299111104689      0.80684058440523
  H   7.18222479435026     -4.89569985543461     -0.73652596271345
  H   2.76155471474470      6.07442354039621     -4.86755431690023
  H   3.65249297255547      6.28017570867136     -3.34491007153437
  H   2.77514721974112      7.67415265380153     -4.05554713563497
  O   0.70959861277375      7.12819139508092     -2.78505628440441
