33
Coordinates from ORCA-job 2181_0.0
  C   4.88681986788724      9.79561494487520      2.71176167065642
  C   4.07695951243767      8.56382745844371      2.13717812224848
  C   4.70062927555730      9.57663077797967      4.25148911526282
  C   3.85179820842560      8.24943492179936      4.23546725605566
  C   2.45305998228459      8.63225024117220      3.74886936526908
  C   2.60158708867207      8.84098722993825      2.43782086581538
  C   5.38410380235395      9.08408261754906      0.01096658215135
  C   6.30284861079611      9.82515081930928      2.16396706826016
  O   6.36410846027041      9.67313380263329      0.78787721719328
  O   5.35437316573078      9.30814542556465     -1.16028158773787
  O   7.31438535087882     10.05644369205177      2.75167740724553
  H   4.43356817292550     10.74781815710878      2.39189695687646
  C   4.48344426288647      8.11181773765212      0.74186025547957
  H   3.62119822148688      7.89709798205933      0.09757046444530
  H   5.05447056873304      7.17444347563353      0.85519402154120
  H   4.16261338458683     10.41155070129781      4.71228843456975
  O   5.88962891361323      9.32767560974278      4.96946277599681
  O   4.39246945612316      7.57135057196355      3.11821535709609
  O   3.98296776776052      7.41157681603488      5.34283951373204
  C   3.58169930939620      7.87520203633111      6.55585767414541
  C   3.88252153375294      6.87197366409263      7.63620110812208
  O   3.05950682728202      8.95017594853882      6.70448283563458
  H   4.97383904668162      6.75471600003331      7.72997904192791
  H   3.47138305186023      5.88721083365577      7.36736389747703
  H   3.46123031721909      7.21897629464406      8.58717399198736
  H   1.59107713873305      8.80728474928592      4.39018761264467
  C   6.54095801185888     10.41863334119252      5.47463762940187
  C   7.85046898923223     10.01484361433104      6.09214073966796
  H   8.22757054396576     10.82710286582266      6.72557236808672
  H   8.56356832768771      9.82837052897964      5.27316703698109
  H   7.74648038986991      9.08410933962062      6.66795512972350
  O   6.10004731363610     11.53392966812202      5.39733943079489
  H   1.87698512541391      9.22575813254031      1.71819064124725
