63
Coordinates from ORCA-job 2184_0.0
  C   5.00798967835894      9.48398085459611      2.95647427154898
  C   3.56878756661193      9.09153076910426      2.55751088745030
  C   4.99468604145180      9.18571674299075      4.49717073631647
  C   4.06568508752335     10.20531131054413      5.13694061899090
  C   2.85274236382687      9.87395387865973      4.68309194751131
  N   2.90813167775560      8.68685682678112      3.85685847664193
  N   4.07720216651265      8.01073908117681      4.43784536328128
  C   2.97614621455034     10.33413156262000      1.89430657333687
  C   5.17006850835666     10.93519369627377      2.53391231607908
  N   3.96793474299483     11.34278042699650      1.90714860153633
  C   3.77203317034005     12.64656164215144      1.34903225387646
  O   1.87321670304637     10.44080147396660      1.42901514022735
  O   6.14440782594447     11.62421484835727      2.69110643259766
  H   5.78063533167811      8.87119017967565      2.47120531975806
  H   3.50172287958796      8.23678164258367      1.87264249824692
  C   4.81624270481133     13.26991449704132      0.65076779122240
  H   5.97235822975461      8.99898026034151      4.94764594167078
  C   2.53833332277712     13.30164304504054      1.49858876639812
  C   4.62678021017665     14.54252447293434      0.11270370481582
  C   3.39911070256596     15.20903213460171      0.25271327364647
  C   2.36108337358175     14.56804894505738      0.94930863836562
  H   1.71851960296081     12.81590007405887      2.02642133734895
  H   5.77767356471882     12.77077524089236      0.54014880177788
  H   5.45518697285685     15.00975178203460     -0.42297208035489
  H   1.40923896907491     15.09309541922020      1.05167904596735
  C   3.81935261780144      7.22138416724795      5.58683620496110
  C   2.52797899523469      6.73400418928301      5.85254799503127
  C   2.30944779911807      5.90191937585589      6.95325462293806
  C   3.35970397791327      5.54648532541983      7.80403906295314
  C   4.64366812399039      6.03198379562801      7.53804047238766
  C   4.87830459833144      6.86173006113119      6.43999752264474
  H   5.89248660763489      7.21474646674535      6.24260298642563
  H   3.18087929923490      4.89811969324548      8.66500247589441
  H   5.47853360812217      5.76362004529883      8.19091076581061
  H   1.70714045893200      7.00805957219595      5.18971063436207
  H   1.29878677703267      5.53210722457213      7.14623423182799
  C   3.96243445639267     11.43498684199106      5.97027692570217
  C   1.81930356296495     10.83698090070661      5.17162059905402
  O   4.82762712313923     12.04801719835359      6.53847475142153
  O   0.63355595012078     10.85917969671503      4.97817174298177
  N   2.56914073100232     11.75557297888216      5.96520870411167
  C   1.99262369653408     12.83726939233128      6.69116900980254
  C   0.94655404101580     13.58782696256279      6.12703859588487
  C   0.37877268008924     14.63337129684829      6.84763546925265
  C   0.84281572535778     14.96653671447882      8.13147686909936
  C   1.89520568100758     14.21534424471210      8.67959987082361
  C   2.46291437487080     13.15433278424467      7.97483179371332
  H   2.28191732540363     14.44449625908982      9.67453410399237
  H   3.27660708214894     12.58088780278963      8.41689947733723
  H   0.57372259078659     13.34405343255170      5.13300757454944
  H   -0.43767338356113     15.22356309108048      6.42664976869693
  C   0.18343186417651     16.11129727193422      8.85049069866158
  C   0.69267633796657     16.49718492951231     10.22808181247818
  H   0.59781764683109     15.65577633432500     10.93417715464608
  H   0.10415449517636     17.34781616584971     10.59508300758329
  H   1.75855079102838     16.77631492952287     10.19306718375659
  O   -0.73954884729567     16.71255742637993      8.33615383656206
  C   3.13771253826491     16.58282956729144     -0.30760671545470
  C   4.26128405635852     17.29802382456058     -1.03587850592607
  H   5.13302077558333     17.43855668722068     -0.37581699006832
  H   3.89625131646551     18.27713942030516     -1.37149069580588
  H   4.60174256507229     16.71605662819233     -1.90811595592268
  O   2.04823434793407     17.10364649324265     -0.17308372042900
