71
Coordinates from ORCA-job 2185_0.0
  C   7.46855995479821     18.81274384262987     -4.75560511115004
  C   8.39863361905815     19.34090624243229     -3.64948743099851
  C   7.69401876237107     18.93270816672737     -2.35035199398506
  C   6.46913735941606     17.90596009621607     -4.04987287720496
  N   6.65344743882930     18.06498622480865     -2.67419167074920
  C   5.79768124900124     17.41807017370595     -1.68261712820905
  O   7.97782148937027     19.27369116922767     -1.22379283786174
  O   5.63449293627080     17.18953987298671     -4.54787754732091
  C   6.16014300045303     15.94964736090511     -1.41585054210965
  H   4.76485975542275     17.47726397761320     -2.05750309417457
  H   5.87725683771348     18.01818365193269     -0.76469560087421
  C   7.54733012239089     15.73406913926522     -0.80933236354043
  H   6.06902063578655     15.39652339047484     -2.36615407015310
  H   5.39072743811533     15.54066587239860     -0.73864942946706
  C   8.00790996981730     14.23004141701948     -0.64407897415634
  C   6.98190197669334     13.53987806326688      0.25819085002176
  C   8.44775197786271     13.51253374864705     -1.90025692582027
  C   7.20319912070799     14.01069532376699      1.49090794802992
  C   8.36086186998030     15.00314906170916      1.34003910471206
  C   7.75389923681292     16.26657410738608      0.63819506530160
  H   8.46363304684122     17.10621863126343      0.65763509696352
  H   6.82091763392542     16.59858713535263      1.11938888344393
  H   8.30356405811632     16.19634575568216     -1.46463758725753
  H   7.60670189269396     13.40119122246671     -2.60249350011569
  H   8.82879060100996     12.50929705322604     -1.65514234419963
  H   9.25107338048404     14.07346974027080     -2.40305850204455
  O   9.10447636057222     14.41765103071104      0.26584047652084
  H   6.18474278421658     12.87561322685390     -0.08029188886974
  H   6.65113882620971     13.82886176651774      2.41321922702927
  C   9.24550187158120     15.29830633948387      2.54265147909077
  N   9.92969108112364     14.12399789803944      3.06101562718944
  H   8.63206885578820     15.72621199763449      3.34969530639575
  H   10.02240612127907     16.01850281804023      2.24992726737180
  C   9.34925300693102     13.22039284467799      3.94863494299984
  C   10.33826329095414     12.08217802842168      4.16058049611847
  C   11.63021611446795     12.51054467008970      3.44280707848375
  H   9.89580206141180     11.17081442896935      3.72464977292572
  H   10.45928569842561     11.89476918075523      5.23776153757658
  C   11.24789400002887     13.81021838699720      2.72417031085729
  C   12.22421326222045     11.45640132452284      2.49301580343138
  H   12.40057575624831     12.79056183775229      4.18372657693759
  O   8.25015521600148     13.34414799144239      4.43703743249532
  O   11.95333847338368     14.48500604765672      2.01347910570035
  C   13.61049200985370     11.81285436344044      1.97555531437778
  H   11.54171722014128     11.29794715278383      1.64009662864639
  H   12.28753468042233     10.49457724308238      3.03007212293651
  O   14.04292778862869     10.72829550678589      1.13934474657045
  H   14.32851288300760     11.94589940629227      2.80157910114513
  H   13.59953928588479     12.74871959629186      1.39745096778078
  C   15.34648164766995     10.70364225951626      0.79015173308701
  C   15.64050751426142      9.53354027571249     -0.11874742444490
  H   15.26341891920542      8.59911044043109      0.32377958428671
  H   16.72117535181281      9.46627180934835     -0.29350908951204
  H   15.11872031403650      9.67307069059242     -1.07919408759067
  O   16.14995848726943     11.52186008899141      1.16173788285436
  H   7.97876815130251     18.25722171441427     -5.55585060141780
  H   6.90004192060582     19.62466807267176     -5.24034330100711
  C   8.73181423947248     20.83767452175083     -3.73430926376817
  H   9.34542433424479     18.76936068932922     -3.65941349697139
  C   9.82851828442204     21.27981167317686     -2.77610052457133
  H   7.82173818670176     21.43576350812823     -3.55302841778093
  H   9.05676568148360     21.06637819881185     -4.76366656442358
  O   10.07095053685205     22.67215405524956     -3.02641760387282
  H   10.75941174912765     20.71090358131709     -2.93881808906023
  H   9.53676391825854     21.13276266429425     -1.72602288389303
  C   11.12626237315227     23.22851995581483     -2.39273039969323
  O   11.86235784554334     22.60993731239559     -1.66606137705001
  C   11.23758302967884     24.70006115245194     -2.71341367506646
  H   11.22190847636524     24.85843821316808     -3.80238924763738
  H   12.16231590396210     25.10118201904206     -2.28116998244424
  H   10.37096112184513     25.23571357476506     -2.29361002081445
