63
Coordinates from ORCA-job 2187-2_0.0
  C   6.67347595073327     13.83183239025052     -1.17479725889005
  C   6.07457250467497     13.30785951410222      0.14097988426719
  C   5.77464962119800     13.64378838039819     -2.38357323157458
  C   7.06214493911804     13.17493625535188      1.03883691133044
  C   8.35073639495211     13.62101262315853      0.36088520840168
  C   8.05478870343752     13.15734064971299     -1.06744795274462
  C   8.77595973864882     12.35805996897338     -1.87857526622921
  C   10.02974971879092     11.68957177281783     -1.40052831650201
  C   8.38739693033504     12.04005623409528     -3.29244279961720
  C   10.05156094228275     10.94115550543704     -0.20927153268681
  C   11.22049514842073     10.30324784030971      0.21679194482055
  C   12.39045271618865     10.40012376741723     -0.54152933194708
  C   12.37964360872456     11.12951499025514     -1.73559819478790
  C   11.20960865092093     11.75832549114198     -2.16539838464824
  H   11.20695977211901     12.31510982318466     -3.10582693173831
  H   13.30516743799314      9.90248478269383     -0.20860341356665
  H   13.28862489942953     11.20605944972954     -2.33844258472471
  H   9.13441102473162     10.84104120169439      0.37647392604426
  H   11.21359440513437      9.72165969245798      1.14281066234334
  C   8.07577645963829     10.71489847815495     -3.65130376802620
  C   7.73552985791612     10.39085771437448     -4.96581728696737
  C   8.37977298648982     13.02345853797026     -4.29636272218730
  C   8.04660508478559     12.69733236915334     -5.61561108880040
  C   7.71934044735647     11.38237312777175     -5.95343040524986
  H   8.09757633795259      9.93416283688316     -2.88625158893957
  H   7.48297852840592      9.35831761562863     -5.22205017793836
  H   8.63575329957131     14.05503392852867     -4.04542880294347
  H   8.04061710182265     13.47890564890389     -6.37985200066299
  H   7.45439327488986     11.12859725563613     -6.98317602971191
  O   7.23026394615142     16.36267156704542     -3.07687449072007
  C   7.73508107425522     16.06874259095203     -2.01771692615150
  C   7.08350923372571     15.33171139837826     -0.85151021038990
  N   9.06279318366316     16.33922831679851     -1.67420873581245
  C   9.43094869304741     15.84324691630425     -0.42263543074795
  C   8.21004059920979     15.17838120641068      0.19830858529476
  O   10.53841464697341     15.94452329761411      0.05122813270156
  H   9.29728561055775     13.31475257099163      0.81708184245489
  O   4.53947807799724     14.31847239554304     -2.08018563791560
  H   5.57698718777140     12.57648099510759     -2.56794573657330
  H   6.19724602013014     14.07031836244696     -3.29997739686655
  C   3.60312368528657     14.33210959779462     -3.05528961251976
  C   2.40073990325058     15.14669062901889     -2.64143536266456
  H   2.04700166498216     14.83850519769815     -1.64599167005618
  H   1.60316344563021     15.02736010165512     -3.38481618476471
  H   2.68516995276774     16.20921321187969     -2.57471036989157
  O   3.74108596188995     13.76846261442430     -4.11070697600895
  H   8.00939879397903     15.65820430958265      1.16756334634821
  H   6.20592399142836     15.90477787641451     -0.52155351006833
  C   9.97801295639045     17.07398795486440     -2.53389040208802
  C   10.21240401732248     18.50197528781426     -2.06328344466979
  H   9.53903843412921     17.07195809073685     -3.54184137948602
  H   10.94445664776314     16.54720091970812     -2.55093109518998
  O   8.95078659069639     19.17735784455721     -2.05777488760448
  H   10.91397881368279     19.01617006054418     -2.74006987215511
  H   10.65122915735918     18.52077358993540     -1.05314275852525
  C   8.96792759512857     20.50423671254698     -1.79746063565977
  C   7.57085986417164     21.07436900624433     -1.80754053803309
  H   7.07567106477960     20.84627054569055     -2.76383856667683
  H   7.61497436966379     22.15868229035383     -1.64958644494914
  H   6.97102765110274     20.60421500838925     -1.01216061364233
  O   9.98199241493557     21.12035224382540     -1.58743096576605
  H   5.00395451410034     13.15753321033478      0.28797179544378
  H   6.97309374941341     12.88802623220510      2.08884668723161
