63
Coordinates from ORCA-job 2187_0.0
  C   7.25908408876331     13.73895923964505     -1.87795796255062
  C   6.92096658093088     14.03841905580254     -0.41286932184676
  C   6.10419692081724     13.20793048063620     -2.71577488125508
  C   8.06530263326944     14.08697668810425      0.28769746465557
  C   9.20723060067824     13.81080032138022     -0.67814647583490
  C   8.50801539123596     12.85766835060426     -1.64531503002155
  C   8.90931689503852     11.65597016983327     -2.10572234246317
  C   10.12863151979610     10.97967280703598     -1.55567180417583
  C   8.19583120595938     10.90165140649378     -3.18806214529272
  C   10.31523479301668     10.81859100753830     -0.17013837183492
  C   11.44977085194092     10.17395643622661      0.33175653911764
  C   12.41937999640116      9.67492775034287     -0.54261423905299
  C   12.24000956876314      9.81442274684147     -1.92317679625700
  C   11.10264492393045     10.45050149007249     -2.42424041894088
  H   10.96598105563646     10.54489113196643     -3.50438486167828
  H   13.30710086264080      9.17116419036862     -0.15105229712825
  H   12.98997722785553      9.42187494204686     -2.61529112616315
  H   9.54994086492937     11.18488330732859      0.51855306567853
  H   11.57150973181132     10.05441915917161      1.41184143857828
  C   7.58928806475178      9.66230648415778     -2.91177943874299
  C   6.94572962198926      8.94180452791570     -3.92025614604632
  C   8.16891966071286     11.37981056591963     -4.50909640888303
  C   7.53175139535387     10.65507521330086     -5.52208968384033
  C   6.91376777912784      9.43679224137290     -5.22915227538259
  H   7.62034473102859      9.26616203627688     -1.89323514658692
  H   6.46794451663458      7.98703654286103     -3.68415314324356
  H   8.65784664873932     12.32840664192531     -4.74637238652022
  H   7.51860057992855     11.04704550558781     -6.54241467715249
  H   6.41238106627525      8.87101503682374     -6.01879026511164
  O   6.28893728912511     16.82577822205339     -2.48529735352999
  C   7.35228990707948     16.39166322848840     -2.10559731051549
  C   7.99455596958492     15.04248972508534     -2.42286689586996
  N   8.22789691475928     17.10242111219868     -1.27969408718008
  C   9.39174335680611     16.40282698261437     -0.94555404837532
  C   9.33150960306823     15.05270361669122     -1.64041530092197
  O   10.25654910187680     16.82928137816842     -0.21774258601579
  H   10.16266843788609     13.50144838774486     -0.24499995030774
  O   4.96677042079234     14.07166490685099     -2.60429481662214
  H   5.79483510488840     12.22308844371051     -2.33548538556581
  H   6.37697758276334     13.10817149893065     -3.77200363210904
  C   4.55764532802931     14.73399570625804     -3.71818130358813
  C   3.39023846761513     15.63131834337110     -3.40519570680608
  H   2.66271031071174     15.11798870719757     -2.75978941681428
  H   2.91843902068990     15.96144066488670     -4.33899437502580
  H   3.77786941561237     16.50571048014370     -2.86007988974125
  O   5.07752141048731     14.60641609205869     -4.79819433338046
  H   10.21913114885356     14.93466532338455     -2.27948800629136
  H   8.11488123606631     14.96527932771892     -3.51431393004836
  C   7.93293740497942     18.42913192422898     -0.76377539549488
  C   8.60794956818745     19.52153393058569     -1.58808140260126
  H   8.28836155338197     18.48215070319045      0.27577234236534
  H   6.84210891116264     18.56071255745762     -0.78585919738038
  O   8.23622676985137     20.76714509246147     -0.99169223608885
  H   8.27153950877592     19.49356244166044     -2.63785883619106
  H   9.70334742952671     19.41157046032068     -1.57725454534655
  C   8.84626109767944     21.87677444794513     -1.46859264228624
  C   8.35649160808428     23.11215364753427     -0.75351633569738
  H   7.27617439325567     23.23947119174992     -0.92693854264302
  H   8.89943414891369     23.99011222180551     -1.12372922068791
  H   8.50111528989982     23.00465217739153      0.33248291926420
  O   9.66447712441503     21.84860955888917     -2.35224964491654
  H   5.90938007258167     14.25893658795708     -0.06829578371213
  H   8.18834531465197     14.35463543168414      1.33910598810197
