96
Coordinates from ORCA-job 2188_0.0
  C   7.65221596034610     17.98774409402775      3.97199247677063
  C   6.21734744658290     17.44366124341583      4.07256640583690
  C   6.01517129717523     16.45243773726995      5.21223289390399
  H   5.91817696929408     16.94225131728293      3.14206023473990
  H   5.50879877405329     18.27991651536907      4.19052613310947
  C   7.17683750928598     15.44562017380026      5.40165300689815
  C   8.83255612478971     17.10135918379990      4.52130148694315
  H   7.71767981630801     18.95501675650369      4.49705408343205
  H   7.84473431452970     18.22389412257063      2.91352099541145
  C   8.45082995069782     15.55262619976563      4.48796300840039
  C   9.13531688761095     17.53906630473726      5.97310862886540
  C   10.03985914559023     17.46545388034036      3.63476637276432
  C   4.69463921724902     15.66029922533002      5.06340405345639
  H   5.97423895097520     16.97512556355009      6.18358703715467
  C   4.01891747080101     15.22757859294883      6.34062833916982
  H   4.74299322269488     14.66427626266551      6.95072948549262
  H   3.13297124501480     14.61891181368730      6.11573748981375
  H   3.72482250114918     16.11561816596086      6.92631293728778
  C   8.08012608249726     15.11631994198296      3.03994899006227
  C   9.44957768036783     14.46803861332165      5.08169070952815
  C   7.35511747180343     13.76999019198679      2.98073370346295
  H   9.01940203000830     15.03108403343900      2.47241027683499
  H   7.47997680780205     15.87549118888880      2.52510514002660
  C   9.03959194782512     13.05687629522037      4.66946692426783
  C   8.10316745378088     12.72817232617042      3.76415553315117
  H   7.28243438617015     13.45564835615319      1.92500899240848
  H   6.30952219224192     13.86504180231793      3.32820650343089
  C   11.03624188216137     14.33940214548149      5.00577223183664
  H   9.27527506403240     14.50662312598027      6.16986880743307
  C   11.21382509564177     12.93745682601710      5.67887815277481
  C   9.98123634112105     12.07749049981861      5.31989305927844
  H   11.27893379610085     13.07746705282160      6.76965207429914
  H   12.16485920110012     12.48757065939501      5.35995336157851
  H   9.53776160952098     11.61732419718039      6.22086218011111
  H   10.21809368332126     11.24858688011054      4.63486373442245
  C   11.86926643103036     15.33826477214934      5.82410565716220
  H   11.91974142515060     16.34696190677613      5.39390728785138
  H   12.90417724188418     14.97089896930225      5.89130782892548
  H   11.47791355094962     15.42356048754686      6.85070669590991
  C   11.54676248934334     14.26420348193549      3.55088253631524
  O   7.82053130151173     11.40978034765842      3.53449944470919
  Si  7.11540641952131     10.49108729528620      2.29889388635343
  C   5.32445825199416     11.01764955142784      2.01476973064659
  H   4.75333115325136     11.01839664850400      2.95714702047390
  H   4.82006412659179     10.33078322091341      1.31455519731670
  H   5.26005113407380     12.03033361829256      1.58661486357526
  C   8.11648949055441     10.70439387075872      0.70980945721552
  H   8.04997978699895     11.73773988700844      0.33117305005526
  H   7.74725328643756     10.03861353194667     -0.08824670787437
  H   9.18209273980525     10.47667987213737      0.87550555922534
  C   7.21072363711796      8.69471210358399      2.96410292989264
  C   6.58413894168906      7.72267847535767      1.94174982707418
  H   5.52235160807811      7.94816444568966      1.74714223222728
  H   6.63064021556564      6.68540990256222      2.32109576812093
  H   7.11313007198482      7.73683011257749      0.97383977783311
  C   6.43952412935870      8.60308628842134      4.29776719519987
  H   5.36739650177158      8.82942302279561      4.17260463966344
  H   6.84426386537885      9.30086474179694      5.04786555166702
  H   6.50993462822683      7.58125618321821      4.71411280556389
  C   8.68289120752495      8.29976197087085      3.20445008963516
  H   9.27511621813989      8.31707359120681      2.27411804123968
  H   8.74345187975145      7.27284917427782      3.60972128480748
  H   9.17039927473213      8.97256551527233      3.92717316552806
  H   9.89251597485837     17.15123082065226      2.59045335354048
  H   10.98291026358531     17.04190214506550      3.99087143590435
  H   10.15961226359275     18.56176676126677      3.62703097466849
  H   8.25510386275216     17.45881308801867      6.63036301547184
  H   9.45379609999639     18.59418509208069      5.99015125328840
  H   9.93699672356475     16.94351681823733      6.42532794800897
  O   4.25343610013207     15.39619150568744      3.96602090653826
  O   7.08381675125219     14.63975149003842      6.30076634483545
  H   15.43981432752397     15.29271238385854      4.02095094054977
  H   13.81215809628293     15.91402295256034      1.17802917751038
  C   16.08634202922207     14.91620192540349      3.21204893121438
  H   16.06664734903186     15.65513764403016      2.39359178519899
  H   17.12192123742557     14.88374466710431      3.59821924939519
  O   12.93692567147653     13.99417023538811      3.51396946407148
  C   13.57036568151343     14.90516717113256      0.80584732327339
  H   15.12400329686839     12.81969831020630      4.75867896180668
  Si  13.82671287643533     13.58724280797800      2.13824576427085
  C   15.64546580715194     13.51572934131307      2.73736816009981
  H   14.20105086922378     14.71101147721408     -0.07784184813649
  H   12.52242659572255     14.91674571715839      0.46148818578322
  C   15.76416720191048     12.52348288924209      3.91302253533693
  H   16.80728509037693     12.48206194614126      4.27770669407401
  C   16.56071790499191     13.05466980048846      1.58342386115890
  H   15.48043255576977     11.49853014961327      3.62059100552596
  H   17.61439711955977     13.02219052532176      1.91656327631329
  H   16.51658183715820     13.73653826131434      0.71721717402436
  C   13.22874159287929     11.92276986906687      1.46941572412355
  H   12.16156635288840     11.97300032096574      1.19429636754195
  H   13.34285379680923     11.11817016397723      2.21377866619070
  H   13.78563943434760     11.62974667282247      0.56381121492403
  H   16.30266788823492     12.04349319498704      1.22676122071678
  H   11.34464287474633     15.21582213455243      3.03049693261889
  H   10.98352393464726     13.47700743851969      3.01639373948302
