62
Coordinates from ORCA-job 2190_0.0
  C   2.39069741922200      0.09712240705118      0.17943604241839
  C   2.13134573057844     -1.05221882079365     -0.56729521971700
  H   1.37315583296748     -1.76261233873906     -0.23032468781516
  C   2.85675702212700     -1.28796513539596     -1.74307997548603
  C   3.82549825732929     -0.37631218870128     -2.17135336952934
  H   4.38434178138324     -0.56408200453782     -3.09193217558740
  C   4.08263461426039      0.78090125660864     -1.42503235840620
  H   4.83200538791800      1.50232856155692     -1.76155601544679
  C   3.37122182201431      1.01181090006773     -0.24776156425383
  H   4.07253985469323      0.12894058431805      5.60929098826497
  C   3.98673183982995      0.57188931053036      4.61341381441532
  C   2.91115025667828      0.21707814774208      3.78661059301014
  H   2.15719134726190     -0.49458553490322      4.13037467610426
  C   2.80997677131296      0.77689740765475      2.51439839158664
  C   3.77670688180202      1.69723861596538      2.06619964854755
  C   4.84250259564815      2.05191390042641      2.89261658695267
  H   5.59326086741654      2.76616822355394      2.54219916759765
  C   4.94748199519961      1.48425544293680      4.17004736954372
  C   3.51635080897596      2.21421034733482      0.66468138107110
  C   1.69307196971064      0.51221305669191      1.48730829342977
  C   1.04316916634035      1.94314666490354      1.24224399530957
  C   2.11687976259500      2.91334863965952      0.70816396102635
  H   2.66103487554720     -2.19075380869483     -2.32780111008752
  H   5.78484355603450      1.75548833197813      4.81846647996285
  C   -0.07242351113697      1.99052740096841      0.17022644312606
  H   0.64051016906234      2.26939249534252      2.20989398664985
  C   1.64786235581605      3.29890001345016     -0.69279331118310
  H   2.19434793562652      3.82954874530017      1.31314428394881
  O   0.45666351295743      2.70513896850560     -0.95811684126619
  C   -1.32620364876926      2.74264882236097      0.60958867196838
  O   2.21708753443280      3.99340571537919     -1.48507832179858
  C   0.68661950846660     -0.44647646248130      1.93920417476714
  C   -0.17236325051886     -1.23880985053097      2.27780781332587
  C   -1.19139573935971     -2.16906009366342      2.66052507337684
  C   -2.52034554504456     -2.00063973799395      2.22733954173009
  C   -3.52130640959401     -2.90890877445086      2.57953118260060
  C   -3.20932465321701     -4.01838507023151      3.38425241403306
  C   -1.88374711214059     -4.19555060189616      3.82603354360222
  H   -1.65885073068662     -5.06359590025851      4.44938418242582
  C   -0.89440226388784     -3.29000311045732      3.46986849190281
  H   0.13086596471285     -3.44344489256360      3.81394460026922
  H   4.28320072302373      2.91787154214547      0.31527089898286
  H   -2.76692744376190     -1.14090247666195      1.60018251628154
  H   -0.34608801521674      0.98178383296219     -0.17505495906652
  O   -1.92749030572563      2.01824688554313      1.68373195367193
  H   -2.02961013246405      2.83099856695486     -0.23402243140354
  H   -1.07566790863339      3.76489515940820      0.93776074609542
  C   -2.91245357388506      2.65203569276683      2.36850460518646
  C   -3.41414487577650      1.80490680102368      3.51062374168339
  H   -3.76746876620034      0.83048835280596      3.14056462986025
  H   -4.22645869207881      2.33118782012175      4.02617265049182
  H   -2.59137717449609      1.60010353679580      4.21340526493365
  H   -5.51045456806817     -4.87154652545966      2.25759889030227
  O   -4.09985769907160     -4.95682066420053      3.77962018657698
  C   -5.45617055311085     -4.87336993101979      3.36286180715503
  H   -5.76031698109000     -7.00784605309876      3.57330464540386
  C   -6.19802393900273     -6.06531924168525      3.93683328962836
  H   -7.25730283414815     -6.03410401303585      3.63727271396518
  H   -5.90144094354290     -3.92457276824925      3.71830028002935
  H   -6.14614080115112     -6.06308838603395      5.03658078476110
  H   -4.53731057798077     -2.74427742473248      2.22002050831249
  O   -3.30394947118453      3.75346965965584      2.07945643475709
