98
Coordinates from ORCA-job 2192_0.0
  C   5.46809787201441     10.47045200489375      4.35202075352207
  C   3.93007364777348     10.50009101069834      4.32645692492651
  C   5.72733792601493      8.97944170850230      4.81990925444962
  C   5.33794555808137      8.02815238987427      3.67514446318060
  C   3.98730482162805      8.08597815376292      3.64667717693615
  C   3.58022573985316      9.02621174171533      4.77631916316061
  O   4.63685051244012      8.81339167203640      5.72169538762230
  C   3.54531912426985     10.88951227627011      2.91027550659385
  C   5.89369779902005     10.90065646320084      2.95217853655430
  N   4.72523519331548     11.12372603445744      2.20386640574066
  C   4.74336069925352     11.56502392589169      0.81847115571170
  O   2.43184594488080     10.97904858651767      2.44669533142629
  O   7.00909021857007     11.05485231891882      2.52192549066824
  H   3.30177404977908      7.60793128711620      2.94930590214258
  H   5.91495851526606     11.15291430953257      5.08869879908043
  H   3.48393486809217     11.20885963697986      5.04014502663843
  C   4.69448661798447     13.08754862748127      0.72268866669209
  H   3.86823713724187     11.13309173109464      0.31181032364674
  H   5.66438564242259     11.18680787037760      0.35287696228761
  O   4.68454938297401     13.41566474305803     -0.66754901185370
  C   4.61522174168035     14.73423138373453     -0.97373206847018
  H   6.68605555151971      8.81163724851755      5.31818738552847
  C   6.27032599552208      7.27403276779955      2.84715137071103
  C   7.75494410749618      7.28734491382754      3.15836354413282
  C   8.42077284844427      6.60384425794975      1.93165809229476
  F   8.02019530918135      6.57335622275034      4.28578411604405
  C   7.27213878292145      5.76030835009944      1.31932337233665
  F   9.48688682242853      5.86625455034957      2.27068911276013
  C   6.00703112048747      6.41533064456392      1.82751942522218
  F   7.36619891988277      4.47116714854611      1.74335603187133
  C   4.70281577550675      6.02695404091261      1.25209330741096
  C   4.18288721875917      6.60599554880236      0.11167383282019
  C   3.87534385236764      4.98166855437187      1.81412946844824
  C   2.71664891981968      4.79311664391946      1.08232166570947
  S   2.65336274467414      5.89009914929285     -0.28304774713768
  C   4.76001726373395      7.70625900633181     -0.72887204522010
  H   4.72674919869394      7.45355654024122     -1.80069673765074
  H   5.81095438672393      7.88495591850699     -0.46182844728180
  H   4.20674401032789      8.65226182267144     -0.59908056943548
  C   4.26244265762826      4.22668742411213      3.05812013837691
  H   3.39681912435876      3.72930806839928      3.51620847821185
  H   4.70194364709475      4.90307711045199      3.80787652142917
  H   5.02322278908434      3.45831074284522      2.84043264508019
  C   1.61156574796805      3.83492476818851      1.28509382313798
  C   0.26879233330387      4.24185920255990      1.14387382584240
  C   1.86740484379333      2.48537680865008      1.60185005139845
  C   0.81782612730048      1.58273423212320      1.78847686452670
  C   -0.50876633794767      2.00312455423017      1.65155152486149
  C   -0.77808159705945      3.33588767489398      1.32341943426985
  H   0.04728346465039      5.28489355072900      0.90315042286190
  H   -1.32875057096702      1.29458218466938      1.79477202561474
  H   -1.81136080797465      3.67548999420575      1.21238642792860
  H   2.89909290602975      2.13643051150038      1.67745872104215
  H   1.04010363988547      0.53977375601731      2.02999931242711
  F   8.80323058575706      7.54562111359435      1.04694938553500
  F   8.24775693634815      8.52996970527714      3.35441778591532
  F   7.33882545794658      5.73964794175994     -0.03110218704457
  H   3.78926714839971     13.48711597275108      1.20738404586577
  H   5.56997868988084     13.54529703066399      1.21084339203988
  C   4.60524347422110     14.97519773523278     -2.49148205442962
  C   4.50264537614721     16.50490132390263     -2.71673949390618
  C   3.39201470165375     14.23149153141523     -3.09377150788167
  C   5.91474642134819     14.40188906669520     -3.07850921564903
  C   4.47672130086180     16.97524614359299     -4.17299078824669
  H   5.34473113053277     16.98487461918968     -2.19153728566270
  H   3.59857587040581     16.86577624976212     -2.19912145842848
  H   5.38987190469794     16.69525451008468     -4.72268518887716
  H   4.40152338225194     18.07373622804344     -4.21201305996866
  H   3.61504581092126     16.57325362785966     -4.72986864293667
  O   4.56915966785749     15.58561255284928     -0.12083652753377
  H   2.44349191242841     14.62055146196712     -2.68842064543456
  H   3.44163187316733     13.15498258904851     -2.87601410383941
  H   3.36851874335951     14.35482388729283     -4.18725866289104
  H   6.79709043199040     14.91643653761631     -2.66379896416822
  H   5.93402510718469     14.52571674287019     -4.17208925591220
  H   6.00935170109610     13.32884204292723     -2.85807528249908
  C   2.20164730897222      8.89324408322390      5.37347639350527
  O   1.93905859790628      7.52056622655841      5.65059390128321
  H   1.45741461506601      9.29050844240265      4.66288738255969
  H   2.13419993929359      9.48846401974168      6.29727832028627
  C   0.83265451300767      7.25260398503407      6.38854484413386
  C   0.64937666184727      5.74552764291142      6.61977839706364
  C   -0.59180591359817      5.56271442877339      7.52927838560991
  C   -0.96302504197991      4.12088318275017      7.88337143092085
  H   -1.44919734163067      6.05268432174658      7.03950992554061
  H   -0.42372546987140      6.13585726907298      8.45620216208551
  H   -1.19663585539454      3.51664076947266      6.99200996802732
  H   -1.85864881116121      4.10962225386975      8.52500110194418
  H   -0.16258906850548      3.60415395668531      8.43701971615884
  O   0.10422681430089      8.12690583788690      6.78786934626756
  C   1.92927577625549      5.19193686440633      7.28425619027221
  H   2.09126222818596      5.64359826771950      8.27687084973582
  H   2.81530882636737      5.40044573899245      6.66802542461760
  H   1.85353138118910      4.10188052094662      7.41695132649570
  C   0.44179118799931      5.07925256176677      5.24042890664263
  H   -0.46531519700663      5.46178216477261      4.74490150246700
  H   0.33244427483802      3.98953403225172      5.34779084963411
  H   1.29787913726472      5.26762302547097      4.57712784447065
