107
Coordinates from ORCA-job 2194_0.0
  C   2.85080839973647      0.63705530437731      0.96183009806444
  C   2.03682350677085      0.04703783610592     -0.00443848271725
  H   1.73367263912743     -0.99689259871724      0.10131213740702
  C   1.61949386107714      0.80522776995393     -1.10707323928102
  C   2.00568726084918      2.14293311191245     -1.23291491540571
  H   1.67615423960722      2.72823582634035     -2.09549733487800
  C   2.81680577520594      2.73762884485379     -0.25701781400630
  H   3.11558392562793      3.78549023465445     -0.34860619463139
  C   3.24414777827590      1.98335819894656      0.83644984808707
  H   7.99924177311996     -1.23666195173421      2.44162154090202
  C   7.23535931471336     -0.45970734937338      2.35218199321093
  C   5.87973126948492     -0.81798885254005      2.36311494714088
  H   5.58199491306492     -1.86527130755935      2.45383465395330
  C   4.91132377317222      0.17775055947318      2.24247547017629
  C   5.28913902425420      1.52654739104683      2.10554615581194
  C   6.63841800261243      1.87859997176259      2.10096242361886
  H   6.93169706841954      2.92724229422729      1.99637164029506
  C   7.61364973324082      0.87944540813529      2.22472439764387
  C   4.11346836386029      2.47651565444287      1.97846611041849
  C   3.38546378854327     -0.03708857756817      2.23688587745424
  C   2.84074749480561      0.83482886497507      3.45342011350368
  C   3.28411693146306      2.30441898036522      3.29330647498332
  H   0.98911879088649      0.34478142793036     -1.87241111763317
  H   8.67277256322846      1.15035196989471      2.21651660039293
  C   1.31157258413618      0.89099821622325      3.52899436048378
  H   3.21390176591507      0.37709829746978      4.38096668949633
  C   1.99135381610766      3.11368668982467      3.27478765417326
  H   3.89316232055280      2.65018455341602      4.14237543001034
  N   0.92388013214358      2.22851198827291      3.41746944675727
  O   1.88299639406009      4.31114504567810      3.15514212882428
  H   4.41892917675655      3.52362575163131      1.85322983349436
  O   0.54310031039913     -0.02965455199322      3.67496666482640
  C   -0.46529948255709      2.65880051010327      3.43492597342352
  C   -1.06141150730155      2.75355606525413      2.03067852783280
  H   -0.51287056229888      3.64572694096760      3.91661432514369
  H   -1.03746132673324      1.93313380517418      4.02970648849537
  O   -2.39015994659225      3.18247120758430      2.17189111090084
  H   -1.00732685737357      1.76477499441511      1.52994967283421
  H   -0.47151835665072      3.46763465254570      1.42037906538099
  C   -3.08422084172708      3.34521684243260      0.95445882320631
  C   -4.49544222129700      3.81826320641557      1.25152749888395
  H   -3.10529767465250      2.38615945116965      0.39380037305404
  H   -2.55628101331512      4.07847253933910      0.30796329648313
  H   -5.02561315890480      3.08406220032355      1.87830857034680
  H   -5.06294779581451      3.95472822569714      0.31730904981057
  H   -4.47581077437281      4.77800920261290      1.79143294247134
  C   0.95440620372615    -11.45164933665398      3.56461453421921
  C   2.16416613489311    -11.15921169403832      2.93328701381672
  H   2.47049381304088    -10.12165457150958      2.77903525975810
  C   2.97981839930344    -12.21442617724789      2.50122288670121
  C   2.59419232269426    -13.54231483783167      2.70792727948729
  H   3.23720990758664    -14.35826606414928      2.36733832376251
  C   1.38384683013003    -13.83282438669826      3.35127909267347
  H   1.08194588219048    -14.86979150425252      3.52239193831735
  C   0.56198254773652    -12.78737378200173      3.77421043379156
  H   -4.17353103494469     -9.72741604700625      1.80355162088933
  C   -3.50581751412330    -10.40169958360211      2.34634161450320
  C   -2.27987934468063     -9.92253400170917      2.82940383160789
  H   -1.98819387620908     -8.88260507850922      2.66732878255936
  C   -1.42856279938120    -10.78689764235110      3.51571912093122
  C   -1.79762741158391    -12.12944508246479      3.72251922380312
  C   -3.01937269933088    -12.60194877102028      3.24405567390561
  H   -3.30457767411604    -13.64554180881600      3.40576021716302
  C   -3.87465971383404    -11.73357529133047      2.55186832513952
  C   -0.76644740542502    -12.93010987538384      4.49336690557961
  C   -0.05372843414480    -10.42633962473751      4.11409949643510
  C   -0.19978949881113    -10.73941621167267      5.66913533147379
  C   -0.62068005873689    -12.21082516018330      5.87456245941442
  H   3.92491622991260    -11.99314543667422      1.99812680472915
  H   -4.83081664993434    -12.10162371270216      2.17045850765649
  C   1.11012915072931    -10.59493267387688      6.44786202574426
  H   -0.92719914947962    -10.02698755703705      6.08434266422204
  C   0.47976991339150    -12.82799229338563      6.73337294627908
  H   -1.57245119513301    -12.29854552630770      6.42018027070011
  N   1.42124272230986    -11.83818398055500      7.00590038926543
  O   0.54480988201321    -13.97162458571823      7.11803877549891
  H   -1.05663251084130    -13.97916828942732      4.63715117190038
  O   1.77595101129751     -9.59898127383389      6.59146115377960
  C   2.62225995209066    -12.07333895265382      7.79166678667888
  C   3.82497751795974    -12.42211418383998      6.91540301100990
  H   2.41701714291248    -12.90248473416924      8.48305276390271
  H   2.84190547260624    -11.16223839394039      8.36638653550257
  O   4.91909534529286    -12.63010092093069      7.76971945175527
  H   4.02304535097108    -11.59490488187592      6.20358384681819
  H   3.60395718792354    -13.32990176728526      6.31669791445500
  C   6.12350180928332    -12.94461119885414      7.10614626246570
  C   7.21504127728135    -13.15491234442217      8.13960254531754
  H   6.40097062476872    -12.12641728566103      6.40761484639295
  H   5.99278388859916    -13.85801921510134      6.48717812352503
  H   7.35587894228788    -12.24453227841537      8.74320209506764
  H   8.17044774372830    -13.40055835812174      7.64934546557639
  H   6.94911059690864    -13.97888337071912      8.82029045289499
  C   2.99574411153662     -1.43389768795626      2.39205704056217
  C   0.34189446246807     -9.04306132769851      3.87074617475265
  C   0.69834097347405     -7.90292645154278      3.64606686932407
  C   1.17837141260365     -6.59006702050366      3.37999137038637
  C   2.65543902500923     -2.58554903626142      2.57599392966057
  C   2.18809014307377     -3.90457579710532      2.83475713315567
  C   2.99323955298704     -5.06209004735045      2.53971227868981
  C   2.48779176542746     -6.39934406565059      2.80405132415587
  C   0.93465359540795     -4.13548415074281      3.38781929526064
  C   0.44555749255684     -5.44223406261314      3.65442935910805
  H   0.30976732088531     -3.27215917260538      3.62704234702921
  H   -0.54738799836092     -5.54843034236593      4.09619328154862
  N   4.22207469659284     -5.05370166851897      2.02043761238948
  S   4.68663841297340     -6.62087114148980      1.87658574826047
  N   3.34751302887692     -7.36269312537839      2.46879274779898
