48
Coordinates from ORCA-job 2195_0.0
  C   7.20637347605730     11.10262548220358      3.57823928774628
  C   5.67858184424629     10.87217778279394      3.60922989253764
  C   7.74064691011399      9.66018239251362      3.99681470289247
  C   7.37649487234280      9.52825109483758      5.48140444990948
  C   6.05644302906580      9.32944865242376      5.50972559823420
  C   5.60818981744039      9.33951765523078      4.04356002463060
  O   6.76085291188631      8.83054082220863      3.37114368009992
  C   5.20942170448744     11.10685287100804      2.17790657189540
  C   7.52932346919698     11.46442089924133      2.13253467629794
  N   6.33409781970482     11.42034410745497      1.40250240727136
  C   6.25250880266850     11.72543964827722      0.00490551235310
  O   4.08412368728709     11.04019761770435      1.75324643864875
  O   8.60725095160420     11.73766982093717      1.66832149104795
  H   7.59359798570886     11.88541630131838      4.24362322664990
  H   5.10322658233482     11.51149863431358      4.29174881993575
  O   5.93592079956640     13.11542988506191     -0.12600027890164
  C   9.11226845880891      9.27491783834413      3.57809715356038
  C   5.60952484723450     13.53430437763579     -1.37108914323167
  O   5.61259926957552     12.80246523278687     -2.32868699227517
  C   5.25156013003576     14.99935477609188     -1.37267203002520
  C   9.60385019477872      8.31188724733060      2.74792596016763
  C   11.03563015814280      8.44941397637547      2.75977079476975
  C   11.28121214809094      9.49531572753487      3.60568575833926
  O   12.37177863004747     10.15595293371640      4.06323772078324
  C   13.63894915465992      9.80489869547975      3.67469885657825
  C   14.65908803447119     10.72438431139403      4.29478290582097
  O   10.13810203842270     10.00180015297130      4.11545149327648
  O   13.87400504904246      8.88687418483432      2.93867901481194
  C   4.38696450717154      8.57249988671651      3.68483525546837
  C   4.15482773726432      7.53097323796555      2.83251642496789
  O   3.23899796790608      8.93966431805647      4.31191756211297
  C   2.75157511230912      7.24324569623672      2.93922479044030
  C   2.24973214142243      8.12959117908895      3.84705845440962
  H   7.22537738562724     11.51588710031510     -0.46136498402814
  H   5.46205812789024     11.12056490184646     -0.45899637289689
  H   5.01143134314201     15.31695028954266     -2.39445353281592
  H   6.09085065142926     15.59267550971624     -0.97785060106310
  H   4.38879424048685     15.17255990239713     -0.71053229796755
  H   14.19791609675270     11.47970368439786      4.94233352896032
  H   15.22361976562807     11.21741070863353      3.48810322974646
  H   15.37679403186925     10.12071507758932      4.87140171604081
  H   11.77663946550039      7.86820779209517      2.22382190385900
  H   9.01378568667868      7.58735264046162      2.19235335457662
  H   8.07997330440595      9.65465513185470      6.30456114017952
  H   5.38169542370484      9.24685064801598      6.36187621010274
  H   4.89526819029198      7.03701071130634      2.20862707621879
  H   2.19334196616289      6.47704475910039      2.40495687436299
  H   1.25713407733291      8.30652370263866      4.25260227350015
