39
Coordinates from ORCA-job 2196_0.0
  C   7.28456807348866     11.00202256187585      2.85693213468682
  C   6.13850404176279     10.79937358693469      2.18371308356146
  C   7.57622106737566      9.63459892121813      3.57207575115978
  C   6.47714311745229      9.47481401179597      4.65773071501819
  C   5.34677684112835      9.26936438325165      3.97853110365681
  C   5.76432343714165      9.32280134542343      2.48869938987355
  H   6.64194144542046      9.59778676395089      5.72706897846427
  O   7.06727695622609      8.74546126836000      2.55838765758681
  H   4.32741021108464      9.16682863539584      4.35026470992109
  H   5.12224712672228      8.82370421173688      1.75570080921571
  C   8.97675247160845      9.35282686195301      3.96072078162014
  C   9.54630933466479      8.64872280760377      4.98809423553442
  C   10.95997585789286      8.70902414205085      4.79087528556720
  C   11.15243067988324      9.45272883013621      3.64888455454721
  C   12.33021428168803      9.87479469405744      2.93332807328905
  C   12.51120473427257     10.62200115689990      1.79239083481257
  C   13.92619456799208     10.69456651895366      1.58887692131273
  C   14.49557044897714      9.99128228242932      2.61356541259078
  H   11.74003684404068      8.26854553433020      5.40678690169787
  O   9.95277052159036      9.84231980279917      3.14284849043230
  H   9.01453681502099      8.14041437727209      5.78932578121341
  O   13.53629764595767      9.49020111184925      3.43397665327107
  H   11.72185356486020     11.05725919647898      1.18414452083563
  H   14.45168592558715     11.20367298108656      0.78330199379619
  H   15.52305725034723      9.76484629628169      2.88636772411223
  C   8.04023890398030     12.24083391180434      3.16714227686370
  C   5.29744737862576     11.77903904329514      1.46673055378959
  O   4.24609594542604     11.16169171114296      0.88061757002125
  O   8.43299810507917     12.90943181760630      2.08242495306087
  C   9.09973812497144     14.15254746192321      2.31425956819772
  H   8.42725317516157     14.86009134505656      2.82257083526119
  H   9.37676273954659     14.53739176592529      1.32522185108129
  H   9.99549670528208     14.00536929890168      2.93644278595004
  C   3.34623037120098     12.00330525247792      0.16040124103433
  H   2.91640423196312     12.77254771549925      0.82044132967965
  H   2.55691717283259     11.34737371815419     -0.22775303233336
  H   3.86424302612607     12.50969622830474     -0.66866178137149
  O   8.27425571596402     12.57079680008692      4.30732069102851
  O   5.48486514165354     12.97137164569544      1.40719865995928
