52
Coordinates from ORCA-job 21_0.0
  C   -1.17907926121236      0.46756108897226     -0.31522372815449
  C   -1.32717132969960     -0.86297071598461     -1.12773420908953
  C   0.28241702099980      0.53771648731120     -0.78673295824054
  C   0.22723995026726     -1.00367142792714     -1.08390684076028
  C   -2.19820480675719     -2.01365682055295     -0.62573556067291
  H   -1.62913759361647     -0.59466629189837     -2.15367542135671
  C   -1.57247542873524     -2.79686008977967      0.53697816357756
  H   -2.36057854336969     -2.71206744411588     -1.46686203999237
  H   -3.19427694790020     -1.62583211320371     -0.35055769904246
  C   0.73340838773039     -1.90033437970227      0.06146710195808
  H   0.69077979767589     -1.30708471070732     -2.03564857355589
  C   -0.11519862682803     -3.16721977202686      0.23337055831503
  H   0.70635026879660     -1.34888696794211      1.01737856243294
  H   1.79233150429073     -2.15398478788840     -0.11286316958715
  H   -2.17231767608117     -3.70024595714058      0.73732571739076
  H   -1.60413794409666     -2.19648702462453      1.46497665076967
  H   0.30167453945369     -3.78541734732562      1.04594994598963
  H   -0.07089490229932     -3.78622741500561     -0.68283666581951
  C   -2.09793432304987      1.59568743527672     -0.70344148252825
  H   -1.24763533449973      0.29430256839172      0.76865012157411
  C   1.31104162143955      1.04950894081109      0.18907547731095
  H   0.36348530058535      1.10639515565543     -1.72445668349670
  O   -1.84245290650550      2.47629340475467     -1.48831123733958
  O   1.11100556161006      1.31479757792996      1.35008684983739
  O   -3.29867923891637      1.47324752571812     -0.09555217627879
  O   2.52530476940468      1.14686469705923     -0.39156668387182
  C   -4.29198078212990      2.44852009180935     -0.42392508932438
  C   -5.53111333775087      2.08637817850175      0.37199303463770
  H   -4.49437810845585      2.43733446897475     -1.50718240853890
  H   -3.93238637830123      3.45765178998823     -0.16633753732675
  C   3.60270491034019      1.59394074907494      0.43604243266417
  C   4.83326633346585      1.64420988128087     -0.44851673868371
  H   3.74587975077696      0.90242409316291      1.28210046795805
  H   3.37222212349869      2.58581036857647      0.85664063215942
  O   -6.52239474251711      3.06521761407722      0.05220202744418
  H   -5.32382552826261      2.09184321141643      1.45439408642421
  H   -5.89252041691588      1.07835714508192      0.11190031049009
  O   5.90875039997275      2.09486007657260      0.37798961415852
  H   4.68678725574904      2.33405590519083     -1.29538520875870
  H   5.06427741517530      0.65234097529860     -0.86959927026614
  C   -7.73136128285229      2.91741611167564      0.64181483087213
  C   7.12391224620550      2.19389823744635     -0.20930692157530
  O   -7.98683450584171      2.01421125460820      1.39685319193788
  O   7.31698487409779      1.92235124996438     -1.36688954124401
  C   -8.67457358203391      4.01892694876899      0.22541703184116
  H   -8.78696369096985      4.02602297611607     -0.86991223784635
  H   -8.25942230838950      4.99706677632201      0.51505755047214
  H   -9.64939903098731      3.86865600273309      0.70449695619864
  C   8.16133405383858      2.67885424778782      0.77309083219601
  H   8.21993698405451      1.98978234112609      1.63007651718160
  H   7.87309944467479      3.66533087599689      1.16852746856567
  H   9.13619404487152      2.74367681239273      0.27502394899351
