47
Coordinates from ORCA-job 2200_0.0
  C   2.15067264217168      0.59918491817342     -0.01191446484612
  C   3.49828767068893      1.51181257307815     -0.10045228651091
  H   3.68694981993414     -2.29687040989529      4.52878645199394
  C   3.73468279087041     -1.40203035352849      3.90328746596615
  C   2.61603688871321     -1.00552653615730      3.16249511569210
  H   1.69505125687629     -1.59392137007938      3.19295452331304
  C   2.68712976281757      0.14298705720342      2.37405231193276
  C   3.86238048435655      0.91276012856764      2.30862375406699
  C   4.98611814932839      0.48657729775340      3.02510222746864
  H   5.92754609382323      1.03293183069616      2.96813792533865
  C   4.91664912297873     -0.66169998037685      3.82505720048753
  C   3.77167096770824      2.13126297284796      1.37805293754834
  C   1.58366645859829      0.65660166373023      1.48507558511040
  C   1.33064469546046      2.11091498489103      1.78993018867591
  C   2.48642273435893      2.90762624893866      1.71679639371897
  H   5.79818142102590     -0.97985022190424      4.38766705020974
  C   0.08076533439588      2.66998895540170      2.05599124827900
  C   2.36502078235358      4.29401376191837      1.86354170334686
  C   -0.02435815773464      4.05135403993868      2.25028336172655
  C   1.11201330006626      4.85645335487930      2.14093959274187
  H   -0.80768472820994      2.03411035347819      2.09798742280174
  H   -0.99748260057564      4.50027985909273      2.46449431853052
  H   1.02665711025823      5.93969147992453      2.25895702967789
  H   3.22469250145892      4.95350835378169      1.74069900493699
  C   1.09224283965186      1.05136351088434     -0.93447862749673
  C   2.42085660653111     -0.81230617666099     -0.34819476473450
  N   0.21665153942474      1.36272224277692     -1.62545575376026
  N   2.59524961351197     -1.93339446540822     -0.58097397639571
  C   3.29124165189763      2.62720199481555     -1.03933365687842
  N   3.20982674771061      3.50779125138521     -1.78809129545205
  C   4.69628922916874      0.69338767695990     -0.63216554123099
  C   5.03201743756392      3.02129829279628      1.37666883969914
  C   5.40909838398328      3.67045589822328      2.72337625513933
  H   4.89398669010025      3.82830930702949      0.64112664896444
  H   5.88993340819072      2.43149405641858      1.02282701084907
  C   5.85327286736509      5.13005260905066      2.61064990605839
  H   6.19833322111815      3.11264242556657      3.25151097047819
  H   4.55606909742791      3.67392851506005      3.42665937830722
  C   6.64411384049024      5.67969429972974      3.78108148688129
  H   6.18789691896191      5.39414154612053      4.74298675786479
  H   6.71842038390515      6.77245018080737      3.70331419585506
  H   7.66041186883832      5.24829480011856      3.76747179182978
  O   5.57356509235596      5.81568353662824      1.65139867452753
  H   4.96243924493305     -0.11344282500533      0.06384030548117
  H   5.56670848063420      1.34701964306235     -0.77413230388394
  H   4.45606524053588      0.24727567766404     -1.60723909562971
  H   0.67391509397562      0.04474503962308      1.54027673131933
