23
Coordinates from ORCA-job 2206-_0.0
  C   0.05409156939007      0.84563939045137      5.15335211027718
  C   -0.78250174114144      0.80510515142428      3.90153498070268
  C   0.76434407823590      0.82508999202520      3.82529302756738
  C   1.49846401457444      1.98686978640716      3.27627718931338
  H   1.21318119263584     -0.14784229727222      3.59735831726071
  H   -1.25337698386138      1.76708293769297      3.67141945988072
  C   -1.56442492369859     -0.37946285248987      3.48189605679839
  C   -2.71353431131917     -0.31139950106302      2.79403027840877
  C   -3.52144870692354     -1.49035899628527      2.34102528188903
  H   -3.63523662158002     -1.49880874793164      1.24210522059742
  H   -4.54395561341278     -1.45751680295276      2.75795187966749
  H   -3.06010263085857     -2.44324205652628      2.64392859620608
  C   2.58428466443254      1.88485535885858      2.49606977114920
  C   3.34156699087753      3.03972255424259      1.91255016136710
  H   2.90133502612286      4.00647547195369      2.20260043872832
  H   3.36034189431220      2.98915887425941      0.80904977936755
  H   4.39637044123328      3.03194195047966      2.24089134629685
  H   1.10793114111577      2.97783635295408      3.53529198673084
  H   2.96358369654409      0.88274494304918      2.25358845747695
  H   -1.15481567614366     -1.35793669183558      3.75828781588833
  H   -3.11001740183589      0.67898682687072      2.53161724563649
  Cl  0.03445355876220      2.34238615873566      6.11726030505339
  Cl  0.17279634253834     -0.60334780304791      6.18091029373570
