21
Coordinates from ORCA-job 2208-_0.0
  C   -0.40360503078664      0.84023373529722      5.19901613290587
  C   -0.60687520784152      0.78180486904883      3.71951961400324
  C   0.79755243111268      0.65964320627117      4.33160902050685
  C   1.83110931158997      1.76048588972659      4.18252882264826
  H   1.20427954620918     -0.35909432456067      4.33017087298409
  H   -0.82797600176882      1.77340425870708      3.30096178850544
  C   -1.29435690829852     -0.36936401113459      3.01228686406338
  C   -2.81671807819711     -0.21401091760899      2.96169070911934
  C   2.60883755249558      1.66930987900018      2.86673732468093
  F   -0.56993850919156      2.04065638869993      5.81061429611362
  Cl  -0.95958256799705     -0.47481430354739      6.26109070005067
  H   -0.88787149259806     -0.44467648987769      1.98780883888836
  H   -1.03287581232960     -1.31279761276872      3.51898484955307
  H   -3.10896385573266      0.71368064216003      2.44161807459642
  H   -3.24215094644465     -0.17728818775372      3.97740275504332
  H   -3.28560364496697     -1.05698682353483      2.42908419193460
  H   3.35292088255396      2.47796158781214      2.78656865571256
  H   1.93570919853112      1.74538915907522      1.99656837800710
  H   3.14820627692666      0.71079346198613      2.78467877675754
  H   1.33222340988121      2.74026829702157      4.26165504559781
  H   2.53244944685282      1.70923129598051      5.03439428832749
