21
Coordinates from ORCA-job 2208_0.0
  C   -0.15182887867421      1.12069737978676      4.55915302562860
  C   -0.94193437444998      0.92224147685378      3.30655956797855
  C   0.58282232925405      1.14071166874930      3.25803571652214
  C   1.57308312329658      0.08329339688437      2.80866167485567
  H   0.87292286921124      2.16177697203131      2.97746383923901
  H   -1.52406307326560      1.81819512674841      3.05410897972944
  C   -1.62136663498864     -0.37498309132308      2.91168508392274
  C   -3.04850778647777     -0.47636628969614      3.45888347851736
  C   3.00376562181877      0.39197976886617      3.26071698302360
  F   -0.30075824590774      2.30168915975930      5.20955422120517
  Br  0.09333350372814     -0.31492505963673      5.85099889194439
  H   -1.63737685211338     -0.44032427547236      1.80895740729045
  H   -1.02924903000141     -1.23415392292825      3.26272152234164
  H   -3.67557258211973      0.35648085077608      3.09884751516946
  H   -3.05316222347565     -0.44617147853702      4.56028663310820
  H   -3.52883780095743     -1.41680885763158      3.14464535033968
  H   3.70708523753462     -0.37875909453531      2.90676318101894
  H   3.07184010083871      0.43153316795565      4.35978492744320
  H   3.34748835462754      1.36393556396290      2.86878802870770
  H   1.27189374033520     -0.90487269067547      3.18952385079307
  H   1.53525260178670      0.01478022806190      1.70661012122095
