23
Coordinates from ORCA-job 2209_0.0
  C   -0.14193388177734      1.02326290271340      5.27654195729492
  C   -0.81846708715802      0.89392796001481      3.93735488280814
  C   0.72659179146411      1.04333376477668      4.04591606332233
  C   1.66555525845495     -0.05316175237662      3.71231899966895
  H   1.07626082623982      2.04477692122702      3.78285211665062
  H   -1.32247034994630      1.80807029468153      3.60774392336288
  C   -1.48245464966857     -0.35069985687033      3.48753381755178
  C   -2.55312438989804     -0.36461028149540      2.68023115859274
  C   -3.25632318183970     -1.59709262811600      2.19636584702832
  H   -3.24451407372325     -1.65654331714967      1.09318286457716
  H   -4.31983169660360     -1.59255379141994      2.49516689221203
  H   -2.79405975155299     -2.51452766091763      2.59275627931665
  C   2.77031993684041      0.05809152499405      2.95524969492884
  C   3.31167132915968      1.28017133547038      2.27326966613250
  H   2.71481867749264      2.18445942404241      2.46070269090804
  H   3.35608572186918      1.12909981467102      1.17985248335125
  H   4.34692041556526      1.48446664047925      2.59894248921865
  H   1.42962433622287     -1.03518597020568      4.13122776723909
  H   3.35815661739612     -0.85637248010091      2.80682995725389
  H   -1.06775625354864     -1.29879151782170      3.84482374898560
  H   -2.96277763053475      0.59459253501110      2.33486356503495
  Br  -0.37268756529346      2.69637386490502      6.25281260183810
  Cl  -0.09058439916040     -0.37555772651279      6.36871053272254
