23
Coordinates from ORCA-job 2210_0.0
  C   0.10126752618163      1.14248027894363      5.55697909409104
  C   -0.82548402377119      0.86914472199250      4.40194882818286
  C   0.69757062197109      1.10310743590509      4.17417741219520
  C   1.60166107659183      0.02744102850563      3.70590753434832
  H   0.92995339394355      2.10091423464515      3.79290694422420
  H   -1.43631833204475      1.73902656781946      4.14618057877784
  C   -1.47452619278548     -0.44092659378244      4.16284960547296
  C   -2.61792618786361     -0.64091367145720      3.48577143963836
  C   -3.49334193709617      0.37824596275380      2.81725530973242
  H   -4.52264314225864      0.33204631199675      3.21475170585919
  H   -3.57147768161647      0.17387347918956      1.73444680964094
  H   -3.13110790036883      1.40955742920279      2.93658247374238
  C   2.57886870457134      0.15963813225577      2.79293942748833
  C   2.98755319219735      1.39149643975537      2.03972053725170
  H   2.40879027462879      2.28416666468934      2.31752443775139
  H   2.87059660990802      1.24079911966574      0.95163005774877
  H   4.05565155347276      1.61613082832247      2.20764245747299
  H   1.44919768498299     -0.95922154667958      4.15136966654234
  H   3.15681557463221     -0.74288242747221      2.55831162824391
  H   -0.96795849149362     -1.31532717093223      4.58050932839109
  H   -2.96378540471776     -1.67862784604339      3.40060491816221
  Br  0.51792316156163     -0.25126140971658      6.84645240096727
  Cl  -0.02982008062667      2.73790203044057      6.34165740407420
