19
Coordinates from ORCA-job 2214_0.0
  C   -0.19260352346296      1.44522369424399      5.07383618093180
  C   -0.99592447916852      1.37914901644803      3.79124598770793
  C   0.54307811556387      1.59605767230278      3.75815231084795
  C   1.44502158179051      0.60120178713108      3.24497363210646
  H   0.83304038778356      2.63193257200812      3.54686118350271
  H   -1.56906146736692      2.29366156278747      3.59921270061817
  C   -1.61077859035677      0.17201825881736      3.31057509229891
  C   -2.16005804117061     -0.82305497592370      2.88631749256283
  C   -2.81384404380637     -2.02797875171115      2.38852428898888
  H   -3.44439780393625     -1.80697206277204      1.51107898074640
  H   -3.46016177935507     -2.47953007821214      3.15990992946215
  H   -2.07319866127630     -2.78694355788833      2.08584325265995
  C   2.22463599780936     -0.21112184084681      2.79292912636493
  C   3.15654634752929     -1.19934556001982      2.26162663532760
  H   2.70761071192364     -2.20666775897058      2.25951115617745
  H   4.07918001633745     -1.24496074175112      2.86433239449558
  H   3.44565705974014     -0.95990416786909      1.22448473623691
  Cl  -0.38130256290048      2.91652190772014      6.05368216814844
  Br  0.05533073432243     -0.13791697549418      6.14107275081493
