27
Coordinates from ORCA-job 2219_0.0
  C   -0.29486818485398      1.04883648788929      4.61450419230101
  C   -0.66715050861566     -0.38711774605976      4.86244265838625
  C   0.81658924234260      0.02976004259175      4.80524592747758
  C   1.70531996161394     -0.33235811988712      3.73129556491992
  H   1.29852301052494      0.09610867564874      5.78743941970379
  H   -1.01315095767691     -0.55113388016036      5.89038413512638
  C   -1.34373767515972     -1.26114916405997      3.85026911707256
  C   -2.61623894230168     -0.92003046203432      3.36124152574058
  C   2.49079666901647     -0.62774699447264      2.85465914195431
  C   3.42322621012510     -0.97855468197632      1.78894887675259
  H   3.18182792808232     -1.96170080925692      1.35085230980190
  H   4.45979229807825     -1.02346625408442      2.16300188573250
  H   3.39344865585767     -0.23443238785698      0.97532936929052
  Cl  -0.53719408555395      1.76593951548699      3.02037872979827
  Cl  -0.57107464488593      2.21341310611752      5.93433002632881
  C   -3.29100413578864     -1.76413868293931      2.48026087168647
  C   -0.77445031383818     -2.47225246951873      3.43574401044390
  C   -1.45606013017982     -3.31541227119753      2.55251493931627
  C   -2.72314989841168     -2.97811400387218      2.05577976120525
  H   -4.28064969115022     -1.47536169716261      2.11269317678769
  H   -3.07875196556117      0.02008440422133      3.67248559517530
  H   0.21273865337848     -2.75952806318947      3.80461408700491
  H   -0.99087968650030     -4.25633376360898      2.24334764668143
  C   -3.45538719346031     -3.87506188399621      1.08676209954103
  H   -2.95205975911003     -4.84712861013901      0.97389209083747
  H   -3.51760566098648     -3.41400541990709      0.08553915224884
  H   -4.49041919498508     -4.06477486657564      1.41632368868440
