25
Coordinates from ORCA-job 2222_0.0
  C   0.12982396132170      0.65749788260027      4.51313720527982
  C   -0.39965441953100     -0.72298164563346      4.78151882238541
  C   1.10199901058713     -0.37600120804592      4.95460207906789
  C   2.22228984413762     -0.87008877366243      4.06119720406762
  H   1.34834418474570     -0.29415269024399      6.01966881938500
  O   -1.00770198587655     -0.89951815370781      6.02685277799125
  C   -0.87990261757912     -1.62141096250154      3.64684933800632
  C   -2.12028142690911     -1.14076946717379      2.87989083472102
  F   0.19365788984911      1.09798872297091      3.23228227350346
  F   -0.20138742845279      1.68183047246369      5.32448139358066
  C   3.47879984853692      0.00072200305449      4.17012131530540
  H   4.28622827473712     -0.38465000135317      3.52711542037695
  H   3.85894717340909      0.03152117084260      5.20457978805102
  H   3.26735167935089      1.03749151721443      3.86157783440389
  H   2.46195497910535     -1.91379349899762      4.33041088390954
  H   1.88781625230208     -0.88727154960176      3.01175247561860
  H   -2.36072486436328     -1.84225185094202      2.06447344476135
  H   -1.94468810101984     -0.15124069408147      2.43034428860121
  H   -3.01152067620964     -1.06755822292555      3.52054399271557
  H   -0.06063212875277     -1.76306925046939      2.92570271132960
  H   -1.06317646258129     -2.61367883327502      4.09490153901574
  C   -2.32480106127387     -0.40487647085578      6.18662200646712
  H   -2.51140992479297     -0.33782341504493      7.26911007084357
  H   -3.08209542532756     -1.08100575246237      5.74938502377513
  H   -2.44469657541295      0.60043067183164      5.74725845683682
