22
Coordinates from ORCA-job 2224_0.0
  C   -0.02350519629250      0.56003135350778      4.57094155139540
  C   -0.52855422163118     -0.84832920726714      4.52768440554046
  C   0.93120365861555     -0.52991224374108      4.91128729138988
  C   2.07676445484685     -0.88942996743701      3.98294581840460
  H   1.14010327428855     -0.62366245910807      5.98373922879708
  O   -0.72435001262590     -1.46480148231998      3.30691124901849
  C   -1.92528188616125     -1.11358013389680      2.62067373283937
  F   0.12895129255108      1.23490149377836      3.41249431718979
  F   -0.46422598114716      1.39700848280251      5.53370739130018
  C   3.29661225486139      0.01792815921742      4.16408994525507
  H   4.11664677979061     -0.28324169392597      3.49239757854482
  H   3.68149862818065     -0.01922993104033      5.19707634830533
  H   3.04499279807782      1.06689955640352      3.93853681187791
  H   2.35467868497980     -1.94193313747275      4.16642732837557
  H   1.72063459418336     -0.84719924372471      2.94312876592667
  C   -3.15654183234993     -1.82785131190197      3.16446775572674
  H   -1.75268001975369     -1.40259363314529      1.57159434372412
  H   -2.06267859747853     -0.01702479208101      2.64105286188395
  H   -3.01507832844463     -2.92007631517866      3.13840644814239
  H   -4.03958028134311     -1.57897148215322      2.55331086083541
  H   -3.37944898715731     -1.53385420577826      4.20292500598895
  H   -1.19364107599047     -1.15097780553733      5.35053095953773
