22
Coordinates from ORCA-job 2225_0.0
  C   -0.15341300667724      0.54955748788407      4.41774120692481
  C   -0.51700295164311     -0.87873099030451      4.79270482109702
  C   0.90261784015253     -0.39869045144988      4.94482127007014
  C   2.05534349193023     -0.94637400364040      4.12448335885612
  H   1.16082763543347     -0.17293091397722      5.98722196268111
  O   -1.22647017535904     -1.17633260570001      5.93448600492656
  C   -2.56790065285170     -1.61440765458818      5.73390590260581
  Br  -0.17632553533137      1.03203906864919      2.53244836337518
  Br  -0.71708256269683      2.00051326073312      5.56269413522910
  C   3.26671977290997     -0.01121615108137      4.09618605302062
  H   4.09200070648606     -0.45048371388151      3.51317970192937
  H   3.64354665941893      0.18685051561042      5.11339596305095
  H   3.00975264904925      0.95782380439972      3.63941206405138
  H   2.34109512552032     -1.92188009183402      4.55736024784797
  H   1.71323944220755     -1.15088399136418      3.09701718698942
  C   -3.52763897331559     -0.52720135847522      5.26832904244422
  H   -2.88282019977441     -2.01275129228617      6.71100252147980
  H   -2.57226551374712     -2.46106428631081      5.01771542219488
  H   -3.55238327542143      0.30964620425215      5.98242860636717
  H   -4.54480764175896     -0.94387083764535      5.18139157766629
  H   -3.24303956453481     -0.12541325162027      4.28282189048872
  H   -0.72889326999668     -1.53132874736957      3.93123269670327
