42
Coordinates from ORCA-job 2227_0.0
  C   0.64886990023761      0.49166490404355      4.62201015121581
  C   0.19924253602624     -0.87831944455143      5.03163128655604
  C   1.69611536720544     -0.57561880865015      4.90090134782538
  C   2.54335224317090     -1.18192791757054      3.75055064828580
  H   -0.12534011375918     -0.90155087324130      6.08136910892589
  C   -0.58169270704998     -1.83399759572569      4.17358701018934
  Br  0.37244660191878      1.16654060902331      2.83586817641440
  Br  0.42541777225580      1.92118009075941      5.93901287208875
  C   -0.14537801653329     -3.14912974587840      3.95490813292331
  C   -0.94703902881508     -4.03907785457551      3.23979226826876
  C   -2.19017935511958     -3.65203840654033      2.72732980929712
  C   -1.82741082070545     -1.43994389956127      3.67342253584506
  C   -2.62167744653624     -2.33947359662316      2.95334223522916
  H   -2.20158439177239     -0.42697685994536      3.83032769904691
  H   -0.59874030403753     -5.06067177590752      3.06691092291825
  H   0.82273841205266     -3.47744734962968      4.33876551473877
  H   -6.37953886981837     -1.30011916563750      2.36855981794462
  C   -4.65852032078144     -2.33383401145694      1.59331532549175
  C   -5.85508446530308     -1.43289945286140      1.40957905911493
  O   -3.83908676098302     -1.81060381719260      2.54743677588528
  O   -4.45343069613649     -3.35445419739415      0.99238106618441
  H   -6.53112966305428     -1.87037627449336      0.66521636571460
  H   -5.52456563711841     -0.43558469417408      1.07924389473623
  H   -2.80349424866305     -4.34431463398055      2.15702747989654
  C   2.59621469813124     -0.50206329227148      6.14580164787365
  C   3.85468138654830     -1.42259865054761      4.33063288476155
  N   3.85750155667331     -1.04253311943878      5.65784173107336
  H   2.20574997392532     -1.10829071270352      6.97934012999504
  H   2.72450837673524      0.52999717251085      6.50590904520775
  O   2.15561817225886     -1.41069934825809      2.62677427594176
  C   5.12317896952190     -1.90448552704363      4.01613343397368
  C   5.90929630716673     -1.80846101436367      5.18960820187676
  C   5.08266530291946     -1.26582036556125      6.18529024924368
  H   6.94755262365886     -2.09062853648726      5.32413020464081
  H   5.44136895342210     -2.28053960136108      3.04605374385534
  O   5.24749482897323     -0.93270984686285      7.49695897216381
  C   6.42640305889116     -1.14994834907384      8.17009804753361
  C   6.29546614843221     -0.67277082891100      9.59176441292110
  H   6.06454955230952      0.40402209454643      9.60734940544967
  H   7.23372214929077     -0.86230632910844     10.12643003091009
  H   5.46331222783662     -1.19270553264174     10.09144772019403
  O   7.39305572662452     -1.64559344065833      7.66458635764702
