49
Coordinates from ORCA-job 2230_0.0
  C   10.30500854647938     -3.70777014639589      8.34203289561324
  C   10.09902026442872     -2.45654470716571      7.50596295776156
  H   9.75740018075765     -4.56382095756826      7.91491499540551
  H   9.93308912739516     -3.56252559991350      9.36963623994750
  H   11.37769975772626     -3.93859080374123      8.37162859123224
  C   8.70051649119985     -1.93761684274009      7.31717019592757
  C   7.56725578057864     -2.55579398048496      7.87394125472831
  C   6.29192799352654     -2.03087058309274      7.66472115253331
  C   6.11528145569563     -0.87247197299160      6.89010021436513
  C   7.24763763451602     -0.25689583616069      6.33152361414446
  C   8.52168856360781     -0.77962549297978      6.54248342311738
  C   4.73013172994070     -0.29873088135476      6.65902656572235
  C   3.78993717766915     -1.27866942484594      5.95090816848340
  H   4.80289286086218      0.65134829668752      6.10844851207073
  H   4.25422320184612     -0.07870013870153      7.62976346740410
  N   3.38063796594466     -0.89055591114082      4.69886472694889
  C   2.54235384447522     -1.70921317181342      3.88533585250942
  C   2.93258326118734     -1.88536936182134      2.39219222449002
  C   1.20559515740193     -1.14532587230941      3.29665863041915
  H   2.39348689548285     -2.66336064948717      4.41306521998882
  N   1.62139758772261     -1.63359885753338      1.98082697513222
  S   1.11957611619391      0.68096823221536      3.08737218440183
  H   0.26490918508070     -1.55928230185112      3.68784152731648
  C   0.54564623807274      0.46859740110773      1.30770727352678
  C   1.27101010118179     -0.85169012497244      0.81300746902441
  C   0.99301865798835      1.68505201464849      0.49254208320880
  C   -0.98510760276638      0.33456681737885      1.29752804324154
  O   3.94347971703213     -2.04391997886081      1.76814959803594
  O   3.43233403278217     -2.32215108751337      6.46630279526316
  O   11.04521422311910     -1.88560465083036      6.99800816265503
  H   -1.32468661060075     -0.56233496281468      1.83579250530404
  H   -1.36032054140815      0.27006725445231      0.26248269921498
  H   -1.44352466383245      1.21561340895296      1.76937558399528
  H   7.67065131215120     -3.45898564857803      8.47886922223585
  H   5.41600368224251     -2.52896274644022      8.08488832695643
  H   9.40670668756079     -0.30643198622211      6.11193227843322
  H   7.12877049959459      0.64590250601413      5.72480645560052
  H   3.72776945051033     -0.02354772150218      4.30523314825807
  H   2.08266051220933      1.82710214809551      0.55204132901801
  H   0.50198175488863      2.60294604466467      0.85206526438349
  H   0.71804884566850      1.54249436577974     -0.56455657116844
  H   2.20411656285719     -0.57965307372423      0.29332529165882
  C   0.41308372418258     -1.64337298400118     -0.17574449171232
  O   0.46461713656207     -1.07105553699884     -1.39383249488303
  C   -0.30266337613897     -1.70139740819982     -2.42469625101085
  H   0.02761913691339     -2.74065451493920     -2.57092967397644
  H   -0.13184414630367     -1.11426759325746     -3.33530240991098
  H   -1.37263995852647     -1.70742989620424     -2.16634667008843
  O   -0.23187615565974     -2.62413508084473      0.08220144307235
