25
Coordinates from ORCA-job 2231_0.0
  C   0.12482629512689      0.76837925282930      3.83050457312217
  C   -0.41552541468095     -0.60387374616405      4.18222481797439
  C   1.09570033006353     -0.29516669869119      4.30669306339245
  C   1.95134166008955     -1.03855501460446      3.27481766216564
  C   1.77591105300378     -0.14659885851610      5.65749651971450
  C   -1.30397787391703     -0.77499148751906      5.40335854210028
  C   -0.73862701821648     -1.58988129008234      3.05415476223546
  Cl  0.14177117737796      1.35821603287511      2.13953997748483
  Cl  -0.24492483605743      2.14200432247701      4.91484676476989
  C   0.12585980339827     -2.85977393617059      3.16700693632832
  C   1.64580537902961     -2.54893301364526      3.28095987324813
  H   1.77763329546602     -0.62736820599427      2.27070227654090
  H   3.01830502995501     -0.86959633907378      3.49365396841702
  H   -1.80742909350370     -1.85632110617158      3.09489849885708
  H   -0.58038455366025     -1.11440669384448      2.07602305375268
  H   -0.07216436298187     -3.50615527796852      2.29646665674145
  H   -0.20083234573331     -3.43785989324177      4.04792892362223
  H   2.04638343719120     -2.99393537611522      4.20736985340135
  H   2.20022960510257     -3.02690308833099      2.45688866133522
  H   -2.34751831554782     -0.52654067227765      5.14788205912976
  H   -1.00950726226979     -0.14026217932086      6.24763995372663
  H   -1.28309296795581     -1.82499132836474      5.73977922033431
  H   2.67406837699756      0.48552470439860      5.55987833977472
  H   2.10044469277708     -1.13408486039614      6.02611285287669
  H   1.13314390894539      0.30834475391302      6.42067218895384
