25
Coordinates from ORCA-job 2231-2_0.0
  C   -0.43917308867811      0.86177099183935      3.04747997858276
  C   -0.66971075807093     -0.56215419935934      3.51167260418309
  C   0.54914593189938     -0.20254997705882      2.61780796870084
  C   1.74841836301834     -0.87514296567077      3.25287262359546
  C   0.54816997567718     -0.48029094107041      1.10749946397964
  C   -0.52448421885752     -0.75531410161885      5.02805705688896
  C   -1.28472898317045     -1.80525756384265      2.90290857239121
  Cl  -1.52287711140615      1.61577298660385      1.83219987539472
  Cl  0.03338455223392      2.12224005523861      4.23412525736506
  C   -0.12882227708161     -2.88440413318602      3.04248398215972
  C   1.39299047907617     -2.41860393178278      3.14799962417091
  H   2.69598979440802     -0.68186155624585      2.72187951244469
  H   1.89673515631325     -0.56685580173771      4.29515485906185
  H   -2.18183517588822     -2.16052061457924      3.43782681563612
  H   -1.57384260906595     -1.65836087448731      1.85487203994847
  H   -0.20907167801433     -3.58551202181798      2.19644678507127
  H   -0.35009415813776     -3.48947347393843      3.93437501034479
  H   1.84491089384559     -2.93476620826436      4.00997815339366
  H   1.92069988000154     -2.81876385836351      2.26945941706614
  H   -1.52850001059878     -0.63495913365961      5.46990012914603
  H   0.13264303132360     -0.02856928343138      5.51472304583280
  H   -0.17358000295885     -1.76316609552565      5.28787737609814
  H   0.83541622585815     -1.51427076370320      0.87327672975797
  H   1.30765754582310      0.17979670561382      0.65446715015352
  H   -0.40255175754959     -0.26903323995178      0.60891596863213
