25
Coordinates from ORCA-job 2232_0.0
  C   0.04471396823934      0.77065107697933      3.81293205234926
  C   -0.48416655176886     -0.60371047846778      4.17605427613597
  C   1.01572765521765     -0.29473437999446      4.24295281631491
  C   1.91628968874386     -1.05095451434800      3.26991531666697
  H   1.43904446904555     -0.13185652232230      5.24165025090657
  C   -1.29371694397418     -0.78708322228683      5.44760177397202
  C   -0.82571130505606     -1.59016872076987      3.05766728601481
  Cl  0.01797047977996      1.36702637935741      2.12926299730380
  Cl  -0.24017524849953      2.12370232003497      4.94229661591384
  C   0.05189938769118     -2.85668198309476      3.14858629674588
  C   1.56731488458739     -2.55463377301221      3.32814553971206
  H   1.69880241768374     -0.68726041152853      2.25261016909383
  C   3.39904175521921     -0.78870596943496      3.54769514585385
  H   -1.89133651877646     -1.86527728892754      3.11799828121161
  H   -0.68824180654264     -1.11108698696334      2.07829243187950
  H   -0.11394082362623     -3.46240914317429      2.24282374359698
  H   -0.29860401925968     -3.47808779221377      3.98956141251136
  H   1.91250850739910     -2.94757340231333      4.30075136025661
  H   2.15747277998756     -3.08703923485431      2.56376986746278
  H   -2.35082169305619     -0.52343028297935      5.27650000634881
  H   -0.91951679963153     -0.16781273525240      6.27366508442408
  H   -1.25774450381179     -1.84213000662484      5.76617703824022
  H   4.03860446778399     -1.32591578454595      2.82838858809546
  H   3.68096549934152     -1.12481664297747      4.56052513629548
  H   3.63450025328311      0.28514949971457      3.47244651269329
