21
Coordinates from ORCA-job 2234-2_0.0
  C   -0.43420569110922      0.80110826365335      3.03568298736968
  C   -0.60615657311016     -0.64581393169336      3.52648562005676
  C   0.53563533698778     -0.30981425947591      2.59652588886540
  O   1.70687181587862     -0.88680219255349      3.11285850770729
  C   0.44327379287970     -0.56410749041411      1.08150070422555
  C   -0.39119232008867     -0.76441280892571      5.04471900948038
  O   -1.24882668149354     -1.79650156742406      3.04053734714198
  Cl  -1.48792652225360      1.51343691488799      1.79320231134377
  Br  0.06019857417769      2.18728973628547      4.32122996627739
  C   -0.13997565693098     -2.73746373301831      2.86095225554214
  C   1.31813481964123     -2.28371496095087      3.32294657916858
  H   -0.12112003391739     -3.01726134744925      1.79766210670795
  H   -0.37626749103474     -3.64882161905865      3.43586766941757
  H   1.45444455501903     -2.50116028265190      4.39211559410085
  H   2.02866059627444     -2.91780421038732      2.76609801280024
  H   -1.16049737078282     -0.17564523493373      5.56734805658785
  H   0.59237967791490     -0.41089285334079      5.37581206163642
  H   -0.51684094105892     -1.81271966099669      5.34527940055642
  H   1.15161881579301     -1.35649240251790      0.80719739894624
  H   0.73819874424100      0.34783813772961      0.54026961068199
  H   -0.56214744702739     -0.84628449676435      0.74723891138547
