23
Coordinates from ORCA-job 2235_0.0
  C   0.15511681809485      0.80199995084478      4.53039062608755
  C   -0.40487514029105     -0.61089403609878      4.55947162695868
  C   1.04379299191302     -0.32317814575337      4.98440985637837
  C   2.25971900264298     -0.79675585642274      4.24503686139000
  H   1.15736845725271     -0.34637892550418      6.07543279969609
  H   -1.10706437269902     -0.81757314004270      5.37411586578151
  C   -0.74106167545881     -1.31138448706340      3.34291925314079
  Br  0.44777010064939      1.65584094854644      2.83128061548734
  Br  -0.50717721234469      2.02256005810302      5.88513829519902
  C   3.36485546570696      0.05563534551139      4.10319057268544
  C   4.53441426853630     -0.39318862025443      3.48631280803658
  C   4.64173528334587     -1.70408050505712      2.99652136794941
  C   3.53268988454674     -2.55227597151640      3.14803106105792
  C   2.36010263290921     -2.11009788462534      3.76225283965058
  H   3.30990788499681      1.08250255298174      4.47397242971060
  H   5.38084731068936      0.29185561621524      3.38175449687304
  H   3.58440151539758     -3.57990079468392      2.77599421540562
  H   1.51656026119974     -2.79688493466135      3.86206146672618
  C   5.90411988468581     -2.19744701531318      2.33193023643751
  H   6.65268035657725     -1.39677374825071      2.23763992536279
  H   5.69756400842426     -2.58893886029886      1.32187873034645
  H   6.36207849358436     -3.01992059313831      2.90768927132415
  N   -1.05316622035967     -1.90031095351780      2.39387477831432
