25
Coordinates from ORCA-job 2235-2_0.0
  C   0.10319884459667      0.66827448367188      4.41441909928197
  C   -0.29672617937684     -0.77223654782372      4.58258269166082
  C   1.09574768620431     -0.32527905279673      4.97613764853527
  C   2.33123714486318     -0.78464171545951      4.26319718602370
  H   1.21862920066465     -0.19389746739978      6.05861818961172
  H   -0.39490062922280     -1.31784267391523      3.63933702397172
  C   -1.28967248019016     -1.29338654756925      5.59135129751081
  Br  0.30804541741423      1.28489058457269      2.58941657808177
  Br  -0.58540024400474      2.05443049289785      5.57593094960761
  C   3.44982699578110      0.05816503873364      4.18964388673167
  C   4.61968668717913     -0.36539146844681      3.55576707529646
  C   4.71539080849870     -1.64301745771342      2.98208115949309
  C   3.59442875389244     -2.48474300184842      3.06868531340798
  C   2.42111011216253     -2.06470290678950      3.69783164489694
  H   3.40269189078141      1.06012713313625      4.62512100462376
  H   5.47640797150531      0.31293846398428      3.50404911180884
  H   3.63953288658133     -3.48911690005807      2.63664693268834
  H   1.56862025151759     -2.74673894079728      3.75945660364400
  C   5.97744632070799     -2.10747489334693      2.29603159151952
  H   6.74843644259149     -1.32273523679716      2.29116396001478
  H   5.78125645687237     -2.39445691857936      1.24920606181582
  H   6.40229301450473     -2.99366286662665      2.79758361205479
  F   -2.54383239404332     -0.95343279779088      5.26178289407957
  F   -1.05952656032977     -0.86032878255127      6.83909422113632
  F   -1.23121839915155     -2.63980002068660      5.61676426250268
