32
Coordinates from ORCA-job 2237_0.0
  C   0.47483134509291      0.59179948417841      3.75654333817540
  C   -0.65227350445544      0.03431469378920      4.59805183340235
  C   0.82897097708076     -0.26068016063795      4.94335723510619
  C   1.62758733416850      0.12034340816886      6.14995479687221
  H   1.08962366382334     -1.27078977078117      4.62249334972464
  H   -1.16222493677175     -0.81161931202652      4.13223475749801
  C   -1.61364302702758      0.86465381130811      5.39220553096295
  Cl  0.66646613454350     -0.14932616344360      2.14212876820689
  Br  0.86841713196665      2.48009585731949      3.70609059120989
  C   2.66859209367437     -0.76560621618249      6.53690612597495
  C   3.47415133360136     -0.47865939921998      7.64695716204408
  C   3.27871556186933      0.68675794641481      8.40357643148834
  C   2.25442880799759      1.56057495617757      8.02136629356001
  C   1.44578513308022      1.27938340817058      6.91769150264076
  H   4.27156947604323     -1.16486772456956      7.93418971972097
  H   2.08024658894057      2.47778598811073      8.59084148544147
  H   0.64778060840349      1.96998194623767      6.65228096850687
  C   4.13605777480191      0.97349576151219      9.61291141147863
  H   5.06884098063252      0.38901996882978      9.60165878481130
  H   3.60096795861668      0.72379667619907     10.54632803392095
  H   4.40307778509048      2.04075899454612      9.67125807060999
  O   2.83141055479385     -1.88470127612851      5.77613368131361
  C   3.85374744140952     -2.80525234058026      6.08278359587834
  H   3.79123477603493     -3.60229080022579      5.32916525897756
  H   3.72137650365283     -3.25012386123087      7.08577543849155
  H   4.85459399651670     -2.34022853120584      6.02923869855604
  O   -1.40420560936338      1.90922903535157      5.96018782864097
  C   -3.86113143578604      0.93372616461637      6.10086197389857
  O   -2.82108012483041      0.26553602730355      5.38548293549869
  H   -4.75343029025016      0.30336867555313      5.99997213062794
  H   -4.04825976927981      1.93210808848065      5.67646153207858
  H   -3.59294526407069      1.05154466396468      7.16201073468111
