45
Coordinates from ORCA-job 2239_0.0
  C   -0.49197364518047     -0.02207890528691      2.79545286162631
  C   -0.63087466003642     -0.25813115144110      4.28828675443820
  C   0.28120597017086      0.87023168413162      3.73517626779422
  C   1.73725375155025      0.47775367354798      4.01046940607518
  C   -0.00662391990104      2.35793726269057      3.76273450112255
  C   -1.97171082746047     -0.15176131531409      4.97569781892365
  C   0.29362588637761     -1.34638146088031      4.87181540556387
  Cl  0.31001693855593     -1.21898873144131      1.72574433046431
  Cl  -1.84901361633055      0.71951879006074      1.90028245032616
  C   1.75433277601422     -0.98315132400512      4.51653386923559
  H   2.41317230592882     -1.09220864837745      5.39224865988869
  H   2.14212547521541     -1.65623591240430      3.74100165646271
  H   0.00656330587996     -2.34275682730744      4.49812784167124
  H   0.13816241356289     -1.36083446953166      5.96160828456392
  H   2.35931212547790      0.61391470026907      3.11019557190839
  H   2.12999756649869      1.16799354471434      4.77538687220259
  H   0.48691196852701      2.84958390243371      2.90739318498067
  H   0.39089606244854      2.80921146392409      4.68479786812518
  H   -1.08003329787538      2.57628883704905      3.69802745066102
  C   -2.15109054281215      0.52318114114674      6.20439496230924
  C   -3.40793527790358      0.47453499040868      6.86050661896164
  C   -4.43362206844956     -0.23816284695186      6.27483553519724
  C   -4.24952710723831     -0.91861336672441      5.07067209680290
  C   -3.03840550949024     -0.90101695916743      4.41233747839144
  H   -3.56137890191754      0.97556790386259      7.81843466621224
  H   -2.90623920144373     -1.44576103387445      3.47757538797240
  C   -1.04500573283231      1.30614881785906      6.88399128180599
  C   -1.34602910346980      2.80251660869718      7.00633085452199
  H   -0.09715261887069      1.20124128293834      6.34301984953789
  H   -0.86538483859299      0.90595988344030      7.89726828298615
  O   -0.16631371879500      3.46483410037022      7.39795156557839
  H   -2.15398680170782      2.98014354632147      7.74681280471491
  H   -1.71280092075493      3.19959371685320      6.03809048247715
  C   -0.32872642814028      4.84598685964622      7.63883357075664
  C   1.01231926820476      5.44420857364960      8.02324798014059
  H   -1.07138334465453      5.00719624820772      8.44939607035836
  H   -0.73417451606471      5.34909617680147      6.73511541988137
  H   1.41161138433170      4.95054220977062      8.92320840145515
  H   0.90994773650070      6.52097190868712      8.23218608031186
  H   1.74420381615388      5.31597450442328      7.21014393684271
  O   -5.70726981553612     -0.44940934930902      6.72680548216285
  O   -5.40534595221890     -1.57687407960979      4.74189957807152
  C   -6.38460586797375     -1.14124188698014      5.67925407354357
  H   -7.09972530742872     -0.45449598300810      5.18260710390619
  H   -6.91771520831897     -2.01269808029026      6.09404937906441
