38
Coordinates from ORCA-job 2243_0.0
  C   2.34065040200178     -1.63345965502489      2.95430728880261
  C   3.03890008925035     -1.12058849029170      1.85103980118067
  C   2.30713588529844     -0.52418773951388      0.81245858711860
  C   0.94737518200372     -1.55546852120009      3.01674768989946
  C   0.21588220641219     -0.96485141024176      1.97547938636064
  C   0.91500652151109     -0.45064717372392      0.87219893646090
  H   2.83434910900540     -0.11644061098626     -0.05466890728928
  H   2.89268198442518     -2.09630183161315      3.77600424287044
  H   0.42207399169879     -1.96489781045912      3.88265695632458
  H   0.36082056023182      0.01233183719128      0.05073001980818
  C   4.52969973262810     -1.24785951288432      1.76104620704129
  C   5.42581795619056     -0.03528860286628      1.49308877328188
  C   5.46006374762062     -0.72694508922055      2.81039288897153
  H   4.91432805499683     -2.15999534232313      1.28504349464525
  C   -1.27678475069113     -0.84643184776776      2.04995277220687
  C   -2.17934385532083     -1.45832351500722      0.97267875276814
  C   -2.17501053686155     -2.00206017415554      2.35745774568975
  H   -1.67428889291016      0.10204319757378      2.43570625036020
  F   4.96864873434634     -0.10103285679571      3.89081633630816
  F   6.54304580138898     -1.45156844458987      3.13611689200915
  F   -3.25295260963499     -1.79619359186967      3.13201543117014
  F   -1.65505114745260     -3.21821386645636      2.58622374626007
  O   6.47692680283696     -0.24807095701713      0.59161000222914
  H   4.97005786813005      0.96058067643197      1.46964709468929
  C   7.56885813573441      0.56069720042147      0.74054273743479
  O   7.61614520400386      1.44384142378305      1.55295571975030
  O   -3.26314119196485     -0.66750469153803      0.56977670211093
  H   -1.72114058685415     -2.07738261193946      0.19382640634777
  C   -4.34919939703638     -1.34251047204440      0.08537490071181
  O   -4.35914017302824     -2.53408382512635     -0.06401200343177
  C   8.64861498241428      0.17846964094363     -0.23748565860816
  H   9.02112900527670     -0.82983578554554      0.00413008442156
  H   9.47090035070442      0.90146241971418     -0.17777331514389
  H   8.24297681472217      0.14048960014876     -1.25984652100313
  C   -5.47544985245932     -0.38887378126237     -0.21408871651317
  H   -5.12148543456045      0.43295380835984     -0.85472356062140
  H   -5.83314606590390      0.06022007656331      0.72625916188614
  H   -6.29513462815455     -0.92976166966675     -0.70195632650948
