29
Coordinates from ORCA-job 2245_0.0
  C   -0.18419121619941      1.49111749170137      4.50377193658358
  C   -1.00405206701194      1.54847182508526      3.26074259391837
  C   0.51735533851821      1.79367930803704      3.21871946869417
  O   1.28314853014399      0.81987541791880      2.61318402549479
  H   0.84996618739123      2.83437816154443      3.07487188960992
  H   -1.60163590848701      2.46304068725107      3.16680357807261
  C   -1.60108171343787      0.29896601032807      2.64635341871620
  C   -2.90987418385041     -0.11167801813991      3.31112358751854
  C   2.60017896438989      0.68856041507443      3.13671471351823
  F   -0.32103928485352      2.45730632514594      5.43646434061092
  F   0.03405649829210      0.30200375016254      5.10032906234000
  C   3.32971252642867     -0.39054477918618      2.35174893461698
  O   -3.42318573959141     -1.23021824400032      2.63131663154057
  H   -3.63866608588091      0.72884701176122      3.28590478536367
  H   -2.73272533147896     -0.34767367400813      4.38241273373411
  H   -0.88664457492576     -0.53356032312819      2.71230071208428
  H   -1.78642063545485      0.47053844147586      1.57285810988609
  H   3.13572325543991      1.65694460715170      3.05375934694667
  H   2.55530803273894      0.42804468002693      4.21171781776446
  C   -4.62648308175808     -1.71626810665456      3.16018460519741
  H   -4.51734719076854     -2.04226363370365      4.21553195999208
  H   -4.93485687315652     -2.58332815745954      2.55676536297333
  H   -5.43574201696074     -0.95691561488881      3.12332249110415
  C   4.76522899506011     -0.60596990732971      2.83294084597135
  H   3.31891333184022     -0.11112095609807      1.28411014470414
  H   2.75298023628094     -1.32793616904843      2.43245373947530
  H   5.36814891276886      0.31303489900917      2.73700355939898
  H   5.26578028028806     -1.39194311824354      2.24597444519249
  H   4.79557481423479     -0.91336832978479      3.89197515897655
