29
Coordinates from ORCA-job 2246_0.0
  C   -0.19601266176269      1.39188687775227      4.58044793995849
  C   -0.98072600772836      1.43846947814400      3.28670154693066
  C   0.51700617378550      1.65832508924734      3.26622516799191
  O   1.29334135620480      0.68050935499532      2.69105015609495
  H   0.88091166322752      2.68918556119075      3.13502848195197
  H   -1.57101679697129      2.35610307890671      3.18095402529409
  C   -1.61331203418466      0.20849929763648      2.66966192274339
  C   -2.97662226800861     -0.10491769061885      3.27473041227493
  C   2.65831496136618      0.70287728674554      3.09586584916319
  Cl  -0.38694792438154      2.74323448460073      5.72068448040640
  Cl  0.06897720530428     -0.16320773148277      5.38923426873310
  C   3.39894717178610     -0.41710919925684      2.38281816093559
  O   -3.52000482756218     -1.21390106316827      2.60288481283527
  H   -3.65069263197873      0.77583390923622      3.18383309927712
  H   -2.87020701538269     -0.31381797610643      4.36017978034680
  H   -0.95306786464942     -0.66201254758755      2.78367711324477
  H   -1.73525169960691      0.37481943067382      1.58586973790466
  H   3.10424856134548      1.68750206337068      2.84438207376088
  H   2.72812102066871      0.58114525792964      4.19352770298113
  C   -4.76884994444301     -1.61867302389518      3.09305254549266
  H   -4.72250439613732     -1.91212391155781      4.16246170703333
  H   -5.09706364191526     -2.48946998429897      2.50582183938033
  H   -5.53456146126516     -0.82045897395690      2.99607043049429
  C   4.88567460877082     -0.46082651748133      2.73765446414415
  H   3.26499289525518     -0.28603082914635      1.29522260485389
  H   2.91267446127566     -1.37275157326702      2.64324497974730
  H   5.39708298923281      0.47667622830613      2.46048020737194
  H   5.39479979751737     -1.28278544606516      2.21060053182285
  H   5.03990831023743     -0.61497093084620      3.81901395682995
