33
Coordinates from ORCA-job 2248_0.0
  C   -0.13908051068949      1.19043930577024      4.49219910290442
  C   -0.93091432707989      1.20561188245830      3.20608639011247
  C   0.58943820146864      1.39209772516063      3.17511561038932
  C   1.52590740715073      0.32599214788420      2.63258392739500
  O   1.04288836370396      2.69846272473988      2.98807383706755
  H   -1.46216481140649      2.15726821017755      3.08280153181862
  C   -1.67832588534145      0.00674161601679      2.66101709177901
  C   -3.05357939618591     -0.15140382946922      3.30141730158612
  C   2.92193269872272      0.41062447988610      3.24199434418051
  Cl  -0.29509230221718      2.55603534432378      5.60886964618681
  Cl  0.06240466037715     -0.35229197094230      5.36512293678087
  O   3.73011808931039     -0.56169434983699      2.62306769715048
  O   -3.69676661793890     -1.25247710417995      2.71020908090995
  H   -3.65286627756959      0.77532313275794      3.16143193949245
  H   -2.94330295997789     -0.29795607140393      4.39659444855970
  H   -1.11369349638158     -0.92309762989406      2.82123315860484
  H   -1.80724195387928      0.11816639295733      1.57069963473857
  H   3.34112714269295      1.42691929270405      3.09689398846856
  H   2.86546414833153      0.23888102469728      4.33695001025062
  C   -4.96332270225131     -1.52631644139769      3.24594788594643
  H   -4.91635043417192     -1.75284951579169      4.33123980479906
  H   -5.36837616589056     -2.40524973074313      2.72237012899738
  H   -5.66696296401664     -0.67893737512591      3.10774589209774
  C   5.04508414687985     -0.59322563314881      3.10772914258577
  H   5.56935780851944      0.37306365764310      2.95393837043503
  H   5.58903873144648     -1.37728891278973      2.55974449013723
  H   5.08458148605570     -0.82848747946727      4.19161442525969
  C   0.90552530105606      3.21402822235124      1.68064998600091
  H   1.21923646343389      4.26712531875387      1.71752647486561
  H   -0.14274566556157      3.16933593267257      1.32836392515555
  H   1.54130647713647      2.68417484243910      0.94711006356550
  H   1.61134100621253      0.43923671014790      1.53814836846186
  H   1.12090433806117     -0.67864191935118      2.80998936331634
