41
Coordinates from ORCA-job 2249_0.0
  C   -0.23757797231110      1.70117204490629      5.21809225583880
  C   -1.05050705165430      2.20133575426084      4.05190241570755
  C   0.47075307767255      2.32943927290925      4.04499913422319
  C   1.38213677618479      1.56474975228843      3.10408292828826
  H   -1.57680200388737      3.13747358018902      4.27370061170851
  C   -1.83467023117255      1.29421630941249      3.12335904513497
  C   -3.24443584006362      0.98987989582232      3.66905127743553
  C   2.83336830275813      1.49763288149278      3.62178216791165
  Br  -0.32117694517127      2.70444583474695      6.88145753175391
  Br  -0.07282617692112     -0.20786778125847      5.54450871205075
  C   3.76215653193726      0.83080779020606      2.65424876738243
  C   -4.06674693143456      0.16109785636755      2.73120652117077
  H   -3.76687829039202      1.95022260661981      3.84289443393368
  H   -3.16179507387857      0.49189447770395      4.64869143513504
  H   -1.29981556660293      0.34812145672212      2.95373004999863
  H   -1.91680693304756      1.78905490336546      2.13893237130539
  H   3.18941700792423      2.53070944567214      3.79912861420442
  H   2.85689670719046      0.98188868799520      4.59534562461622
  C   -4.59410786357560     -1.03969778788847      3.01209647143524
  C   4.49532047328553     -0.26430895669187      2.90390851259218
  H   1.36442840134953      2.06693800224428      2.11998099091192
  H   1.00889276648730      0.54324896339930      2.93939765888917
  H   0.83552573560671      3.34072908596709      4.26118973427937
  C   5.38297796665172     -0.84007523104239      1.86294442795212
  O   6.03337065132363     -1.92677470115758      2.33150093500814
  C   6.92594818718830     -2.56576892330238      1.42182106701726
  H   6.39159925606987     -2.91157431011721      0.52318982996703
  H   7.35575946194198     -3.41964969599147      1.96098295443715
  H   7.72308696974018     -1.87574635886164      1.10328227119325
  O   5.52603943474648     -0.41595696893221      0.73818112997781
  H   3.84612833422569      1.26904835435027      1.65083329154977
  H   4.47292584107869     -0.77034314783799      3.87337047248950
  C   -5.39832606454045     -1.77453211892396      2.00416504548182
  O   -5.82359522254370     -2.95679000731556      2.49822753608984
  C   -6.61506133592435     -3.75682746412890      1.62334379984910
  H   -7.53272370751724     -3.22506065038401      1.32655015776424
  H   -6.86756759406562     -4.66680084596115      2.18259353633539
  H   -6.05574554475096     -4.01340890193585      0.71000979121964
  O   -5.65630594364656     -1.39251290003652      0.88485438645701
  H   -4.25064056934102      0.56393177181511      1.72634103256618
  H   -4.45928902092058     -1.52031197668910      3.98539106873707
