44
Coordinates from ORCA-job 2250_0.0
  C   -11.50009909308132      1.16503933150548      0.34213005172026
  C   -10.28488004251947      1.70572636260920      1.09311553391692
  H   -11.20667091859672      0.54582509180470     -0.52117382243004
  H   -12.11229480638266      1.99591897340913     -0.04119955610835
  H   -12.14569751603766      0.55250565065472      0.99256784764748
  C   -9.33785106478975      0.67666529071108      1.68595363969450
  H   -10.62433542861142      2.36592340156962      1.91160716662581
  H   -9.70030507457337      2.36006648848427      0.42135322390726
  C   -9.53625338711435     -0.70770940716960      1.57263701526071
  C   -8.20612551886250      1.12197141931514      2.39092597835418
  C   -7.32936107659119      0.19601599784990      2.95305505230978
  C   -7.52826757082011     -1.18518278500481      2.84885620600036
  C   -8.64558199787587     -1.62690919475482      2.14408432143812
  H   -10.40453958123249     -1.08779144175225      1.03122624914313
  H   -8.83257982020490     -2.69868053365717      2.04063475834271
  H   -8.00781244001146      2.18932235497338      2.51406932061345
  H   -6.82871632477088     -1.88072973330602      3.31503644597856
  C   3.42400905382935      2.87463035740217      1.96783433751852
  C   2.09174844539608      2.43437216092292      1.36250044416220
  H   3.28803989802841      3.65934841865504      2.73006824165363
  H   4.08358196282643      3.28275540102305      1.18604276546938
  H   3.95824552165490      2.03548083490099      2.44237239625872
  C   1.05893268551800      1.86894432413880      2.32444002111860
  H   2.28228216427672      1.67747375854264      0.57947598821215
  H   1.63451046225426      3.28797514287121      0.83060499745898
  C   1.32202678473249      1.64683636825866      3.68273089411599
  C   -0.21865841250703      1.54916780910085      1.83380420220930
  C   -1.21694148948056      1.02163450784252      2.66798999157580
  C   -0.92689621762592      0.81143508953682      4.03194274215730
  C   0.33491148004224      1.12269207530754      4.52702713636947
  H   2.30460740556720      1.88159378571081      4.09640331525716
  H   0.55840649744197      0.95419392593834      5.58381778710315
  H   -0.43160005006373      1.73386781593060      0.77942637473785
  H   -1.70155758025672      0.40640210244628      4.68498362597270
  S   -5.92174169577117      0.79625371905279      3.86159816256328
  O   -5.53097110249852     -0.16043998636976      4.88604239545569
  O   -6.06572239434739      2.21548376260940      4.14644373518207
  O   -4.80172340774685      0.62512086825952      2.56895825014436
  N   -3.54251842452188      0.95500691226819      3.02843710625057
  C   -2.59578615323543      0.73474045627844      2.18995546446748
  C   -2.88191989940808      0.14727910000419      0.79910555134691
  F   -3.51082106474243     -1.03071707126404      0.90381408351078
  F   -1.75598720055946     -0.07370404459760      0.10232930421686
  F   -3.64910560672619      0.96708513798754      0.06810125309600
