18
	Energy:       6.7823733
N         -0.30722       -0.22346        4.91239
C         -0.90288       -0.20448        3.57902
C          0.28067        0.67341        3.92078
C          1.56213        0.35027        3.36667
H          0.09142        1.72791        4.09740
H         -0.72420       -1.09071        2.97798
C         -2.18563        0.41032        3.41130
C         -3.25768        0.92893        3.25534
C         -4.56066        1.56469        3.06547
H         -5.37061        0.88499        3.34647
H         -4.70465        1.84987        2.01890
H         -4.64633        2.46740        3.67773
C          2.63209        0.08422        2.89049
C          3.93352       -0.23190        2.30250
H          4.03404       -1.30854        2.13577
H          4.74662        0.08784        2.96099
H          4.05752        0.27346        1.33990
H          0.27732       -1.05079        5.02815
