20
Coordinates from ORCA-job 2252-_0.0
  N   -0.11596693801663      0.18486293536283      5.04764973288800
  C   -1.00187029937553      0.25775094274088      3.90024209537413
  C   0.40362855779914      0.79247184397928      3.82963523960337
  C   1.43101985551675     -0.00604744052259      3.07684970998842
  H   0.53149684395942      1.87895882395064      3.79679788702992
  H   -1.22427190637765     -0.68708823598501      3.39614286385162
  C   -2.09156498416308      1.28507071750820      3.93887345547225
  O   -3.06656324063262      1.01300300606363      3.06422973228372
  O   2.37772026276411      0.80372878027819      2.56871029925893
  O   1.41149099980903     -1.20132972836459      2.92760680519043
  O   -2.08645142039592      2.24185554341072      4.68071903254784
  C   3.41574908430607      0.16730763118849      1.82099608454267
  H   4.08449414657228      0.96826998400786      1.48199632711135
  H   2.99934686216061     -0.37551874978039      0.95849740687624
  H   3.96556913870224     -0.54985363422112      2.44965580022133
  C   -4.15519575681905      1.93954009365556      3.01565887511872
  H   -4.85245539511221      1.55115421684761      2.26326217173059
  H   -3.80074294455613      2.94132089710156      2.72841550657685
  H   -4.64920992088559      2.01120356055709      3.99641046999124
  H   -0.37503294525522      0.93467881222114      5.69664050434232
