20
Coordinates from ORCA-job 2252_0.0
  N   -0.52960136903716      1.12478757322086      4.48789363435398
  C   -1.04046091144982      1.36821587255629      3.16015580439144
  C   0.44015878254532      1.29594627725145      3.40343610900734
  C   1.21663572796575      0.07495659576310      2.99622479406405
  H   1.00416875699840      2.23181097991125      3.33107618131954
  H   -1.40920184720446      2.36541883842777      2.88483788879639
  C   -1.77706731998716      0.27746060862215      2.41558511766236
  O   -2.29306909638150     -0.65295350349254      3.21755420879112
  O   2.48428152147167      0.40453003391463      2.69215309763046
  O   0.77422692817461     -1.04381280753518      2.92213683625580
  O   -1.90526596322089      0.30371552377044      1.21509824523162
  C   3.32396432169995     -0.66328064017765      2.24826730626774
  H   4.30124624561574     -0.21458481274149      2.03095560932770
  H   2.90872516796758     -1.13491251544074      1.34440454051730
  H   3.42133309825318     -1.43341152323874      3.02880235542536
  C   -2.91608094696540     -1.76174258166524      2.57019566452741
  H   -3.31842590821764     -2.39589816752471      3.37003614120993
  H   -2.17502822891695     -2.32111022463458      1.97881190710753
  H   -3.72295030259689     -1.42612578887461      1.90069355764838
  H   -0.57087865671431      1.96256026188754      5.06896100046449
