40
	Energy:      72.2390984
N          0.24313        0.92830        5.18127
C         -0.68396        0.48357        4.12926
C          0.63173        1.12810        3.77871
C          1.72703        0.28891        3.19100
H          0.60590        2.12535        3.35096
H         -0.73573       -0.59450        4.01804
C         -1.95031        1.14981        3.68047
C         -3.20766        0.39396        4.12504
C          3.08897        0.96946        3.32048
C          4.18542        0.16050        2.64729
H          5.14933        0.66830        2.75200
H          3.98163        0.03656        1.57888
H          4.27333       -0.83278        3.09861
C         -3.47994       -0.85700        3.29875
H         -4.40499       -1.33524        3.63708
H         -2.67385       -1.58994        3.39442
H         -3.59666       -0.60961        2.23896
H         -1.94230        1.21343        2.58488
H         -2.01124        2.18346        4.03643
H         -4.07156        1.06148        4.02475
H         -3.13731        0.11102        5.17997
H          1.76319       -0.69858        3.66814
H          1.50068        0.12165        2.13096
H          3.05243        1.96963        2.87227
H          3.33836        1.10399        4.37922
N         -0.07945        2.17168        5.74700
C         -1.12541        2.32314        6.63399
C         -0.90911        3.60401        7.30523
C          0.89283        3.13103        5.96191
C          0.32589        4.08275        6.91397
C         -1.69264        4.27412        8.22580
C         -1.18328        5.46398        8.75619
C          0.08531        5.94273        8.36947
C          0.85912        5.24622        7.43616
H         -2.65855        3.88380        8.53058
H         -1.76605        6.02174        9.48755
H          0.46944        6.86095        8.81098
H          1.84415        5.59426        7.14120
O         -2.05305        1.58849        6.92377
O          2.02788        3.23706        5.53264
