38
Coordinates from ORCA-job 2254_0.0
  N   -0.06574693275535      1.48921101639691      4.99233850910668
  C   -0.78961822861450      1.55272654431392      3.71037147396788
  C   0.69806083954493      1.72221376322582      3.73722380841573
  C   1.68183333738251      0.68855105434477      3.34254657419127
  H   1.03711360859430      2.75232888307118      3.58331055773246
  H   -1.34270457259171      2.48333833739147      3.53362208506540
  C   -1.50115446323809      0.29965835094415      3.25238026089617
  C   -2.92552466498178      0.15880769340193      3.80276103218776
  C   2.81492359014193      0.95961133703921      2.68128338727949
  C   3.83292096355369     -0.05267511900421      2.25063179839273
  H   3.97810859738398     -0.03508426554284      1.15548168545593
  H   3.54223381211610     -1.07448006424067      2.54043402382289
  H   4.81982687302689      0.16257138025413      2.69784342799122
  C   -3.62884569454743     -1.11026166324339      3.31980161449358
  H   -4.64934183851865     -1.18490584635380      3.72883729918488
  H   -3.08091054110308     -2.01670252993454      3.62961060261582
  H   -3.70896016769299     -1.13594391711309      2.21918010798975
  H   -0.90464231340257     -0.58165848742720      3.53889874841091
  H   -1.52638370521262      0.30998560962491      2.14628714701730
  H   -3.51634822728791      1.04685498289383      3.51553473058704
  H   -2.88641827035240      0.17978056714293      4.90374569849205
  N   -0.18527133064020      2.61604830123437      5.81544602607101
  C   -1.40666133878215      3.01376967847278      6.39165318064457
  C   -1.03670809246103      4.03409006852632      7.42202719751164
  C   0.93329308271975      3.19819224552006      6.45098273555581
  C   0.35733445279704      4.14256959662810      7.45885856325691
  C   -1.84668481541996      4.80020677267674      8.25103502053026
  C   -1.21273747231252      5.68921401683651      9.13480230911405
  C   0.18467393495845      5.79752999226340      9.17209491174030
  C   0.99413200418190      5.02060191284627      8.32681987850652
  H   -2.93446952521771      4.70642378835362      8.21282247616917
  H   -1.81680266168219      6.30619076050367      9.80520250775934
  H   0.64975645113056      6.49727345823390      9.87139480413708
  H   2.08382975141258      5.09557302358368      8.34649908019275
  O   -2.50138530610668      2.59947803667891      6.08988532851640
  O   2.08886436970564      2.96307736663055      6.19546169527393
  H   1.44252019081910     -0.34414703716010      3.61888191219701
  H   3.03612430345220      2.00681039098570      2.43349779952620
