43
Coordinates from ORCA-job 2255_0.0
  N   -0.17709726247613      1.62710327953025      4.70984043665336
  C   -1.01044667191826      1.70181788544020      3.46802869096181
  C   0.47649527421520      1.85340789570429      3.40335362756269
  C   1.45914256769001      0.81015355876956      2.91425596333486
  H   0.80810127688314      2.88237138442610      3.22318407477588
  C   -1.84141727711642      2.94480730415157      3.20301031492050
  C   -1.67789772762422      0.37838312088974      3.11172855843312
  C   -3.02437301290513      0.11584535701240      3.79985669154616
  C   2.89017375580583      1.01177156353900      3.42759491967718
  C   3.86376979481375     -0.04520652112504      2.90476388743733
  H   4.88384535645224      0.12357761355968      3.28612658332575
  H   3.91615189526054     -0.03779975148115      1.80217252530989
  H   3.55928123439840     -1.06082292221283      3.21102736981057
  C   -3.56764886629039     -1.28438552523258      3.50930706099417
  H   -4.53705915376190     -1.45103397683809      4.00629717080979
  H   -2.87444167930875     -2.06580616288068      3.86491797582652
  H   -3.71665120352198     -1.44630151056194      2.42754069547271
  H   -0.98918172066821     -0.44104641494866      3.36670984682264
  H   -1.80627956650185      0.34532208392486      2.01276944455320
  H   -3.76679622991344      0.86612969756143      3.47623040857458
  H   -2.90181816160948      0.26269670083647      4.88488693677366
  H   1.10677104839031     -0.19341542826842      3.19978069073601
  H   1.45688629196564      0.83814074828462      1.80786325595354
  H   3.24256467411189      2.01943246454251      3.14606307546151
  H   2.87881868473211      1.00640164616146      4.52983543313767
  N   -0.23010655387771      2.71442769009469      5.59164527838878
  C   -1.31079245098762      2.86188400507337      6.48700392364986
  C   -0.87651659751233      3.90789760229723      7.46253178699673
  C   0.89395967688354      3.47154178113017      5.98185762669907
  C   0.43884893224750      4.27136461251733      7.16089150045388
  C   -1.56591505257645      4.48858611760681      8.51968401904014
  C   -0.88970457046830      5.45743054745647      9.27960033215737
  C   0.42981777564989      5.82227266193730      8.97648061651967
  C   1.11669857564452      5.22957219913305      7.90391360636606
  H   -2.59343017008317      4.19506141388797      8.74665658580905
  H   -1.39799230818999      5.93439377662238     10.12163165307824
  H   0.93054380943971      6.57864024361984      9.58646369710383
  H   2.14532950585651      5.50375846658740      7.65851731501495
  O   -2.35591361749949      2.25757175492805      6.43871989016018
  O   1.98469948819445      3.45351998026529      5.46007919715483
  H   -2.12934829014327      2.97250714200345      2.13921685416283
  H   -1.28487394050951      3.86762074261180      3.42128356430247
  H   -2.76203753317118      2.94776517144264      3.80459691407690
