40
Coordinates from ORCA-job 2256-2_0.0
  N   0.20315427410444      1.07932737213536      5.04398534923916
  C   -0.76962529596091      0.52813830386133      4.05474556570185
  C   0.52966893379173      1.11113631581720      3.61418093157601
  C   1.70611001933789      0.27212537814431      3.15885974691442
  Cl  0.39775001638336      2.66708841259577      2.72332237584562
  H   -0.79118232360493     -0.56473452468838      4.14373862561269
  C   -2.10651980556579      1.14014032898889      3.66628390130234
  C   -3.32992710369014      0.33037878842499      4.12534641226358
  C   3.09214398429326      0.89628738906351      3.34907096493010
  C   4.21685402877246     -0.03281952999040      2.89005980507014
  H   5.20339060606067      0.43744687805397      3.02980035750964
  H   4.12088782628258     -0.28990664937491      1.82094744946581
  H   4.21856730579941     -0.97967487569713      3.45713960400112
  C   -3.50343837949195     -1.01600958996359      3.41715694417482
  H   -4.41315526078668     -1.53055751144125      3.76658550441045
  H   -2.65806002076847     -1.69995338089607      3.60330897935096
  H   -3.59140989469178     -0.89049692249506      2.32406922142232
  H   -2.11767596373954      1.23064440283941      2.56455314299542
  H   -2.17240194986307      2.17145307725341      4.04129031857382
  H   -4.22737588298183      0.94633146237184      3.94184362861235
  H   -3.27510883663778      0.18876951345446      5.21550373243095
  H   1.64782002316337     -0.67780056960267      3.71771361091962
  H   1.54265568352121      0.02418351788023      2.09455491207665
  H   3.13840583126622      1.84695900972200      2.79329448133662
  H   3.22155856183787      1.16460257864252      4.40901125372196
  N   -0.07683676916627      2.26875768616482      5.71618963017441
  C   -1.14290039717215      2.38040401423710      6.63494614274408
  C   -0.88155331022355      3.64780767467028      7.38297728287005
  C   0.94543586899535      3.21594811568519      5.97577926169422
  C   0.36162957541467      4.14871433839921      6.98616080322240
  C   -1.65529637576762      4.29675964848910      8.33741474536762
  C   -1.14158977294427      5.48156034460446      8.88957781103230
  C   0.10598221692848      5.98352797591904      8.49187009336698
  C   0.88120405585971      5.31739634903728      7.52869299556623
  H   -2.62298963285059      3.89273901614794      8.64343624822412
  H   -1.72060628247281      6.02093126796975      9.64367443910990
  H   0.48067804336547      6.90643439232378      8.94213749792128
  H   1.85652083446147      5.69609664044238      7.21441731063774
  O   -2.04777177956878      1.59253471514967      6.77245277943923
  O   2.04880734830929      3.21547864566025      5.49132613917095
