60
Coordinates from ORCA-job 2257_0.0
  N   0.01491822660665      1.98453296382073      4.59293494284142
  C   -0.83011717737938      2.03032783455348      3.37724292472902
  C   0.70890933787894      2.10275114835034      3.29236229254326
  C   1.53569620973229      0.85205020440159      2.95182021788061
  C   1.33776614290151      3.35494157891081      2.70778437581065
  C   -1.61736962506611      3.26569897171775      2.95636616847845
  C   -1.53774664956311      0.69100272897856      3.13090807042063
  C   -2.80338925842086      0.43824807684296      3.96174206998508
  C   2.98594617247377      0.86486597050427      3.45420792830698
  C   3.70208217592024     -0.46142069964094      3.18929247797910
  H   4.74293337351160     -0.43280989145823      3.55028799472339
  H   3.73120419911568     -0.69896830976333      2.11166356638934
  H   3.19901469276966     -1.30219337414413      3.69711880741276
  C   -3.45527511614022     -0.90602589786695      3.63099504666883
  H   -4.34789730469303     -1.08202408802556      4.25282933831787
  H   -2.76115503682176     -1.74704350351144      3.80197069180823
  H   -3.77310420189476     -0.95488888080485      2.57480163969196
  H   -0.83135951554095     -0.11887165394293      3.34928487965514
  H   -1.76469078601477      0.59777880481955      2.05469418829329
  H   -3.53092480960938      1.25238576368495      3.81775018693717
  H   -2.53541989907834      0.47438819344244      5.02929157772117
  H   1.03800387923688     -0.02842479263751      3.38040506884125
  H   1.52322642207576      0.72625478022791      1.85358619300158
  H   3.54469479338672      1.68386336836198      2.97211276960212
  H   2.98625581871298      1.08728767828396      4.53339891700900
  N   -0.02466434511641      2.94730384853379      5.60763787441455
  C   -1.23642717608057      3.24113759916786      6.29332429049648
  C   -0.82450659945129      3.95596132746895      7.53713927880261
  C   1.08958543586178      3.15870219133019      6.44753432027337
  C   0.56805462777813      3.90528704294476      7.63019950894458
  C   -1.59716650389318      4.57623891829415      8.51090796321628
  C   -0.92229243312798      5.15892044601234      9.59633570850859
  C   0.47605091218779      5.10811426002382      9.69008965541387
  C   1.24618643128286      4.47336918436710      8.70165870524055
  H   -2.68611316914952      4.60374001994202      8.42932141069665
  H   -1.49459080729064      5.65718795216327     10.38314900613905
  H   0.97260077454660      5.56717847164107     10.54890711668410
  H   2.33531227576753      4.42165218289845      8.76756520408038
  O   -2.34415210126070      2.93433884600960      5.93247051525037
  O   2.22316989573099      2.79454641018591      6.23055099253995
  C   -2.66802961699445      3.13443487539543      2.02755312468752
  C   -3.40153906487102      4.23872766181712      1.58309182113638
  C   -3.11106689937733      5.51797021230405      2.05795863122790
  C   -1.33162802530077      4.56979716077026      3.40794036937112
  C   -2.06808210234354      5.67330018008443      2.97410573853061
  H   -4.20816147740693      4.08901997192605      0.86014098465731
  H   -3.68543979092879      6.38303027010101      1.71619028782991
  H   -2.93034146202265      2.15554209523646      1.62840937621648
  H   -0.51313214184986      4.74405308444415      4.10205847545872
  H   -1.81377887862240      6.66668542923486      3.35368377974134
  C   1.05002927427289      3.66325287814546      1.36502889442369
  C   2.28872095298876      4.13912983943054      3.37841918193015
  C   2.90012482600710      5.22342357550613      2.73693638062244
  C   1.66911379376793      4.73522202507795      0.72094928659336
  C   2.59256062387330      5.52870813340910      1.40963486526945
  H   0.32011831661543      3.06000677669823      0.81993639780813
  H   2.57464068671964      3.88967386625297      4.39937938195934
  H   3.63358342893051      5.82457765480282      3.28153777656957
  H   3.07437110972261      6.37393639918913      0.91063542480794
  H   1.42329716493414      4.95588223408501     -0.32137406459125
