21
Coordinates from ORCA-job 2260_0.0
  C   -4.69696993087002     -9.80724332276153     -1.00614713226942
  C   -3.51256103232455    -10.64714077480679     -1.41017605611457
  C   -3.80065401220989     -9.32435346639624     -2.11886043091490
  Cl  -3.80925326869409    -12.12518442678248     -2.34160068085299
  Cl  -2.12522572418648    -10.78733189095244     -0.31774589152755
  C   -2.92821463891664     -8.10922469840201     -1.89702008926018
  H   -4.18412161386106     -9.47148170695431     -3.13291785319087
  C   -2.22454388127586     -7.57292763455005     -3.12397806264009
  H   -1.61737006090997     -6.69829707177439     -2.85656263559426
  H   -2.96013444148012     -7.29741336299834     -3.89865186140586
  H   -1.58103523981121     -8.35748782861987     -3.55763704466097
  O   -2.80163073905513     -7.61482924545104     -0.79940578129494
  O   -5.97510621882353    -10.17829667069836     -1.34647469511190
  H   -4.55500253543406     -9.26670668834421     -0.05887183992594
  C   -6.62809715588593    -11.04421310698030     -0.41461516528402
  C   -7.15250005183198    -10.31462812792951      0.81549030423710
  H   -5.94691245711947    -11.86658804798717     -0.12923343284467
  H   -7.46205580040151    -11.49047380479798     -0.97830455779317
  H   -6.33817325462858     -9.88991860442354      1.42434114066625
  H   -7.71440897070209    -11.01330031780144      1.45668118644560
  H   -7.82730897157780     -9.49461920058791      0.52306057933737
