21
Coordinates from ORCA-job 2261_0.0
  C   -3.75907295840304     -9.75350951059286     -0.57334538828601
  C   -3.14429207820954    -10.42490422589409     -1.80031550617560
  C   -3.23714364409925     -8.91403290296063     -1.73662148814135
  Cl  -4.18930303137303    -11.28732682782247     -2.92310375060342
  Br  -1.39606426058542    -11.24647317324848     -1.58090349113202
  O   -4.15888248119389     -8.25022622473024     -2.49998118888485
  H   -2.28422777180855     -8.38787322893191     -1.57066484727536
  C   -3.69490065243910     -7.87587047971474     -3.79545797329612
  C   -5.16384001590065     -9.85713893190788     -0.27717786138843
  H   -3.10295876207350     -9.75870676027665      0.30498313463675
  C   -6.33848225601107     -9.96129946365513      0.00676933181700
  C   -7.75510622532573    -10.08115503274774      0.33344278011548
  H   -7.96582088185174    -11.02213208310116      0.86877788447117
  H   -8.37409032047563    -10.06889969917332     -0.57923719559711
  H   -8.09001603986250     -9.24810338468767      0.97430312649934
  C   -4.82597699256820     -7.17574469491234     -4.52249084445773
  H   -3.36657853631804     -8.77494248236731     -4.34895938180845
  H   -2.81490006829411     -7.20853665080212     -3.69484393534956
  H   -5.68703860744273     -7.85263989586416     -4.63456444238810
  H   -4.49765306875327     -6.85687027390795     -5.52424728583836
  H   -5.15723134701085     -6.28704407270078     -3.96276167691718
