36
Coordinates from ORCA-job 2262_0.0
  C   -3.32271857584436    -10.43498642255337     -0.92636439385620
  N   -2.65175043336890    -11.61335020451990     -1.50779429173908
  C   -2.70184779768656    -10.36124297646121     -2.28280185211917
  C   -3.45304074722931    -10.38496077869875     -3.59679784964536
  H   -1.75742863364370     -9.79941309074526     -2.30134280083233
  C   -4.79773962119739    -10.56825638385007     -0.61913032126260
  H   -2.74651198972292     -9.90969186307929     -0.15136767250986
  C   -5.04221234651895    -11.30242895216635      0.70242560736834
  H   -5.29828839628432    -11.09978100514102     -1.44352346177243
  H   -5.23707498270571     -9.55462331510166     -0.58033285633912
  H   -4.55471309258326    -12.28982639957025      0.69219524162496
  H   -6.11881767814707    -11.44440933212854      0.88756854711400
  H   -4.62535843107757    -10.74113047101041      1.55499733887126
  C   -2.60781642474540    -10.92980390672157     -4.75156577739919
  H   -3.77567091990077     -9.35208118614162     -3.82228997246874
  H   -4.36976499664036    -10.98485815522543     -3.48763861781641
  H   -1.70328426202117    -10.31878578830833     -4.90981344893062
  H   -3.17669799653734    -10.93320938799353     -5.69500593267322
  H   -2.28224706967910    -11.96263195218500     -4.54814709699246
  S   -1.18746797075558    -12.08356980190022     -0.75037633545493
  O   -0.24706734483366    -10.95212829978352     -0.69069054431642
  O   -1.58410972343246    -12.77625242509752      0.47716512155815
  C   -0.55894153418546    -13.27585719112423     -1.92638281938366
  C   0.49991902047950    -12.92267871477100     -2.76338903173495
  C   0.98393258198346    -13.86304278959360     -3.67772413661293
  C   0.42643352980240    -15.14802562897846     -3.76326181346162
  C   -1.12811665486141    -14.55360257536518     -1.97698815909073
  C   -0.63462651973901    -15.47588132818575     -2.89703175968104
  H   1.81416168506731    -13.59135989309545     -4.33570115604584
  H   0.93989289085274    -11.92666741989218     -2.68703287465898
  H   -1.94196060923429    -14.81347156226766     -1.29738606749256
  H   -1.07789830559767    -16.47504577975505     -2.94322704046911
  C   0.95305402479421    -16.16603609450014     -4.74454968709132
  H   1.69459952734312    -15.72673044850797     -5.42782168044854
  H   0.13870177083157    -16.59301195844024     -5.35276642358606
  H   1.43667802701950    -17.00798651713974     -4.22012598065110
