47
Coordinates from ORCA-job 2264_0.0
  C   -1.74009089862449    -11.64352287283717     -2.12576981643487
  C   -1.71529934611534    -11.75455675252276     -3.52428305272331
  C   -1.16638487598856    -12.88164150856658     -4.14920728534820
  C   -0.62001787924533    -13.93735758430963     -3.40859420954701
  C   -1.17490481365230    -12.69667363949636     -1.38125287147244
  C   -0.63459505061347    -13.81633558574953     -2.00676261572024
  H   -1.16658248474988    -12.91994193227018     -5.24037444490584
  H   -2.10789773074558    -10.95324589056769     -4.15083838892649
  H   -1.16289545415973    -12.63385011148720     -0.28901436170723
  H   -0.20875578175182    -14.61791078966551     -1.39459157982329
  C   -0.02289679432914    -15.18177621361975     -4.04315370730830
  C   0.05161087263156    -15.20592182672535     -5.56905429973260
  H   -0.60258432764220    -16.05699120699668     -3.69509347933831
  H   0.99049206013757    -15.32847730717717     -3.62725505627685
  H   -0.94726388674756    -15.13923233747403     -6.03035283121132
  H   0.51223832832013    -16.14393854076738     -5.91693436423810
  H   0.65716509316343    -14.37281413229440     -5.96181944412894
  C   -2.31751253925411    -10.49060327737414     -1.36122605181202
  N   -2.68989648522473     -9.20830491600231     -1.91113088550196
  C   -3.77112071703076    -10.04338964862855     -1.48203464103951
  H   -1.89652982545411    -10.42040418200096     -0.34846965891213
  C   -4.74164268045902    -10.72488053453275     -2.42135560872482
  H   -4.26001355886473     -9.72336704165296     -0.54970616770232
  O   -5.29784071976867    -11.80934013278062     -1.71918673904022
  C   -6.24213861679999    -12.53834223507612     -2.45616731809096
  H   -7.10441764833040    -11.91138048305837     -2.76536894427720
  H   -6.61372067599621    -13.35144956970811     -1.81496430654599
  H   -5.80128667840663    -12.98449416575642     -3.37126900259541
  H   -4.24404841004337    -11.06041304291038     -3.35044058129297
  H   -5.53704238267606    -10.00975186341730     -2.72358204894187
  C   -2.40925558148238     -8.57327351771396     -3.11493056275108
  C   -1.04414176649173     -8.43882031888855     -3.52232539593764
  C   -0.71820901853769     -7.74112049601847     -4.66118237214041
  C   -1.71659633815294     -7.12281259722373     -5.46795623593651
  C   -3.08784675807525     -7.24220611866826     -5.05733162400653
  C   -3.40294032105253     -7.97278450500910     -3.88023189773413
  H   -4.44753508347142     -8.04418819136019     -3.56865668938845
  H   -0.26514461140174     -8.89901912536212     -2.91080953641602
  H   0.33046632723619     -7.65080088436974     -4.95968019386860
  C   -1.40621838511511     -6.39556519747236     -6.64912972050467
  C   -2.40178802969567     -5.80499526570668     -7.40175684519747
  C   -3.75646254194094     -5.92000923952769     -6.99798696828794
  C   -4.09052868442248     -6.61936990278899     -5.85605084387921
  H   -0.35867951536968     -6.30981450467571     -6.95355124921040
  H   -2.15006024028223     -5.24756137346769     -8.30777395393400
  H   -4.54058752007858     -5.44915891581260     -7.59746894620146
  H   -5.13694802324420     -6.70398052050725     -5.54818320128454
