71
Coordinates from ORCA-job 2269_0.0
  C   -3.14739546479997     -8.27705311957586     -0.44949712820817
  O   -1.94364859993985     -8.19230325393261     -1.20827283661161
  C   -2.14988472220293     -9.42146240580240     -0.49829818513266
  C   -3.20322755706072     -7.38722573640914      0.77336621944301
  C   -4.41007493740544     -8.26263670840999     -1.28306190548605
  C   -1.19251517383378     -9.61911864188461      0.66238006704926
  H   -0.21572054624186     -9.93801347930415      0.26484472643596
  H   -1.55276733317507    -10.39711279496969      1.35135817389737
  H   -1.04750996264411     -8.68723515792564      1.22232235223003
  C   -2.67895118538993    -11.98351168759579     -1.01580008728084
  H   -2.93745511003462    -13.74914276770481     -2.37400369636583
  C   -2.72720322558928    -12.69416905931165     -2.20476201002661
  H   -1.79269301065531    -11.56435387433028     -5.21101318851938
  C   -2.36539302762516    -10.61715622915425     -1.37493197602566
  N   -2.44110420058915    -11.84890367204864     -3.25145069065663
  C   -2.51921444295820    -12.18047243500715     -4.66130974528464
  C   -2.22240465197622    -10.59051209371387     -2.75254480173268
  H   -4.19796179290470    -10.87285386226713     -5.09692961162883
  C   -3.92461773259615    -11.93059729929593     -5.22560423532165
  H   -1.96078102358640     -9.76314789587614     -3.40601662565852
  O   -3.99867411543682    -12.29069294791106     -6.60832426235876
  H   -2.24218250555492    -13.23721543400583     -4.79962718292779
  H   -3.35616501239470    -11.14206939825035     -9.62703231730815
  C   -3.58470901560616    -11.36634273456206     -7.50966167114970
  C   -3.79346300077004    -11.85712834376822     -8.91989701732089
  O   -3.12389022766815    -10.29753247133656     -7.19536727607725
  H   -3.34149117813756    -12.85222297687431     -9.04926762487938
  H   -4.66342336052538    -12.56226131555725     -4.71200131405106
  H   -4.87245439488924    -11.96174041857820     -9.11625627849923
  C   -2.89947439238280    -12.58950266158741      0.33249849191545
  C   -1.82246935265428    -13.20598956367445      1.01772692033745
  C   -2.04737695333953    -13.76393316323001      2.28557116862405
  C   -3.31327890858619    -13.73187848733390      2.87049046589617
  C   -4.37823178614160    -13.15318459154697      2.18072617368967
  C   -4.19271405759629    -12.58688086982255      0.90993262601594
  H   -1.21403686800365    -14.23262157279756      2.81708289522200
  H   -3.47165057799424    -14.16729260765075      3.86107683523131
  H   -5.37680605119359    -13.14541632109259      2.62759678584768
  C   -0.44618891800643    -13.28917278389912      0.39914443581122
  H   -0.45349569019322    -13.90841581064189     -0.51282210491024
  H   0.27727694269677    -13.72863644156644      1.10207952273475
  H   -0.07194950539945    -12.29983576282537      0.09537309936287
  C   -5.37653281178975    -12.02503649829617      0.15980878072235
  H   -6.27547265576889    -12.00271250783780      0.79460532589477
  H   -5.60701581696256    -12.63587324388057     -0.72953403558388
  H   -5.18902024971293    -11.00816616777694     -0.21229408458875
  C   -3.73183682804110     -7.84347994781948      1.99090630701265
  C   -3.80777399433232     -6.98984353585279      3.09602456958073
  C   -3.35271288560688     -5.67139251683413      2.99720696590639
  C   -2.81444706000633     -5.21368131814839      1.78974037452020
  C   -2.73862656570102     -6.06668162729334      0.68541100461896
  H   -2.30636820791273     -5.71585446234061     -0.25484183812485
  H   -4.06592134660154     -8.88071334362635      2.08418020044861
  H   -4.21605927844154     -7.36049664094577      4.04027575277874
  H   -3.41056088715069     -5.00410378567664      3.86136455355364
  H   -2.44961609792848     -4.18608507589033      1.70790670093716
  C   -4.33946093725536     -8.03394353827411     -2.66869008074766
  C   -5.67863005148325     -8.41860805362889     -0.69963190930533
  C   -6.83522483260575     -8.38790671247903     -1.47955686429325
  C   -6.76041337528032     -8.18437930048493     -2.86804545804790
  C   -5.49381251614293     -7.99820831083435     -3.44750819020594
  H   -3.36349329646023     -7.86600533612211     -3.12359115928743
  H   -5.44034214564087     -7.81975986789466     -4.52387071460312
  H   -5.77121198654638     -8.55691603390566      0.37861143777439
  H   -7.80201200819578     -8.52085410974818     -0.98955694676794
  C   -7.96762268460196     -8.14638164023506     -3.76155277511343
  C   -9.34375778832613     -8.30055457263982     -3.13545315802976
  H   -9.43231672939164     -9.26147283513802     -2.60258396382175
  H   -10.09944839112349     -8.25313986827602     -3.93011829852921
  H   -9.53477319415014     -7.50146546663744     -2.40037004406071
  O   -7.84668274585204     -7.99545482844799     -4.96261963895940
