40
Coordinates from ORCA-job 2272_0.0
  C   -4.23220726832383     -8.73732253822778     -1.59869641464500
  O   -2.96717775526110     -8.13343064656858     -1.38115300981113
  C   -3.09026724997481     -9.48337773720106     -0.96363023434487
  C   -4.59004577489389     -9.00941439270605     -3.03908095124784
  C   -2.97212861054056     -9.78868526262136      0.49180860077980
  C   -3.71912276638717     -8.56883678952437     -4.04847269075627
  C   -2.77076461555339     -8.77918134342602      1.43983808021230
  C   -2.65182097107543     -9.07931417161585      2.80156451841685
  H   -2.60718823607322    -10.21086932748400     -1.63328808592517
  C   -3.03936830986036    -11.12262590501119      0.93490925168628
  C   -2.92879159837033    -11.43324745057331      2.28466458421118
  C   -2.73523846148719    -10.41235274669036      3.23479423888919
  H   -3.18295544988516    -11.92937842244926      0.20981111958259
  H   -2.98468649263576    -12.46530124873190      2.63733662121315
  H   -2.70191899814385     -7.74424719410437      1.10030712870993
  H   -2.48684363826237     -8.26785250796455      3.51093596103790
  O   -2.63598877547175    -10.81036879128889      4.52694789944392
  C   -2.43747131488128     -9.84716704309906      5.55083723387732
  C   -4.00581028846876     -8.82627266020500     -5.39199320689188
  C   -5.16294292215682     -9.52735188999120     -5.74299464755017
  C   -5.75358318873204     -9.71264969286379     -3.39575082373911
  C   -5.36617711779984     -8.28725587038863     -0.69391399562472
  O   -5.10091300984343     -7.13653235598698     -0.06744869535012
  C   -6.10793058150248     -6.66361476850701      0.83140252301466
  H   -7.05696035185999     -6.49705444859551      0.29979900058869
  H   -5.72875661086992     -5.71978290894974      1.24239284630569
  H   -6.28036312917791     -7.39238633564318      1.63782489577176
  O   -6.39504899117821     -8.90582281879561     -0.56122275549379
  C   -6.03356511826297     -9.96781376513718     -4.74076772948117
  H   -6.43690470393697    -10.05003025156871     -2.61561644876034
  H   -6.94079284698550    -10.51750855570748     -5.00627166556599
  H   -5.38644680016578     -9.72951846809365     -6.79407008896724
  H   -3.32084085886353     -8.47377825669871     -6.16811264119894
  H   -2.81824381636906     -8.02007005798872     -3.76738134741241
  C   -2.37780191568127    -10.57743187291551      6.87927533374475
  H   -3.26535526526808     -9.11239728242971      5.54370746375087
  H   -1.49963294032561     -9.28862744063027      5.36719552757947
  H   -3.31550809545609    -11.12378663325372      7.06504662049644
  H   -2.22215724521646     -9.86124193682123      7.70130722212313
  H   -1.54972791479759    -11.30300820953973      6.88713876133024
