43
Coordinates from ORCA-job 2273_0.0
  C   -4.79182786889850     -8.84437212440781     -1.68749571085265
  O   -3.51775623782189     -8.22161602887554     -1.66732026942072
  C   -3.55411278361876     -9.54380614898125     -1.16820577373314
  C   -3.21683467116131     -9.77446144728565      0.26694559888911
  C   -2.81120255208842     -8.72235750905544      1.10097385623910
  C   -2.47827237165763     -8.95157473174877      2.43716971629253
  H   -3.16391982236190    -10.30270402007144     -1.86348273826113
  C   -3.26833450450886    -11.07569538927539      0.79156646477675
  C   -2.94850388797317    -11.31512418444806      2.12728954550964
  C   -2.55766121483713    -10.25172593947700      2.94723691183350
  H   -3.56543048644294    -11.91157050869293      0.15153954529982
  H   -2.98888540160394    -12.32146602455858      2.54907723536322
  H   -2.76036009831801     -7.71401948872721      0.68839751749373
  H   -2.16839096543352     -8.12623286272975      3.07629224262713
  O   -2.19498171110798    -10.58494264085699      4.24442225536513
  C   -2.53982325027328     -9.81926353648724      5.32423325267178
  C   -5.84066560153467     -8.38523865773067     -0.69177460150739
  O   -5.41051126247543     -7.42241385927125      0.12584858811084
  C   -6.33895479782389     -6.97630986951332      1.11999385652498
  H   -7.24144063682458     -6.56108113259828      0.64669075818917
  H   -5.81727201610336     -6.20343583878121      1.69712719887848
  H   -6.63524604323790     -7.80832652485362      1.77596751021330
  O   -6.95085403635928     -8.86089947022406     -0.66090954575303
  C   -1.99938846679978    -10.44504303599779      6.58472594848764
  H   -2.39280341819933    -11.46728591400107      6.69680630668993
  H   -2.28455866232266     -9.83316042833445      7.44886350586187
  H   -0.90274476368237    -10.52451233680537      6.52176255550520
  O   -3.17963269729263     -8.80575567987006      5.25603775740208
  C   -6.75142263934383    -10.27527566486407     -7.10572818993964
  H   -7.68363147251921    -10.81725053210821     -7.28732121648414
  C   -6.35789865382790    -10.00087570587918     -5.79697516790644
  H   -6.98767831921089    -10.33558684309558     -4.96929960483123
  C   -5.95974194738837     -9.86336045795306     -8.18565008958489
  C   -5.15982210773580     -9.30499418821851     -5.53139304946596
  H   -6.27141809500907    -10.08056431398817     -9.21076495599562
  C   -4.76869109434980     -9.17457311264295     -7.94138662096825
  C   -4.37466512993402     -8.90145216391403     -6.62953316211486
  H   -4.14195017465985     -8.84842961189212     -8.77586881841516
  H   -3.44136887597930     -8.36145577640282     -6.44488740862273
  C   -5.35286932551839     -9.20571455690041     -3.01896296868468
  C   -4.69726585489709     -8.98586275106023     -4.17238141207356
  H   -6.35293867362928     -9.64463472487135     -2.98648421291700
  H   -3.71573740523384     -8.50270426254862     -4.10748261069272
