44
Coordinates from ORCA-job 2274-2_0.0
  C   -4.44721810220857     -8.92506863171031     -1.93615124835329
  C   -2.98750121516793     -8.96187036212932     -1.54067131678323
  C   -3.94582983145399     -9.92103777087299     -0.85676931177399
  C   -4.29078220780602     -9.69180653186553      0.62922026671274
  C   -4.34708394543380    -10.99354817296542      1.44000910650143
  C   -4.81544633628069     -9.38990445286732     -3.33998331383849
  O   -5.77765725646105    -10.33344521312826     -3.31332254286093
  C   -6.29032246248319    -10.74300724706080     -4.58465067833181
  H   -6.71749877242274     -9.88512138191197     -5.12560676601472
  H   -7.06643046300215    -11.48950450671139     -4.37446843046943
  H   -5.49331272508799    -11.18403117361060     -5.20233889768400
  O   -4.37995798014950     -8.91284661654391     -4.35430309614618
  C   -5.34992782385077     -7.75113136924822     -1.62110200234568
  C   -4.98346051020051     -6.44489587795027     -1.98336607673304
  C   -5.86491946141204     -5.38022848503827     -1.77940500069835
  C   -6.63250498589668     -7.97405143908624     -1.09200832633202
  C   -7.51325080323156     -6.90786121277673     -0.88803428883316
  C   -7.12882080130218     -5.60670447689212     -1.22525175872977
  H   -4.00462659261995     -6.26375525994689     -2.42961120831263
  H   -7.81674491115274     -4.77192325972768     -1.06592636271563
  H   -5.56318618343755     -4.36796720444967     -2.06145957894016
  H   -6.94842458957276     -8.99247453017517     -0.85445087810498
  H   -8.50576714999156     -7.09673773142287     -0.47009580330022
  C   -3.82489642432139    -11.40813935951320     -1.19701123335320
  H   -5.26116105113093     -9.17943831844354      0.71313851722665
  H   -3.55377700558989     -9.00913013002369      1.07625603018236
  C   -5.00847798650385    -12.23629482848460     -0.67570045821904
  H   -2.88494656332738    -11.77219136667924     -0.74833729237691
  H   -3.71350942239447    -11.56153474296900     -2.27751066091563
  C   -5.32903464640203    -12.00905814296032      0.83315081852256
  H   -4.64096053310364    -10.74448503687128      2.47211879505144
  H   -3.34094231653930    -11.44404176048175      1.51150046033242
  H   -6.33524357688861    -11.55312860648398      0.90187692543497
  C   -5.38031072343844    -13.34136876065482      1.60317016977741
  H   -4.77871926036790    -13.30084839542203     -0.85224396731482
  H   -5.89374901293762    -12.00834976439956     -1.28912929343373
  C   -5.85667711596237    -13.24644681529188      3.05463584035907
  H   -4.37699881467001    -13.80738311940829      1.57026648451922
  H   -6.04673331075877    -14.03031111412873      1.05324316853397
  H   -5.17307394276554    -12.65029602515902      3.68032698430205
  H   -5.92830685565359    -14.24594425170181      3.51332964185817
  H   -6.85529594849458    -12.78077776772312      3.11799089555770
  Cl  -2.28018114072063     -7.61276619259666     -0.61555235627534
  Cl  -1.77703923740293     -9.60725259251115     -2.67751195568174
