20
Coordinates from ORCA-job 2275_0.0
  O   -0.08936955618031      0.93081721973589      4.61113357900195
  C   -0.85428023132142      1.22505885827142      3.41880683917764
  C   0.58572179057260      1.51755912137298      3.54852102893143
  O   1.03037133496634      2.79903141227923      3.79444409345741
  H   1.32945069930597      0.88030736160028      3.03429690503194
  H   -1.52905864837875      2.08465578533991      3.55052191332073
  C   -1.41807702367767      0.03969253183698      2.67434891367110
  C   -2.56957673947138     -0.63703383912008      3.42467778099246
  C   1.56818671388635      3.45859295081680      2.66054671888286
  C   2.06515579253119      4.82792645994608      3.08433635605998
  H   2.49364500900935      5.36588213132851      2.22394090683116
  H   2.84014784392852      4.73410463305076      3.86097965540144
  H   1.23969683799704      5.42916472374657      3.49639551733455
  H   -2.95623718291234     -1.50414217889162      2.86592835487979
  H   -3.40893930673349      0.06026770106250      3.58534513711097
  H   -2.23263998767944     -0.98922937568892      4.41255809241463
  H   2.39832355313468      2.86050933490770      2.23009569437984
  H   0.79645652922647      3.55250637865965      1.86914524545888
  H   -0.60943889984997     -0.68938874247600      2.49431034315421
  H   -1.76162852835375      0.38458753222131      1.68177692450701
