30
Coordinates from ORCA-job 2278_0.0
  C   -5.14826620805176     -9.23006487746354     -3.27763886099624
  C   -5.73420385526765     -8.20638287526033     -4.02560146189330
  C   -5.75613922595239     -8.22485907430227     -5.41816581100109
  C   -5.12883134557175     -9.32042420677727     -6.03437181852760
  C   -4.54567297420864    -10.33356956828034     -3.87705384773529
  C   -4.53718732077667    -10.34973750189502     -5.28190103611851
  H   -4.09522972796335    -11.15177314560072     -3.30854881145479
  H   -4.06503675424340    -11.18485971648781     -5.80739946100637
  H   -5.10200503958606     -9.38107687795456     -7.12618413777394
  H   -6.22510093686163     -7.44138806664361     -6.01962935051184
  C   -6.19859348716137     -7.43733790044675     -2.78410844411357
  C   -5.54579446602321     -8.60249188452378     -1.93634204103685
  O   -5.62839876129144     -6.19245677429491     -2.52103563466516
  H   -7.30361157218294     -7.38995393490953     -2.67791700355839
  O   -4.54403086631201     -8.15555721158997     -1.07651754069366
  H   -6.29808074188236     -9.20140653180915     -1.37919086492563
  C   -6.15224883809334     -5.12924266657350     -3.28786537942370
  C   -5.49657759531025     -3.83641988183863     -2.83681228359128
  H   -7.25520093024304     -5.07316414480002     -3.16053925662809
  H   -5.96413256101353     -5.29784294405072     -4.36852590088897
  H   -5.69050802663926     -3.65888587593315     -1.76744253052608
  H   -5.88743582050494     -2.98189518465250     -3.41199322823459
  H   -4.40616547855773     -3.88703005888812     -2.98148683722048
  C   -3.89874659013539     -9.17439956712323     -0.34220246846113
  C   -2.89938033707438     -8.53320970118943      0.60375722141658
  H   -3.38164278021866     -9.87900377462127     -1.02588790064589
  H   -4.64694144453696     -9.77008419505164      0.22458476093307
  H   -2.15401943145813     -7.95229430493671      0.03843965423373
  H   -2.37292922190024     -9.30207425875888      1.19163129265762
  H   -3.41011766097741     -7.84775329334251      1.29806898239146
