66
Coordinates from ORCA-job 2280_0.0
  C   0.29650308152774      3.43471616085993      2.01373224342854
  C   1.36580068265251      2.84394240043815      1.05969557780209
  C   -0.55907749324847      2.11176619240353      1.78525167684042
  C   -0.33411337672122      4.75051438089258      1.62378131418621
  H   0.66139836543280      3.50442872878662      3.04724193014652
  C   0.31214545167565      1.78889090312091      0.55181678376323
  C   -2.06261127492321      2.15261919981757      1.70197444572325
  H   -0.27037007980394      1.40708898639315      2.57903323769521
  H   -0.11739334490535      2.13950744938367     -0.39550831319446
  C   0.77686890567465      0.35971596377511      0.38400452988525
  C   2.57886316917801      2.27356689399927      1.77743195343766
  H   1.73972139466334      3.50451862403733      0.26400324574457
  C   -2.82241243156230      1.88764049095623      2.85448378912211
  C   -4.21665984931226      1.94404146810692      2.83475738360415
  C   -2.76060601442010      2.47146954551031      0.52648945884853
  C   -4.15692148476937      2.52220884325349      0.50622811195118
  C   -4.91393394818607      2.26173994549738      1.65819744884903
  H   -2.30857352576214      1.62970527944679      3.78560960848382
  H   -4.77569988075037      1.73426530140908      3.75229089313004
  H   -2.21498113080370      2.68888477150099     -0.39455026749048
  H   -4.66892542262453      2.77662527136585     -0.42727474688435
  C   -0.90565690214176      5.55493276702692      2.62461662157769
  C   -1.52796309240627      6.76581793595521      2.31847979943672
  C   -1.60473019043139      7.23042426515576      0.99586203631392
  C   -1.03256704559565      6.43123581671789     -0.00468475829869
  C   -0.41157773521560      5.21679145635068      0.30104106138086
  H   -1.96405743551626      7.36367228002598      3.12514340502915
  H   -1.07635440874833      6.76152458177935     -1.04745085366161
  H   0.01678257363943      4.63103170654785     -0.51673445055612
  H   -0.86026795225440      5.22297974628240      3.66598284308002
  O   3.44613720010003      1.74422856399760      0.89163826695850
  O   1.15620484535753      0.10737760337865     -0.88161029475125
  C   1.75652204519768     -1.17884210260635     -1.13993685992978
  C   3.20507115496362     -1.23248904380646     -0.66763792141963
  H   1.68010744534785     -1.30707545577755     -2.23022590226344
  H   1.15830156118414     -1.95591579682232     -0.64114677806301
  C   4.69616803066125      1.23532211785422      1.40099539501440
  C   5.68211944049285      1.08993719315071      0.24819692942058
  H   4.50924261483121      0.28031310912690      1.92124991055846
  H   5.07222136064782      1.94411954577127      2.15451696330086
  C   5.52199953023583     -0.11058158852216     -0.70254768249954
  H   6.69043630665633      1.03953523116627      0.69574109292070
  H   5.65499255107089      2.03077805188193     -0.33008747003881
  C   4.15199971679029     -0.26809464973296     -1.39717666122329
  H   5.76027260341844     -1.04116928727884     -0.15442379407884
  H   6.31061002620869     -0.01536312681227     -1.46805987888314
  H   4.30284797441735     -0.63900627438698     -2.42639407679156
  H   3.66815026656940      0.71680384456422     -1.49292485975236
  H   3.56104557864777     -2.27087719553976     -0.79700213599459
  H   3.21237165782912     -1.04718455349968      0.41729198793774
  O   2.77394934255350      2.30398387344253      2.96721498460947
  O   0.83795918441316     -0.44798116470567      1.28134056779313
  C   -2.24122698801691      8.56491474354470      0.66919261791535
  C   -6.42752353692638      2.27632222574127      1.62304322422963
  C   -1.25916463110724      9.74480827955819      0.74842049711790
  C   -7.04206822661949      0.90770985857026      1.28774860134824
  H   -3.08189925563253      8.74558093384317      1.36088146517604
  H   -2.67741940419268      8.52299021940728     -0.34359152112065
  H   -0.82727808243504      9.83568114641249      1.75837155668772
  H   -1.76122883190894     10.69630516015740      0.50721192944656
  H   -0.42264477541798      9.61362581810712      0.04280642924827
  H   -6.81169745525768      2.61677633070249      2.60004522878507
  H   -6.76807778064336      3.01897343173742      0.88117471433618
  H   -6.74797897665609      0.14773383788399      2.02987411301287
  H   -6.70524447816282      0.55161948608687      0.30047954742982
  H   -8.14331761895898      0.95953227660679      1.27263380418787
