78
Coordinates from ORCA-job 2281_0.0
  C   0.05725882035674      3.64677932284582      1.75630390240036
  C   1.14957035923771      2.99011940746420      0.86385628634141
  C   -0.80765243379917      2.34089525864488      1.54831851448759
  C   -0.44275130114523      5.00668907018582      1.22695706456591
  H   0.39651000586940      3.77401783211150      2.79607786789137
  C   0.07351500907977      1.97682488533387      0.33294222684471
  C   -2.33510176760528      2.31613825416983      1.40660705401244
  H   -0.52743167019913      1.64013224269307      2.35209960965505
  H   -0.32656092785004      2.35248981223641     -0.61989878109523
  C   0.49463030595906      0.53705696396511      0.15773163244525
  C   2.31246826932748      2.38544242472694      1.63100906630968
  H   1.57997553907526      3.60879503072780      0.06347829191629
  C   -3.03945272717825      2.37792979945449      2.77555498181303
  C   -4.56673417130789      2.36180526512440      2.64582934345927
  C   -2.82748626425864      1.06199285295135      0.65577297696506
  C   -4.35657808131254      1.02770592030341      0.52111249583925
  C   -5.07868657132394      1.13151120340245      1.87645455122583
  C   -1.55170149311282      5.62317311269482      2.10190299438052
  C   -2.00664613823778      7.00084043393290      1.60366954196846
  C   -0.85351692405130      8.00903256766270      1.48181660472018
  C   0.26317429359428      7.40034184116204      0.61783653029726
  C   0.71477883468594      6.02328250378443      1.12213882103935
  O   3.18871398349457      1.80574081128303      0.78347520447680
  O   0.91563651319906      0.29055289644489     -1.09722070438374
  C   1.47931137705097     -1.01233326877606     -1.35219291778864
  C   2.90385149848916     -1.12744919592157     -0.82111088512899
  H   1.44386304836865     -1.12145744237788     -2.44675011147208
  H   0.83380091588875     -1.77484709996162     -0.89118258565891
  C   4.39825043044990      1.25426823039069      1.34063797228276
  C   5.42668919009687      1.08427420793047      0.22867654000877
  H   4.15974333188304      0.30153038301629      1.84404026449557
  H   4.76553787705256      1.94484397148818      2.11509786777020
  C   5.26135660699601     -0.09770173442388     -0.74414378428455
  H   6.41271813710248      0.98960858958487      0.71699334828479
  H   5.45985424910605      2.03208885468404     -0.33787765302407
  C   3.91724565371381     -0.19317757774241     -1.49819744113135
  H   5.43896390145058     -1.04322066441293     -0.19857533231625
  H   6.08535947443210     -0.02521142576663     -1.47412071656339
  H   4.09734420674236     -0.55849681280312     -2.52477339830735
  H   3.47634051413770      0.81084752491365     -1.60144403785501
  H   3.22557706109024     -2.17738390102671     -0.94761601563607
  H   2.87157495544779     -0.95330574323485      0.26510461051788
  O   2.47225258824123      2.43056656925922      2.82575707573556
  O   0.48933471841808     -0.29109645359377      1.03939710698613
  C   -1.35076586217418      9.37119453667647      0.96817603359772
  C   -6.61190566015829      1.14974468638756      1.74795964353303
  C   -0.31542285199797     10.49869193709912      0.99265864824156
  C   -7.23793808649183     -0.12758013763971      1.18193052566342
  H   -2.22150073020001      9.67332134601409      1.57806213903008
  H   -1.73717168518561      9.24576407966559     -0.06109975015173
  H   0.09192471136143     10.64653079475655      2.00756478079042
  H   -0.76311196481830     11.45411131606885      0.67401462613950
  H   0.53550236662167     10.29901022098943      0.32146387230653
  H   -7.04005662675332      1.34389129688074      2.74810558561896
  H   -6.90777488721780      2.01469921509353      1.12450688093959
  H   -6.95901721311203     -1.01009808732707      1.78288987237016
  H   -6.92298477683194     -0.32164343099996      0.14396312535214
  H   -8.33823350579430     -0.06286190419130      1.18122691578243
  H   -0.43968785127838      8.16512800663188      2.49879867699377
  H   -2.48773492085723      6.88856065966829      0.61288525843326
  H   -2.78496855643099      7.40065506101997      2.27703308557362
  H   1.17598259538738      6.13353133510599      2.12183131098423
  H   1.50993514363356      5.64281452240924      0.46104627748934
  H   -0.10443739567812      7.30731124274542     -0.42264991967630
  H   1.13390226398668      8.07576842400312      0.57740025736099
  H   -0.85413272882978      4.86414559830309      0.20711502314681
  H   -1.16851335896221      5.71390893186381      3.13592011141798
  H   -2.42240298897918      4.95591568450795      2.15482238728953
  H   -4.80284516203339      0.23563352948054      2.46883100334913
  H   -5.03141745133473      2.39585657977608      3.64678289037280
  H   -4.90089489287543      3.27755805006558      2.12070891132626
  H   -4.65628279656568      0.10613224530638     -0.00489537030424
  H   -4.68411153700142      1.86957761542137     -0.11941477974264
  H   -2.37574959079028      1.01270103855519     -0.34976056016467
  H   -2.48043044076365      0.16128345216774      1.19417577639802
  H   -2.65420067912956      3.19261728751074      0.81005105931499
  H   -2.71610444441473      3.26510996585662      3.34332703599582
  H   -2.71507963298597      1.50380817559481      3.37037268073637
