42
Coordinates from ORCA-job 2282_0.0
  C   -0.78358974151447      3.72220423023603      1.29665867505246
  C   0.47610838663848      2.89325591022593      1.12553682015454
  C   -1.60266141970608      2.62711703962230      1.36678071130247
  C   -0.91653608174798      5.17758129882388      1.36886027841633
  C   -0.45625328118526      1.64296881911300      1.19193827717114
  C   -2.99098611657156      2.34148421104228      1.74022444086127
  C   -3.74034783863849      3.21009430867234      2.56121907893334
  C   -5.04302065762068      2.88749908726951      2.94254862408954
  C   -3.58988391563928      1.13199837280262      1.33219547562441
  C   -4.89642316071252      0.81496896510296      1.70785729059286
  C   -5.62923068253699      1.69086487327626      2.51427308376055
  H   -3.28825619780457      4.13551399072751      2.92246524370368
  H   -5.60297864718418      3.57309502262042      3.58450971111875
  H   -3.03197940766861      0.44426852519106      0.69538613607724
  H   -5.34516692557499     -0.12222370776174      1.36778761433065
  C   -2.13803370806343      5.82806132376316      1.08903416216258
  C   -2.23610171941918      7.21760462782137      1.14749768106237
  C   -1.11953794922615      7.99208064374173      1.48642603427176
  C   0.10089411669818      7.36311813224294      1.74857291292418
  C   0.20679390074452      5.97187137797290      1.68227548442509
  H   -3.18986452710427      7.70202137149134      0.92079586915872
  H   0.98120500411284      7.95947380938343      2.00323071791708
  H   1.17370567200262      5.49687330605291      1.86369973915648
  H   -3.00947361049489      5.23653089681845      0.80222608895058
  H   -6.65177789614267      1.44245331078752      2.81093210155377
  H   -1.19950198077603      9.08139917292478      1.53501510585436
  H   -0.27910904768309      1.00137605442025      2.07068814375027
  O   -0.34555555093986      0.73790022931092      0.09209619084575
  O   1.14427329085301      3.00497925107481     -0.13466590776612
  H   1.22264486179358      2.96640040496979      1.93048456610360
  C   -0.86089374694200      1.00982460880211     -1.13316635024436
  C   -0.29801539592805      0.04850486855444     -2.15372243274667
  H   -0.81908733436586      0.17842031301512     -3.11011120562375
  H   -0.39664715368000     -0.98896661647398     -1.80018549404785
  H   0.77735765442997      0.24903135509941     -2.28342049347215
  C   2.34789772664161      3.61879639559428     -0.18437375734259
  C   2.89797159860075      3.60620433165687     -1.58936195341236
  H   2.99481509496541      2.56932687999309     -1.94694573680401
  H   3.87594091848936      4.10210438467443     -1.60565705113533
  H   2.20143422296239      4.12430633873968     -2.26687448024327
  O   -1.66851972625543      1.87132076848751     -1.36124408544289
  O   2.89474097219394      4.10572151211605      0.77488268895545
