42
Coordinates from ORCA-job 2283_0.0
  C   -0.80810966576110      3.92012551449176      0.91748076679426
  C   0.43872610735141      3.14213256023003      0.53331895980690
  C   -1.50112081119776      2.79305590803998      1.26210019548592
  C   -1.03079747762910      5.36518548260790      0.90463981995841
  C   -0.26620107265390      1.91456385439973      1.17309648170016
  C   -2.87217704139298      2.41167486774963      1.59170358234335
  C   -3.11101904234156      1.20154737267674      2.27654142521588
  C   -4.41045868111574      0.80286863386790      2.59595713106445
  C   -3.98332923580711      3.19400376729466      1.21146881070804
  C   -5.28021806663082      2.79000213860882      1.52656371791131
  C   -5.50024893411732      1.59660277393773      2.22536737763004
  H   -2.26689281816674      0.56885141231766      2.56140092922028
  H   -4.57300680295037     -0.13457785155158      3.13477512320257
  H   -3.82400006687096      4.11535323115564      0.64812370576175
  H   -6.12849778857706      3.40746352213049      1.21894139539609
  C   -1.97683732143843      5.97985155721846      1.75267098821961
  C   -2.15740978039621      7.36253770455410      1.73617198689232
  C   -1.39617414940292      8.16349759883902      0.87602403414702
  C   -0.44669146411192      7.56963243222239      0.03885405584013
  C   -0.25914612563311      6.18562758214204      0.05471846693256
  H   -2.89231792701637      7.82070305215519      2.40380276041658
  H   0.15536065999882      8.18796223926372     -0.63242239893389
  H   0.48875358358249      5.73233935375632     -0.60037153691804
  H   -2.56129452045777      5.36580124558899      2.44104744720402
  H   -6.51830741474903      1.28339194283565      2.47162029143150
  H   -1.53976010474093      9.24730975912159      0.86411667162054
  H   0.18138107287811      1.68933159280071      2.15214182741776
  O   -0.30565499039293      0.64137312944835      0.51978385225809
  O   1.65962624789876      3.49916865090045      1.19384151671742
  H   0.60460109862524      3.05594520725671     -0.54746336871931
  C   -0.76216307488922      0.53821803526938     -0.75146057491026
  C   -0.82414568709094     -0.90870307429115     -1.17696427242940
  H   -1.08450723822448     -0.96758662609396     -2.24071707456401
  H   -1.58469054389706     -1.43556067949748     -0.57867229223596
  H   0.14030612837340     -1.40434288937921     -0.98890187334173
  C   2.65134879525687      4.06248056580735      0.46819651982024
  C   3.86998658709155      4.30386390003797      1.32473730034366
  H   3.60043121023152      4.92269558885319      2.19451786187097
  H   4.64600528062785      4.80134627530692      0.73064161579373
  H   4.24910075278813      3.34529757907185      1.71272575005496
  O   -1.07196042629627      1.48129725806569     -1.43378595853014
  O   2.55804074924606      4.33151783078825     -0.70457301859787
