48
Coordinates from ORCA-job 2284_0.0
  C   0.26766545287615      3.43822407478137      1.70036523205393
  C   1.20481581299345      2.68867340047247      0.70222390113467
  C   -0.66518416834255      2.15989160647615      1.74041975366251
  C   -0.38332172610977      4.70324112337511      1.21975932272973
  H   0.74280757997005      3.62440314266099      2.67766082967290
  C   0.04586774003573      1.65298593593961      0.47346591378733
  C   -2.15297755622754      2.31957149514924      1.77860920061232
  H   -0.34558790090721      1.53938310245184      2.59335764080723
  H   -0.49083621811617      1.94173610418594     -0.44411293117094
  C   0.39197071733899      0.18580488798066      0.37346337342405
  C   2.42902150796074      2.10253430603940      1.37617291923231
  H   1.51784140219197      3.23094130133183     -0.19665516587537
  C   -3.02874557698380      1.87001550723440      0.87127464124366
  C   -4.51999882907876      2.01333064193148      0.95907563898402
  C   -0.81006720465570      6.68103733901496     -0.28224658694426
  C   -0.11644261059158      5.40973826482970      0.11412589536563
  O   3.51646762929961      2.16747474389526      0.58583273904728
  O   1.24750418601178     -0.01565593483784     -0.65435476135237
  C   1.86209975691711     -1.30963331718553     -0.79987409071271
  C   3.32534731776443     -1.22389413767502     -0.38342235213262
  H   1.76140063415909     -1.58167684783221     -1.86317026222816
  H   1.30961496687531     -2.03623574043405     -0.18795065222176
  C   4.77178605701841      1.69960447818563      1.12152298831559
  C   5.72223385828058      1.37939844710601     -0.02688759324491
  H   4.58962201894655      0.83625946815527      1.77951155929960
  H   5.18173892107762      2.50696007171723      1.75167161949608
  C   5.57418745707875      0.00749578578159     -0.70993780212989
  H   6.74913249989167      1.45534888560562      0.37156740510071
  H   5.62867462893997      2.18644376016173     -0.77501512509703
  C   4.18252023301387     -0.32747137721204     -1.29162667417094
  H   5.87072995028243     -0.78362735053733      0.00353263967963
  H   6.32704311618809     -0.03182769627127     -1.51521381078827
  H   4.30278026577507     -0.83945075708042     -2.26257625751921
  H   3.63359189696991      0.60347534015500     -1.50330432809865
  H   3.74200733983087     -2.24757821100968     -0.37130381655520
  H   3.35929508339974     -0.87425538424801      0.66272651664490
  O   2.44026496411336      1.62789482118687      2.48884434255003
  O   -0.02015061350753     -0.68216851433041      1.10026852602655
  H   -0.09321613098252      7.51654914791224     -0.37510414506032
  H   -1.57985645950207      6.97208184278499      0.44963528148398
  H   -1.29776711971384      6.58022898100663     -1.26844135352960
  H   0.66532135950962      5.06233616896897     -0.57313279380809
  H   -1.16857425633963      5.07927566099735      1.88983043737472
  H   -4.92458281638665      2.54788046744206      0.08085503495650
  H   -4.82558067143335      2.56272491913953      1.86347874142031
  H   -5.01522559758868      1.02587237648430      0.97652953351547
  H   -2.65229388173719      1.33522405008773     -0.01059007314810
  H   -2.54165501650647      2.83429361802455      2.66884894816673
