48
Coordinates from ORCA-job 2285_0.0
  C   0.44985474127875      3.62848276013149      0.96341516605094
  C   1.50185088993421      2.81048097530199      0.15568882998821
  C   -0.43004092275579      2.32019844622940      1.05664579149980
  C   -0.13576191787232      4.77312880941705      0.19275171767249
  H   0.83270326153940      3.95472072340108      1.93842931042058
  C   0.41371327687157      1.70136489043501     -0.09081892241229
  C   -1.91844229463369      2.38744502572793      0.90980919738528
  H   -0.15398283414673      1.79302530307730      1.98022884150647
  H   -0.03823904680822      1.84505247849458     -1.08242224515874
  C   0.82936225297528      0.25697166756508      0.05965070033680
  C   2.71385488254857      2.38560708660792      0.96703884347049
  H   1.87141226195211      3.27293657666413     -0.77244921954793
  C   -2.82205256142736      1.63160578177802      1.55551685665046
  C   -2.56355353646772      0.54550555788270      2.56037623801290
  C   -0.02237699787538      6.60696581809254      1.97268514226907
  C   -0.32731383897683      6.03192285114117      0.62008384837426
  O   3.54502010616663      1.63189959836883      0.21881477148352
  O   1.18973987640373     -0.28325805961369     -1.11733278037785
  C   1.74923263678593     -1.61226488707654     -1.08279249269532
  C   3.20182061776514     -1.59821139788395     -0.62015561862778
  H   1.65513785124937     -1.98066603629748     -2.11549020317906
  H   1.13682417588747     -2.23838373807752     -0.41699774499780
  C   4.79411020748752      1.22241888126587      0.81269010562923
  C   5.75355559775500      0.79120243459919     -0.29016671863273
  H   4.59727679306035      0.41792954134830      1.54197791176370
  H   5.20109372355951      2.07571093851820      1.37629152334085
  C   5.54878924021744     -0.58962481312249     -0.93919781263957
  H   6.76951635768465      0.81909889876478      0.14183559983590
  H   5.73448209872724      1.57546728525761     -1.06789090358766
  C   4.16428920124236     -0.86343967184638     -1.56446319373282
  H   5.77445900144651     -1.37752486753922     -0.19653494840276
  H   6.32573066689776     -0.69265674425797     -1.71569514896350
  H   4.28795109250530     -1.47132715062286     -2.47821337567340
  H   3.70715328374790      0.08567657171580     -1.88616066199077
  H   3.52713354973734     -2.64783109500065     -0.50098269256924
  H   3.22826516161998     -1.16054443274607      0.38937985602445
  O   2.93837827845421      2.68938070630180      2.11262691450377
  O   0.86628108787209     -0.33605865910438      1.11404187891016
  H   0.66499150825983      7.46728240132214      1.88637205488066
  H   0.43109083134475      5.87823006553112      2.65920610040157
  H   -0.94175528933246      6.99297315414479      2.44812753342847
  H   -0.76341754613638      6.73919436499179     -0.09752762167829
  H   -0.43282538619720      4.54965005006274     -0.84084402420134
  H   -2.97148768827783      0.81832116122278      3.55071351155682
  H   -1.49638218192950      0.30879256223413      2.67483812634618
  H   -3.07908346195517     -0.38448389010347      2.26218525739483
  H   -3.88013875924473      1.81689964970829      1.32797050006439
  H   -2.29607024894065      3.12706242598699      0.19397419986658
