47
Coordinates from ORCA-job 2286_0.0
  C   0.10564810964293      1.17453818142228      3.82474161921400
  C   -0.37554528182985     -0.17729855907715      4.27864889203165
  C   1.09956653028498      0.22532932361051      4.43524856715680
  C   2.38197844008744     -0.31755327254469      3.78963627210583
  H   1.31492667761662      0.52417106285501      5.46791516249668
  H   -0.92442333006257     -0.12161431136690      5.22742936730056
  C   -0.98302372947239     -1.22392187773602      3.35797461954268
  C   -2.45864533927750     -0.86621432881189      3.03614767379397
  Br  0.20053131569373      1.61534359074982      1.93396885294113
  Br  -0.42716829026230      2.73752832015665      4.86944818777989
  C   -3.30060972054007     -2.09657981545836      2.62803386464140
  C   -0.91770489540737     -2.63517331706403      3.96700099077438
  C   -1.38424557063374     -3.70726053296976      2.95753560525912
  C   -2.44869180928391     -3.18609132152492      1.95973179081407
  C   -3.29330905977376     -4.32673041261393      1.38674520878104
  H   -2.65986320457108     -5.10673299937672      0.93192499045099
  H   -3.98826921249457     -3.96540398957566      0.61067562803902
  H   -3.89569109156280     -4.80785596343834      2.17714328853603
  C   3.23258823461578     -1.00840147089804      4.89335675939951
  C   4.33559535986186     -1.92929220522432      4.33015975649666
  C   4.84155719366719     -1.44679358791457      2.96342359400394
  C   3.67857382869369     -1.48071861018004      1.94145216189315
  C   2.28592412717798     -1.25710900047280      2.57607451496380
  C   6.05774687591435     -2.23568392120642      2.47194070790564
  H   6.90979800943850     -2.13774805936445      3.16501419595000
  H   6.39080167657800     -1.88547751402408      1.48051784686653
  H   5.82168072279142     -3.31053439655068      2.38197133549237
  H   3.86037959954742     -0.72066083673529      1.16183331318956
  H   3.67847201684230     -2.45495282386335      1.42104698887794
  H   1.86456924028883     -2.22206416812261      2.90434671783840
  H   1.60394701270119     -0.85993537092002      1.81272060193294
  H   5.15869086360862     -0.39395507268819      3.08666937001539
  H   5.16980812975324     -1.99738790698450      5.04876048369595
  H   3.95086569726237     -2.95940235741953      4.21741339024888
  H   2.93409273218462      0.57983319391305      3.45359873454707
  H   2.56703308676175     -1.59489275630265      5.55070675193914
  H   3.68081265285080     -0.22820478162885      5.53286011705298
  H   -0.51942783093121     -4.09324356935389      2.39043110653451
  H   -1.79382200161911     -4.57092301326326      3.51087477098084
  H   0.10193568655409     -2.86139380190971      4.31891186835474
  H   -1.55753597737440     -2.65607592843285      4.86765586787453
  H   -2.91870871671913     -0.38498410718687      3.91675902416692
  H   -2.47220951876197     -0.10821249400375      2.23643222218992
  H   -0.42265548163513     -1.23772826423249      2.41240233317676
  H   -3.79183632092550     -2.53464848068942      3.51623801711255
  H   -4.11746051779229     -1.78407296978306      1.95586582324952
  H   -1.91810691948906     -2.71041550179316      1.11310104239047
