38
Coordinates from ORCA-job 2287_0.0
  C   3.77009430640044      0.42931826077966      1.98442992431975
  N   4.05143184881958      0.70750715190738      0.55955685337489
  C   2.26262197248985      0.46655505041682      1.62676171138779
  H   4.11447660490347      1.22236341122769      2.66644562790196
  H   4.14089998015506     -0.54580650583244      2.33581895120162
  N   2.66606284447257      0.70594958885712      0.22394380866627
  H   1.69699940290518      1.29477450529978      2.08036410523646
  H   1.71700303516242     -0.47834627276170      1.77544068632177
  C   4.97969704525152      0.08035270586850     -0.26108348721265
  C   2.14417637949341      1.64293841874748     -0.65760631884369
  C   0.62185119009673      1.72419051279762     -0.62637681576884
  C   0.06695685635370      2.18547770291350     -1.96489467254536
  H   0.32456734949879      2.44890643243717      0.15416818853189
  H   0.18336348112191      0.75464178160324     -0.34082125074657
  C   6.32560397567975     -0.16184946514304      0.41265130441035
  C   7.43398411858296     -0.33794567730825     -0.61278509822140
  H   6.25454624393891     -1.08013692649220      1.02485930655529
  H   6.56603267020058      0.65873663184311      1.10794859778073
  O   8.62713156121135     -0.67218752270205      0.11075586715545
  H   7.59566188187115      0.58042285424506     -1.19880457547192
  H   7.18661330801354     -1.13420922150449     -1.32987014990863
  C   9.74814620174552     -0.85668143538907     -0.62176722511565
  O   -1.35183711604282      2.32430935083154     -1.80588916547431
  H   0.28460205750554      1.46195810667505     -2.76636707533557
  H   0.51370568918676      3.14361287466891     -2.26825410807527
  C   -2.05380796134339      2.67734169238952     -2.90578154267243
  O   4.74154113696743     -0.20761378214308     -1.41271289639231
  O   2.83786668442755      2.29626033174016     -1.40429670513961
  O   -1.54443411878662      2.87677443047601     -3.97900954849322
  O   9.77909881402268     -0.74963901333209     -1.82122478326795
  C   10.92111934886680     -1.20503967651203      0.26342227574038
  H   11.10164665635410     -0.39336960018298      0.98564823866792
  H   11.81346057586816     -1.36197120836878     -0.35444723450949
  H   10.69909842304552     -2.11378162816673      0.84435929080526
  C   -3.52867848855734      2.77723269650296     -2.59630439581898
  H   -3.69714030506176      3.50962661884584     -1.79140421875588
  H   -3.90385000241883      1.80631140777676     -2.23638942371581
  H   -4.07375365240236      3.07848541698802     -3.49902404657225
