68
Coordinates from ORCA-job 2288_0.0
  C   2.40205076718399     -0.01061026564823     -3.08656624781207
  C   1.22428708773773     -0.21763247866980     -3.81638868478110
  C   0.30900854331079     -1.19302763299339     -3.41234089155846
  C   2.68870065043350     -0.77394847837561     -1.94683237764279
  C   1.78667821316023     -1.76269084634655     -1.54840409113312
  C   0.59673611433952     -1.96055784446791     -2.27853682331095
  H   1.01788194348190      0.39003100079885     -4.70179498202769
  H   -0.61540860233927     -1.35137303812265     -3.97437638254003
  H   3.10838527604231      0.76056288802768     -3.40619490326433
  H   3.59309610244579     -0.58785114180906     -1.37106655207558
  C   -0.17361885329337     -3.03280917009512     -1.64398733586997
  C   1.85039718383801     -2.71999859140853     -0.33903850246700
  C   0.53397809214355     -3.49973850176730     -0.51495656970004
  C   -1.39881733040121     -3.59969973901827     -2.01321482586475
  C   -1.92095984547720     -4.64827709405575     -1.25075214915732
  C   0.00122350072742     -4.54701200226896      0.24236736788362
  C   -1.22457816252508     -5.11793379404964     -0.12982542029476
  H   -1.93760316779885     -3.23235121087391     -2.89060703617187
  H   0.52185125736169     -4.92495430891821      1.12206858938062
  H   -1.63940486840427     -5.93691269516014      0.46406535022334
  H   -2.87544809474278     -5.10342027770501     -1.52909990613327
  C   1.83078315424917     -1.84404818310962      0.94261855798461
  C   0.81716513991119     -1.92154579583447      1.91662145173530
  C   0.82486697225121     -1.02980634549619      2.98520677859935
  C   1.83463997690437     -0.06281304797004      3.09396711812461
  C   2.78879799058992     -0.06598689711228      2.06888192410814
  N   2.77795344153181     -0.90943643452796      1.03757675065416
  H   0.02701231077064     -2.66525947840853      1.84413933844337
  H   0.03586671667949     -1.08659460708540      3.74236111496088
  H   3.60574871324726      0.66831417482661      2.08467513528232
  C   1.88346490593745      0.92717062342943      4.22880084064159
  H   1.00419570701763      1.59408642242647      4.21989133722858
  H   2.78255183846804      1.55969297052646      4.17211348268794
  H   1.89090707507709      0.41759232021216      5.20717558917750
  C   2.39426849287103     -5.56889199070387     -3.85391017990120
  C   3.51606804333694     -5.12982908748524     -4.56708586232761
  C   4.46078540041105     -4.30394419799792     -3.95156884867270
  C   2.18929064835091     -5.17318197050264     -2.52438969697276
  C   3.11684436303842     -4.33059779438270     -1.90638961997940
  C   4.26089304497307     -3.91728420381588     -2.62213999360638
  H   3.65893185297991     -5.44320800646963     -5.60492353457063
  H   5.34698648768014     -3.97274483467261     -4.49935332992427
  H   1.66751211676401     -6.22858439565934     -4.33552688390532
  H   1.31467095303661     -5.53847018416928     -1.98659442438306
  C   5.12114639216642     -3.13704918734913     -1.72887614446253
  C   3.12180953575410     -3.73817272775074     -0.48206682186939
  C   4.50331879722951     -3.04831473012433     -0.46384697285976
  C   6.39168774659766     -2.59314394323851     -1.95005691385239
  C   7.05982605087117     -1.98441825502227     -0.88437618678945
  C   5.19612379545066     -2.47950892890416      0.60578371706320
  C   6.47203249932191     -1.94438386290661      0.38735231193625
  H   6.86323461955478     -2.65875560384755     -2.93424078766375
  H   4.75534690335087     -2.46478366319022      1.60100748848460
  H   7.01624796050275     -1.49362294037985      1.22181634213299
  H   8.05496194038984     -1.55764307683492     -1.03766186055359
  C   3.13657213035983     -4.80704917260407      0.62543971195680
  C   3.38517426009050     -6.16740473833018      0.36733059663082
  C   3.45643080482647     -7.06066037243093      1.43410732817185
  C   3.28156516513612     -6.60744550157362      2.74993652990072
  C   3.04717232940745     -5.23278150397864      2.89544021798245
  N   2.98304594188272     -4.37092537182671      1.88002620207621
  H   3.52426504079856     -6.52154238824814     -0.65343452834902
  H   3.65025874510238     -8.12065557817662      1.24052364365378
  H   2.90604951194545     -4.80894646856231      3.89869344662353
  C   3.34792412648415     -7.53543354045133      3.93530570405440
  H   4.32702637049149     -8.04013850273999      3.99540415983549
  H   2.58140290918972     -8.32619632042734      3.87071679752679
  H   3.19186526979348     -6.99264745419152      4.87992134730257
