52
Coordinates from ORCA-job 22_0.0
  C   -0.99919092674434     -0.46941013734942      0.89885871165474
  C   -1.30400255970807     -1.35981338079731     -0.33550095819158
  C   0.52691788117830     -0.66919374564536      0.65290517571648
  C   0.14673762846749     -1.92430671042073     -0.21279889916761
  C   -2.47688393555656     -2.33970304157979     -0.35584453463135
  H   -1.35328577825700     -0.70102959591174     -1.21343387672147
  C   -2.25381234909490     -3.58988680970653      0.50704727209864
  H   -2.63188883581517     -2.66452869977800     -1.40079360655159
  H   -3.40027548080347     -1.81226891286711     -0.06137709880689
  C   0.24375323301509     -3.24456764736074      0.57351019794617
  H   0.68316157376963     -2.00827552294492     -1.17129155744943
  C   -0.88527187758072     -4.22285531028596      0.22348970688546
  H   0.18994207202585     -3.04042895733771      1.65841721348870
  H   1.23224299809027     -3.70372032513070      0.40397011688979
  H   -3.06354792228087     -4.31560609850578      0.32288194940975
  H   -2.31438352920109     -3.33314336610257      1.58165741153301
  H   -0.76338713008895     -5.15421908037514      0.80162411983063
  H   -0.82329751820225     -4.50847213047664     -0.84358763578821
  C   -1.51799140608045      0.94577353479608      0.98909064176458
  H   -1.28486188238462     -0.97292287605338      1.83851143106798
  C   1.14276507876261      0.44166194098024     -0.16616477036008
  H   1.14842699722577     -0.86363940214296      1.53661595713193
  O   -0.91251227267736      1.87106542932940      1.47172021125543
  O   0.63757646575344      0.94764070340987     -1.14147608037084
  O   -2.76310879814713      1.05637851923457      0.48379088052166
  O   2.35855797732703      0.78998324166008      0.29370144161578
  C   -3.34668861120000      2.36315338483964      0.50409901855631
  C   -4.69371007445289      2.24804296343436     -0.18190012692421
  H   -2.69056581425314      3.07525248834165     -0.02066811577618
  H   -3.45421025958790      2.71479853823332      1.54294766714227
  C   3.02345615697027      1.84929312595500     -0.40198223304383
  C   4.36902106822681      2.03346508205083      0.27170740187095
  H   2.41910251672796      2.76860845430601     -0.34707638732872
  H   3.14006714320768      1.59170276309497     -1.46677204856757
  O   -5.27066542624386      3.55610487188881     -0.16357430491286
  H   -5.35088974996384      1.53487148433836      0.34194401008152
  H   -4.58353528422307      1.89384430941149     -1.21933821999741
  O   5.02413224937492      3.09947221281091     -0.42082646358809
  H   4.97402759234461      1.11401534641685      0.21568319592863
  H   4.25089172240954      2.28597748708852      1.33773104858323
  C   -6.47099519129356      3.69614241676473     -0.77176440499274
  C   6.25793240780263      3.43948862179823      0.01678934836305
  O   -7.04745322867064      2.78174886743560     -1.30355623805769
  O   6.80420944568103      2.88564428126036      0.93657376140896
  C   -6.95760284991689      5.12196316342649     -0.68776863672797
  H   -6.23667671541416      5.79338437797502     -1.18003152472507
  H   -7.02677156454144      5.43619066729485      0.36520748896153
  H   -7.93806778960485      5.20451762864635     -1.17185067741356
  C   6.82514852041159      4.57774569747533     -0.79558334773345
  H   6.16822321153648      5.45819631109449     -0.71767630360133
  H   6.86724391999894      4.29757598248635     -1.85964940899657
  H   7.82929690168135      4.82483785349354     -0.43066791928087
