52
Coordinates from ORCA-job 23_0.0
  C   -0.81076910010920     -0.66111203611236      1.03882628720185
  C   -1.29766014340147     -1.60887245611627     -0.09373089139429
  C   0.67294468845872     -1.11941321094062      0.72044016921129
  C   0.08086276664782     -2.33738579509650     -0.07390250163139
  C   -2.59041552264544     -2.43473107172243     -0.02815324833838
  H   -1.33467608527904     -0.97513223046239     -0.99066651410430
  C   -2.44784070789473     -3.81584840538357      0.63206578495721
  H   -2.92571851814121     -2.58476413888461     -1.06915832746385
  H   -3.37731340139950     -1.83914038178929      0.46267065808006
  C   0.06762694284920     -3.70759402580146      0.61743280017310
  H   0.52973694213317     -2.42788402375865     -1.07370175336865
  C   -1.16024523672125     -4.52518051391396      0.19539397285737
  H   0.04643620391017     -3.58836332465168      1.71129200409734
  H   1.00275648720877     -4.24217852066435      0.38498547581802
  H   -3.33139455419807     -4.42559416082197      0.37919591610599
  H   -2.44234573112305     -3.71533037122937      1.73006054320252
  H   -1.10793770419430     -5.52945736846405      0.64735928874775
  H   -1.16283381626897     -4.67674245258552     -0.90090531045509
  C   -1.11618020603170      0.82712737541033      0.90078170544926
  C   1.31211793107271     -0.09974140863614     -0.24646555621607
  O   -0.31971511173004      1.71335925713161      1.08254283802125
  O   0.86044122618710      0.08542590059819     -1.35370650520611
  O   -2.38970896843912      1.02420018140028      0.53200093995858
  O   2.36010341565073      0.55026819931017      0.24142602834225
  C   -2.81033350530166      2.38569913738879      0.37261405057365
  C   -4.23516175368005      2.34391132981624     -0.14417928975543
  H   -2.14323250662393      2.90347641114660     -0.33403214802697
  H   -2.74803208600369      2.91134203734940      1.33880175064815
  C   2.87959971050201      1.62630361463311     -0.54874328913063
  C   3.94791571017263      2.29417742697259      0.29528192482173
  H   2.06636435984570      2.32577453877296     -0.79541326473329
  H   3.29386044055315      1.23683407771688     -1.49249161208059
  O   -4.63764547140918      3.70396533649903     -0.31479750137081
  H   -4.90448348973423      1.83193073717381      0.56605771777665
  H   -4.29549591744211      1.80306504239198     -1.10237522686603
  O   4.46719182168667      3.36952781592939     -0.49045077113004
  H   4.75159240730740      1.58735749253379      0.55690952822227
  H   3.52261256974932      2.67593801927445      1.23709011564959
  C   -5.88319262056285      3.90845710543888     -0.80677406556920
  C   5.46243998390012      4.09866269375993      0.06636945511207
  O   -6.62999853428737      3.00760957807951     -1.09103376594948
  O   5.90643486037836      3.87322947179548      1.16290802878215
  C   -6.17756929375594      5.38190799873582     -0.93825514987926
  H   -5.43413276239661      5.85735777257351     -1.59688599276002
  H   -6.09917301225187      5.87029342728350      0.04566079225630
  H   -7.18579642558981      5.51964317625707     -1.34687811171207
  C   5.91204464798583      5.19875677087388     -0.86351629493583
  H   5.07232166098344      5.88076829412994     -1.07015075727511
  H   6.22953902896734      4.77298110928445     -1.82791812516019
  H   6.73933820940372      5.75254097060052     -0.40368943795233
  Br  -1.46003139757688     -1.10458374788996      2.85627698602203
  Br  1.88107156863926     -1.52250265533713      2.20960065037699
