53
Coordinates from ORCA-job 24_0.0
  C   -1.31220990252603      0.27662418330899     -2.04904231508917
  C   -1.20442608856729     -1.29269298390820     -2.01509616073143
  C   0.24596083905675      0.31151672313481     -2.26007949109409
  C   0.33484258364116     -1.19033399207983     -1.76957365726832
  C   -2.05156035478995     -2.17315350618032     -1.08640911034900
  H   -1.37441433168645     -1.62037739475930     -3.05178875059250
  C   -1.48112570044123     -2.35254125161892      0.33093989964395
  H   -2.11829265220000     -3.17066009305631     -1.55524448537094
  H   -3.08650209010285     -1.78993297243308     -1.05210899401860
  C   0.77834543667888     -1.43341921267809     -0.31795683788700
  H   0.92962831484976     -1.82342329535662     -2.44465302982239
  C   0.02812689270914     -2.62465474200885      0.29462043413586
  H   0.57307022379208     -0.54752278880851      0.29889594724915
  H   1.86689694153264     -1.59489597991642     -0.29379388228460
  H   -2.01234624277544     -3.18133182924450      0.82805079116630
  H   -1.66328940208557     -1.45296664724893      0.94152253970585
  H   0.40500129346682     -2.80979069399166      1.31402376561953
  H   0.23127560611267     -3.54680109356952     -0.28302290475001
  C   -1.80651715709530      0.93406286130391     -0.77681922066697
  C   0.99990304544534      1.46706673689707     -1.58439028184864
  O   -1.20648536321423      1.01954950534284      0.26876247926383
  O   0.56792340987075      2.58765511291602     -1.52934220082606
  O   -3.06056403937381      1.38984746168247     -0.93974356898177
  O   2.20198880304664      1.08998718744725     -1.13387398544061
  C   -3.66661708586094      2.02379583935925      0.19401517485827
  C   -5.05829149768389      2.44684651360605     -0.23428943019144
  H   -3.05998299804334      2.88857702289708      0.50509767744166
  H   -3.70773735577327      1.32337346529684      1.04322140986253
  C   2.99828725328169      2.11261014925488     -0.51594966609875
  C   4.24330117543807      1.43504946365461      0.02172978908722
  H   2.42364975318881      2.59421713929345      0.28985073460550
  H   3.25014371263240      2.88637872687603     -1.25826386883213
  O   -5.65190436109743      3.07403254117309      0.90377064684266
  H   -5.66022057411476      1.58061924813048     -0.55246120855444
  H   -5.01911194299741      3.15016485474690     -1.08211628032002
  O   5.01627781912358      2.46331187446430      0.64304527210384
  H   4.82057478963701      0.95533514791520     -0.78516847868029
  H   3.98754931795287      0.65317812160177      0.75498805550378
  C   -6.94618887475585      3.45361175718082      0.78089610121503
  C   6.18275559009807      2.08071144182813      1.21535444387642
  O   -7.58682667753132      3.27844346602054     -0.22354615485841
  O   6.56919365272966      0.94018649264723      1.21242557961182
  C   -7.44047332508493      4.10795517458364      2.04703923301145
  H   -6.85377130720575      5.01757411366497      2.25098521308402
  H   -7.29872441420740      3.43143508598987      2.90391810059668
  H   -8.50095568518430      4.36464246826036      1.93764292804718
  C   6.89607158672058      3.25889681367165      1.83030318787543
  H   7.12041796592333      4.00787853141793      1.05471360328501
  H   7.82504906835094      2.91904479629781      2.30346487343220
  H   6.24732806604505      3.74629424523844      2.57446825162893
  H   -1.90014557761017      0.67115790623099     -2.88645694735743
  C   0.56246836153925      0.39895667417630     -3.69037089901962
  N   0.81743349914504      0.44439962934698     -4.82068432181941
