40
Coordinates from ORCA-job 25_0.0
  C   0.16532543332966      0.29853924553815      0.45246271699591
  C   -0.85277078716426     -0.70666665017674     -0.07757509807839
  C   -0.86632628644529     -2.06651139316430      0.63101209872149
  H   -0.70335857382681     -0.84305989792638     -1.16261336749659
  H   -1.85747132061173     -0.25583400614797      0.01790507712169
  C   0.47650147160552     -2.81206565075998      0.68764701121182
  H   -1.61155323414548     -2.71323789138875      0.13266755536452
  H   -1.23312318933433     -1.92954646445573      1.66477253407185
  C   1.67833816220141      0.22641278691369      0.03919153632469
  C   2.06648223477730     -0.58052319632735     -1.20644269264954
  C   2.34829761467815     -2.07849730784385     -0.99158870521081
  H   3.00275322689000     -0.14439738719383     -1.59526520341879
  H   1.32258627181992     -0.44303941725775     -2.01030881715556
  C   1.17890790669718     -3.02484857427312     -0.67189904477951
  H   3.10654650147061     -2.17791143625656     -0.19146116557922
  H   2.83809502002534     -2.45320041438989     -1.90774562116221
  H   1.58447032221390     -4.05055423340031     -0.70262423042066
  H   0.43520491277474     -2.98495017878432     -1.48910358369373
  H   0.28957054533382     -3.79314093010928      1.15654502014773
  H   1.16435747755533     -2.29141052465889      1.37763854760891
  C   0.09586752579726      1.73753766689048     -0.11603426589385
  H   0.09504551698416      0.32904718612593      1.55495943968199
  C   1.65383840491191      1.80409589019614     -0.12466240444850
  H   2.34734549433130     -0.07383670388648      0.86333811727711
  C   2.28710252518753      2.50770157684211      1.08183349616309
  H   1.86118240977466      2.12630103869819      2.02281286907675
  H   2.11809271295107      3.59651816547478      1.05495373877722
  H   3.37253784195581      2.33327118904144      1.10206266547131
  C   2.23048436567447      2.33010064698556     -1.43210114312569
  O   1.59339304999409      2.59504142991044     -2.42447620700133
  O   3.57545137391866      2.44966883744827     -1.38539543584459
  C   4.21250969780461      2.91691513672790     -2.57384385427047
  H   5.28709860665201      2.95223178437723     -2.35377779846457
  H   3.84640387091422      3.91840605532849     -2.84746649510236
  H   4.01822477692647      2.23706301317830     -3.41778123386993
  C   -0.72004060403606      2.79519290469834      0.61337880436207
  H   -0.23383373689873      1.69424220635042     -1.16595029164377
  H   -0.43564936728850      2.88613640316955      1.67432471318589
  H   -1.79399165706168      2.54538946760681      0.58147991437082
  H   -0.60188651833831      3.78630962689923      0.14449080337526
