31
Coordinates from ORCA-job 26_0.0
  C   0.66540575772572      0.21488468338146      0.77775261063473
  C   0.08512633439186     -1.09756286649153      0.20126156419260
  C   2.10175912889376      0.39254902411575      0.19601238465772
  C   2.16375196948560     -0.60750924800792     -0.97476461488972
  C   1.28674400488765     -1.77850344150495     -0.49397050613530
  H   3.19217265823900     -0.90822102689194     -1.22916199643036
  H   1.71973824898893     -0.17104382195116     -1.88627206776995
  C   0.26574333718852      1.58040231656277      0.14181728478712
  H   0.62622633664758      0.24833317165855      1.87806723989415
  C   1.77983721306309      1.90342512304158     -0.09288128278703
  H   2.94213599793961      0.24224334068954      0.89259504343576
  C   2.42134199813602      2.82935058485783      0.94807567682317
  H   2.20303541768546      2.48011459024420      1.96918427781991
  H   2.04705007149514      3.86215460588703      0.85969483036460
  H   3.51358273562609      2.84778979803288      0.81981960153337
  C   2.10985176846591      2.36976266277015     -1.50091843131004
  O   1.30927690983029      2.58179727860388     -2.38182141698326
  O   3.44129334307532      2.49579754336760     -1.68419040617425
  C   3.86845121522173      2.90320091565482     -2.98353287703725
  H   4.96424704279764      2.95246295784594     -2.94565941932550
  H   3.45143480911914      3.88840591712147     -3.24345012378804
  H   3.54597472910584      2.17984946825268     -3.74844023915841
  C   -0.60798167977123      2.54246258509944      0.93341125169633
  H   -0.19813968931139      1.41032912505924     -0.84196499120679
  H   -0.20666045259505      2.74107282043199      1.94047267501213
  H   -1.62137593999144      2.12546924262356      1.06003383364903
  H   -0.71165207537430      3.50903373226124      0.41275078774904
  H   -0.70705271335076     -0.87651612679639     -0.53465339019446
  H   -0.36714050538642     -1.74217005948178      0.97146701220276
  H   1.84860289444747     -2.38326409033241      0.24015424284400
  H   0.98989913332315     -2.45877080610556     -1.30883855410603
