52
Coordinates from ORCA-job 27_0.0
  C   0.38853734643638      0.24213985607233     -0.36398874510578
  C   1.83020476478680     -0.27365083426315     -0.01951458642231
  C   0.91037003508564      1.71581762739095     -0.05893747580218
  C   2.38038934804405      1.16602718414619     -0.15467556282980
  C   3.46592227800696      1.58050987260749      0.83408057485772
  H   3.13834637688330      1.44411032913535      1.87684615066299
  H   3.78466394973070      2.62801447926341      0.72060278778471
  H   4.36216785620582      0.95373903051478      0.69122302860877
  C   0.37976003829564      2.77274263214797     -1.03909543890037
  O   -0.80476857196018      2.88703776079463     -1.22848879246063
  O   1.20515279026033      3.58655409245240     -1.74717511016161
  C   2.47866073944413      4.03311854837086     -1.30907730279429
  C   0.49417025684124      2.16521283064762      1.35274927807487
  H   0.73778842442957      1.39762150565666      2.10311299275195
  H   -0.59199785886745      2.33869514764130      1.37684428203628
  H   0.99648513986692      3.09955646442104      1.65430391450388
  H   2.74356567343458      1.30092683901086     -1.18748137284255
  C   2.56305656725691     -1.37458214344793     -0.79535748503675
  H   1.83975283279908     -0.54531850721081      1.04936761817172
  C   1.90474661484251     -2.76658584598552     -0.83982930394602
  H   3.57448901431130     -1.45836751858766     -0.35424772595795
  H   2.72317001635105     -1.04338462752155     -1.83742922875149
  C   1.44805353976931     -3.37400471709501      0.50069882192050
  H   2.60168443105205     -3.46626295886659     -1.33426829768459
  H   1.04262438361786     -2.70881116791423     -1.51379318813829
  C   0.23889234276652     -4.32640944230271      0.40430164690003
  H   1.17880971271256     -2.57307966427924      1.21082179025853
  H   2.29571854451057     -3.90582220745280      0.96863693558082
  C   -1.12532272153064     -3.62991161026554      0.19126484130501
  H   0.18745412605208     -4.89626731399788      1.34796028559745
  H   0.40829099949178     -5.08048432137812     -0.38752171048835
  C   -1.55997404256057     -3.37095506207311     -1.26299378625676
  H   -1.11498309416948     -2.67886392111495      0.75291084069758
  H   -1.91537315123842     -4.23684237308057      0.66898479513723
  C   -2.76497126503197     -2.42608341120315     -1.40762360450838
  H   -1.81458873151278     -4.34028040105094     -1.72915746380980
  H   -0.72429786464074     -2.98019710257314     -1.86032769493205
  C   -2.58501517516699     -0.95565100890389     -0.97592335412631
  H   -3.60614793565544     -2.84855260427735     -0.82642536589634
  H   -3.09795847841082     -2.43976190747813     -2.46172751019165
  C   -1.73421089553483     -0.02572055937549     -1.86923913265475
  H   -2.23007506625416     -0.91053136123665      0.06911811150027
  H   -3.59626467598946     -0.51443837396606     -0.93987794907264
  C   -0.19278375116656     -0.08230447324391     -1.75419391192197
  H   -2.03936819698966      1.01022001571372     -1.66395775458810
  H   -2.00154363406851     -0.21713796883534     -2.92506105717666
  H   2.51634238261456      4.17068538069662     -0.21786555359967
  H   2.64298481238400      5.01011685256255     -1.78661560745872
  H   -0.34262716356394     -0.07162808874522      0.39643216486788
  H   0.15278766337100     -1.08139395800245     -2.05233200352646
  H   3.28685476104674      3.35197205692532     -1.61726418312469
  H   0.22802451161053      0.59782694955719     -2.51511360105020
