54
Coordinates from ORCA-job 33_0.0
  C   -1.69345673669789     -0.48142053111578      0.34372935192147
  C   -1.59216727600716     -2.03003975690769      0.28683493262529
  C   -1.46095933866636     -2.52139933019577      1.74750157614293
  C   -0.46735505913877     -0.07482571424102      0.72560984870304
  C   0.33592862222069     -1.40564171615597      0.88616685509667
  C   -0.25005462558304     -2.11087958149484      2.13962781430839
  H   -2.24178103818392     -3.02337964078368      2.31858928528708
  O   -0.24156154357450     -2.16805058259193     -0.16370932299915
  H   -2.31332836743683     -2.53776038528484     -0.36267844033191
  H   1.42817536023271     -1.34451992298788      0.82454917918884
  C   0.44239156357919     -2.13748111462647      3.45826411496721
  O   1.74428344857753     -2.65894912993722      3.28183813953479
  H   -0.13525922771684     -2.74110624246487      4.18755405899341
  H   0.49503734063031     -1.09935674348655      3.85033316493305
  C   2.53998274913970     -2.63314786058014      4.44355156694261
  C   3.84447112316445     -3.35879610578991      4.20277785722205
  C   4.98340089915763     -3.03403874856162      4.95437616495295
  H   4.93600848115245     -2.22212172921681      5.68719277995793
  C   6.17992638706808     -3.73363859102805      4.77336000245205
  H   7.05938604720180     -3.46820085723115      5.36650147720232
  C   6.25485728175840     -4.76229752172684      3.82884255725648
  H   7.19167377145954     -5.30656452424238      3.68173729645437
  C   5.12569095074105     -5.08533339337932      3.06966013198508
  H   5.17759159412375     -5.88453609417834      2.32484648482384
  C   3.92735920303978     -4.39026035617705      3.25619484653568
  H   3.04532512866778     -4.63269597996371      2.66071740393993
  H   1.99643893254081     -3.11868256110756      5.28459358314040
  H   2.73739149963553     -1.58883919503242      4.76349943628763
  C   0.05225111014024      1.21795871566018      1.25738469078788
  C   -2.97739989287096      0.22818469565707      0.23271725657314
  O   0.29850400464852      1.31397157705765      2.43648888835782
  O   -4.04197503746259     -0.33753535298158      0.11193136111758
  O   0.29434762997040      2.23331930994474      0.42300053768419
  O   -2.84419626492006      1.56812146782613      0.29583946760921
  C   0.13167538739046      2.10427897454369     -1.00093327435851
  C   0.69990258760940      3.35680462080762     -1.64851954473238
  H   -0.93770253139701      1.98832119573283     -1.23312453278120
  H   0.65881775454886      1.20224354694973     -1.35701202388892
  C   0.57511881024738      3.32990633636305     -3.17259520335449
  H   1.75661121612143      3.46168773474514     -1.34926712443134
  H   0.17234263254757      4.23305804393410     -1.23436683847444
  H   1.12355945611684      2.47878061104981     -3.61015515095081
  H   0.98319094560170      4.25030421301290     -3.61800024425032
  H   -0.47735126855809      3.24495359422140     -3.49196472870252
  C   -4.05537084554104      2.34448863520852      0.27064043084704
  C   -3.68895515816565      3.81231500592045      0.40788922927450
  H   -4.70970842344257      2.00902726696511      1.09275260668860
  H   -4.59368515412749      2.14054201209667     -0.67051633003023
  C   -4.92454489824311      4.71408172225121      0.42391632081601
  H   -3.02232989284696      4.09551977184622     -0.42502713010870
  H   -3.10320447295410      3.94618304479758      1.33298345945872
  H   -5.51386272696791      4.61093459061213     -0.50279487247116
  H   -4.63897227352917      5.77303449113337      0.51962712291360
  H   -5.59013986500202      4.47172808513408      1.26925347888206
