60
Coordinates from ORCA-job 34_0.0
  C   1.08593609112149      0.94607369470291      0.74582914382960
  C   -0.20047202401371      0.41931333456366      0.79350143391208
  H   -0.84617848979104      0.59132063203708      1.65767274595661
  C   -0.67116645417861     -0.36173746487325     -0.28097378765274
  C   0.16077097069378     -0.58019973805222     -1.38844741422590
  H   -0.20746272607034     -1.17996055019281     -2.22577647429517
  C   1.45135041170025     -0.03647521236719     -1.44651926926709
  H   2.08151712943725     -0.20031204514884     -2.32468884640152
  C   1.91522837096288      0.71826600200303     -0.37289243738459
  H   5.11207537952712     -0.03893061874544      4.58992148706445
  C   4.76909548399540      0.24406723833212      3.59075223884910
  C   3.50962751403718      0.84583637943606      3.43986558137055
  H   2.88031739461533      1.03247092854392      4.31409483139783
  C   3.07938442448929      1.20339533158232      2.16835362334773
  C   3.90733043173845      0.97361774651139      1.05056382013822
  C   5.15368363957523      0.38179692888729      1.20254634428225
  H   5.79774067797585      0.21433124832088      0.33520031387953
  C   5.59388846973651      0.00138860862637      2.48650034300181
  C   3.25777851141613      1.42809116391796     -0.24808826671645
  C   1.75441796628263      1.84268852679365      1.78298506585631
  N   2.11617507396500      3.10019988405421      1.07463764394747
  H   1.11298467808629      2.10566196468995      2.63140271925436
  N   2.94687984065178      2.86964958059195     -0.05256069211319
  H   3.90008109113723      1.33910676245377     -1.13131790981137
  C   1.18919363970579      4.08415521678923      0.75766910558392
  C   2.54800700166250      3.70590048738029     -1.08590329925927
  N   1.55369202653873      4.53878617890387     -0.52955621395683
  O   0.28313048364210      4.46802184741784      1.45934504114647
  O   2.98822699184194      3.70687745657773     -2.21274437427746
  C   0.93383160711919      5.63787394001289     -1.19808380497783
  C   0.50402490329149      6.74785679102329     -0.45412679206458
  H   0.62907739211233      6.75934668735135      0.62798924627579
  C   -0.10678763175301      7.82153076852437     -1.10454793302310
  H   -0.44438631021392      8.67957544962036     -0.51727320502361
  C   -0.28303398834021      7.80609122205278     -2.49142814136458
  H   -0.75792517919984      8.65154773034288     -2.99590286368452
  C   0.15208133204052      6.70032694778086     -3.22688999453447
  H   0.02026112220840      6.67629942567612     -4.31192184423342
  C   0.75405915244319      5.61251509176051     -2.58967971768885
  H   1.10014219930005      4.75576769488941     -3.16532157383983
  C   -2.05380706041260     -0.97033089605313     -0.23833319542600
  O   -2.05250251176939     -2.28672047271549      0.35686642434358
  H   -2.43783590434127     -1.12752969839740     -1.25548381412619
  H   -2.74868740017239     -0.32794817821800      0.32030775588299
  C   -2.20463661424232     -2.36538002128035      1.69610325367000
  C   -2.18363517456286     -3.80238221569084      2.15570407125116
  H   -2.97429585012994     -4.37317413007317      1.64452190179084
  H   -2.32813225253384     -3.84461847311764      3.24197880824823
  H   -1.22189309434272     -4.26518502045026      1.88408337189592
  O   -2.33932226000364     -1.40304991713877      2.41254944427412
  C   6.92623763092719     -0.68173308391136      2.65848623625712
  O   7.94820304076640      0.13066965411419      2.05729351373690
  H   6.93672728874182     -1.67438458077206      2.17651378770459
  H   7.16090372862760     -0.84181988124124      3.72268416678626
  C   9.19891152774330     -0.38451677103390      2.05134449796438
  C   10.17441953461449      0.57016976174611      1.40764910169353
  H   9.84332976683070      0.82248155524665      0.38846168476383
  H   11.17140301404751      0.11419920795698      1.38054816782752
  H   10.20686253380345      1.51086167810143      1.97967408460065
  O   9.46756145691761     -1.46470177984450      2.51429086356279
