64
Coordinates from ORCA-job 35_0.0
  C   1.99505903446304      0.21578530028748      0.82422032442554
  C   0.75432873226507     -0.37840907340542      0.59161634471695
  H   0.02642022918105     -0.47396765076991      1.39772214944152
  C   0.45024287704068     -0.89934218494933     -0.67428894299704
  C   1.39820975860550     -0.85478669136699     -1.69447182433477
  H   1.17294305219815     -1.28352740817348     -2.67447845244012
  C   2.65930583824443     -0.28845408627097     -1.45929086649445
  H   3.41117263185840     -0.31449744150394     -2.24837372426227
  C   2.95820595782701      0.26138208478516     -0.21221474186132
  H   4.92050648981431     -2.98057825424317      4.14195063346228
  C   4.86317782774869     -2.20920876466499      3.36949682716709
  C   3.81010882081774     -1.28346622964211      3.39157822963507
  H   3.04235766892073     -1.36866871694228      4.16101218485083
  C   3.72436991637639     -0.29587337866731      2.40964036673814
  C   4.68757182050569     -0.25193743730685      1.37255119528889
  C   5.71372570805491     -1.19668583970460      1.34022848767107
  H   6.42478806645767     -1.21313418520107      0.51392355467914
  C   5.81058623779810     -2.16604632019678      2.34890553126612
  C   4.32279955635612      0.76774713067079      0.28179888228159
  C   2.56540780106948      0.68538154633707      2.17203832069427
  O   3.12846127505707      2.01454762023043      1.98596940791396
  O   4.12443956558029      2.05988271505611      0.92078852618786
  C   -1.00654961548551      2.21025290693272      6.57379766296078
  O   -2.95613449829213      3.06243150782866      8.17069390295756
  O   -2.02823884979088      3.10404686431573      6.12247696492483
  C   -2.96175168761305      3.46125160406315      7.03343010871333
  H   -3.47235657948095      5.29268098871115      6.02659611820190
  C   -3.97662907295215      4.40174931818904      6.43163398241356
  H   -4.70396321966614      4.69472501315466      7.19823572782398
  H   -4.49320064141769      3.91044834916151      5.59204133608651
  C   1.60164723702882      0.98819858510047      3.31482070830984
  C   2.03812235438589      0.97701910136305      4.65046108635779
  H   3.05941743553690      0.68166451457267      4.88831655485752
  C   1.19760522917027      1.38409993929278      5.68702537056855
  H   1.57043795332109      1.36435098376929      6.71566213106854
  C   -0.10272709347030      1.83759516559119      5.42559845543291
  C   -0.52167000131538      1.91213142255366      4.09163640116593
  C   0.32340082011762      1.50921890220752      3.05557817047417
  H   -0.01485956899818      1.63269680732365      2.02717891954225
  H   -0.52395380143105     -1.36389918812864     -0.84792446550816
  H   6.61696146072140     -2.90333702371140      2.31458062173944
  C   5.37952520074480      1.16855903109022     -0.74419178995848
  C   6.74052898927457      1.20289483654548     -0.39809325614642
  H   7.06142447616317      0.87309667880694      0.58934595115318
  C   7.69731472207258      1.68893502386896     -1.29112723353079
  H   8.75097426661584      1.69446359581128     -0.99664348784095
  C   7.32633645127592      2.18340799767092     -2.54865284516422
  C   5.96191703508160      2.20880060368149     -2.87487119536181
  H   5.64836549818045      2.63714088585988     -3.82968745796871
  C   5.00642291616701      1.72327622703045     -1.98077696592614
  H   3.95263189609884      1.80525219146972     -2.24491239966335
  C   8.36773680698442      2.71838436611393     -3.50346668541012
  O   7.01306422317571      4.58905832719579     -4.91400357494395
  O   8.57119274630702      4.13941590318279     -3.34423432379044
  C   7.82626159786419      4.96851843745026     -4.10645985836619
  H   9.23207123583123      6.58587850608055     -3.88517276886213
  C   8.14852834169828      6.41118600913689     -3.80349527655426
  H   7.60155601460685      7.06380367588669     -4.49468054493261
  H   7.85872662298892      6.64098144746863     -2.76570125580538
  H   -1.51041989157771      2.31229556542520      3.86160602369351
  H   -0.43566694205575      2.68384551289764      7.38998800992066
  H   8.08631432191059      2.51549667311553     -4.54629747724900
  H   -1.48219387689955      1.31351357229540      7.01011553057047
  H   9.34918062088069      2.27076643526606     -3.29406928998498
