84
Coordinates from ORCA-job 36_0.0
  H   0.04058609804890     -0.43404471055045      3.01911198465104
  C   -0.01335940078863     -0.18666906139627      1.95499169555985
  C   -1.19068688979918     -0.43219668435632      1.24808554893873
  H   -2.05474156189298     -0.85846210819739      1.76560042513301
  C   -1.28435731487061     -0.13408089226025     -0.12161783242054
  C   -0.16390820487231      0.42223946251490     -0.75778838032593
  H   -0.21449992742994      0.66485533409794     -1.82338402845439
  C   1.01547744938495      0.66419072889457     -0.05147385621790
  H   1.88052112033034      1.08718055851616     -0.57042776758531
  C   1.10632667347678      0.37379351155301      1.31850799826945
  C   -2.56699319219140     -0.37294572518388     -0.87680415116718
  C   2.38479999667592      0.62209479301169      2.07874131086983
  S   3.39235325377644     -0.92980491085068      2.02744061381371
  H   2.16589833874877      0.88039442927065      3.12582197373588
  H   2.95019943489536      1.44543312126037      1.61688556118477
  S   -3.72694935686912      1.02322059722119     -0.50931739920200
  H   -3.04177718017892     -1.31247356487730     -0.55732124429753
  H   -2.37727815431318     -0.41940303991755     -1.95989630850617
  C   -5.24887668071285      0.63410021275481     -1.54331757512480
  C   -5.09076368590072      1.02778616991888     -3.02550171271851
  N   -6.09498400101183      0.64940260668291     -3.82849020105781
  C   -6.07000501012479      1.00659871418614     -5.11186892304894
  C   -5.04113247812838      1.76753275002441     -5.67739550603682
  C   -3.99488741088354      2.16673560987471     -4.84634363952216
  C   -4.01680784948030      1.79618114928570     -3.49949376785419
  H   -6.91419123855738      0.67225103168739     -5.72726918775227
  H   -3.22870974221948      2.10375997933827     -2.81184833092866
  H   -5.06712496723967      2.03789795608734     -6.73567678883339
  H   -3.16858252619815      2.76735822378771     -5.23640982730522
  S   -6.51756724046138      1.84296988762900     -0.92101212942287
  C   4.99340297321224     -0.53453620076061      2.93351144887011
  S   6.04935414666631     -2.02659972837926      2.63346328097925
  C   6.46522162674095     -1.84290302455031      0.83109414917656
  C   6.41708855052599     -0.43845104058210      0.29948144920934
  C   5.68673565610585      0.75082297562527      2.41695371562098
  C   6.07685391257056      0.67409366841108      0.95711897833646
  H   6.69145267622700     -0.35153471774870     -0.75974746261541
  H   6.11568706979316      1.62917551467941      0.42590132410766
  C   5.67307430534522     -2.82293273419725     -0.04881016637063
  H   7.52481695599624     -2.15903915275259      0.81555948908852
  H   4.60750445947006     -2.55344728591201     -0.07308642147273
  H   5.76412056382617     -3.85108928702976      0.33303185279713
  H   6.06295151999162     -2.80584105756676     -1.08187158120930
  C   6.91164953586993      1.12732144403386      3.27113982240675
  H   4.97544980254077      1.58819187904720      2.52295592162518
  O   7.40029556050384      2.38310963521455      2.77291834431540
  H   7.69556823851222      0.36013842918809      3.19129096647380
  H   6.66131156213409      1.23886498464573      4.33627350911287
  C   8.47919049946844      2.90388306107415      3.39648001585430
  C   8.90486562943903      4.20093962892314      2.75065541710642
  H   9.22970419074268      4.01055370665188      1.71528012779210
  H   9.72983355413599      4.64255401182646      3.32265581715044
  H   8.05622080766579      4.90036307384862      2.70220504343693
  O   9.01534700174918      2.37793246938024      4.33904244048187
  C   4.66809749784193     -0.50850432002366      4.42765227131210
  C   4.12796071283109      0.63293447503380      5.05190690754533
  C   3.80097944296227      0.57053936525312      6.40668820152036
  C   4.02463110848611     -0.61722061179791      7.10657244299859
  N   4.89221415376181     -1.63342738376650      5.11099575439884
  C   4.58150656029909     -1.69026031829387      6.40582682415628
  H   4.79150974365743     -2.63860443868068      6.91520313462174
  H   3.38173470881095      1.44540017617219      6.91112314109000
  H   3.78558469005840     -0.70863207539604      8.16854089270560
  H   3.97525736642265      1.55972471509420      4.49696106022793
  C   -7.53852916616615      2.06635144660735      1.64063054244618
  C   -6.94652612629027      1.12205659870186      0.63209085761001
  C   -6.79491797308426     -0.20560009668109      0.85199502775614
  H   -7.08960513534825     -0.60519648753621      1.82764263432081
  C   -6.34426610135021     -1.13785311342232     -0.15967163792740
  C   -5.71064572983282     -0.80247807374687     -1.31166996027173
  H   -6.55742096091446     -2.19691300734524      0.01737162059385
  C   -5.37678083762597     -1.85119787598720     -2.34040976679194
  H   -4.48435190591274      4.61876456603038      1.91539554476653
  C   -5.40287586791680      5.00097658930256      2.38861817747812
  H   -5.50776840518629      6.07427500851458      2.18885864094850
  H   -5.31406134115084      4.81638070098935      3.46990721842202
  C   -6.59070094888697      4.26022910244145      1.82664296638841
  O   -6.53848648056913      2.95240399364547      2.17358021321052
  O   -7.46696399934575      4.74582167047409      1.15647082118883
  H   -7.93661705213221      1.49004488659237      2.48889786804982
  H   -8.34517473249502      2.67334105125712      1.20050951613466
  H   -4.33831778039075     -1.76877357696224     -2.70173216512293
  H   -6.02289414751716     -1.73809576148038     -3.22489820352762
  H   -5.52007044346179     -2.85991358806773     -1.92503658289734
