46
Coordinates from ORCA-job 37_0.0
  C   -0.66087070007825      0.85093042616224      6.09730826006240
  C   -1.67317843006014      1.58854369729726      5.23860287182144
  C   -1.33598439121263      2.01350461558627      3.79379084103730
  H   -2.03216532991762      2.47120624571814      5.79921725124288
  H   -2.55013473665483      0.92043515240080      5.17290894091755
  C   -0.48985544570051      0.95699564232982      3.12548581878314
  H   -0.80659755373525      2.98126264649864      3.78339077073725
  H   -2.29501808797851      2.18078506024218      3.27258833210675
  C   0.69203774103971      0.47193283134179      6.11443054372027
  C   1.92656424013458      0.71531489680977      5.27172970374789
  C   1.92239829373714      0.26322228419637      3.79569781057887
  H   2.73122133276311      0.19859827650368      5.81556166346361
  H   2.18473541976001      1.79016740666547      5.29545199454690
  C   0.99069253521903      1.18071413794759      3.04412235174925
  H   1.61232451249340     -0.79162729204127      3.71764301394182
  H   2.95538491314839      0.32726615462634      3.40940134161468
  C   0.18485262915705      0.99918573992406      1.77198698797780
  H   -0.77885045368389     -0.06486904509468      3.39597049708423
  H   1.27312412047050      2.23210173144369      3.18711694067262
  C   0.27649161998795     -0.25795224006385      0.94307930698197
  H   0.07056216141052      1.91162125848830      1.17369835616214
  O   -0.89498564736276     -0.46187127067180      0.13544708334625
  H   0.43189955565707     -1.14102557975934      1.57918521746836
  H   1.10517150247083     -0.18649654464174      0.22170537600925
  C   -1.89463186422896     -1.21195734412532      0.66672418216433
  N   -2.93084338898377     -1.28647007257126     -0.21355563275767
  C   -4.13515996325229     -2.03875182758329      0.05466238219144
  H   -2.81327617027084     -0.81126924769747     -1.10022955035361
  H   -5.03304090334162     -1.39771836190039      0.01438586402233
  H   -4.05151571757782     -2.46099677494985      1.06486103905231
  H   -4.26946963009465     -2.86929844790400     -0.66063632150960
  O   -1.85840767641946     -1.73857440668549      1.76102140269690
  N   -1.14709733473453      0.29734950511442      7.25978407023725
  N   -0.19287770522648     -0.35792648545119      7.93370349453835
  N   0.90029321297614     -0.25709238481116      7.25562881173666
  C   -2.50528452642749      0.35108119780144      7.78026253028887
  C   -2.65663590527588     -0.38553543812877      9.10633100163923
  H   -3.20173594010856     -0.09167357513699      7.04925028577247
  H   -2.80982934022202      1.40147743004876      7.91906374062356
  O   -4.00821123281715     -0.24675191233525      9.47184655275273
  H   -1.97994356065993      0.04508416488441      9.86954804734994
  H   -2.37113951593512     -1.44898033909823      8.99298997194143
  C   -4.33380006492645     -0.88431024126530     10.67892669440246
  H   -5.40508863874894     -0.71970864014749     10.86774635463709
  H   -3.75705737870576     -0.47521009149580     11.53359989396328
  H   -4.14571655608320     -1.97656293847154     10.63551390883532
