43
Coordinates from ORCA-job 3_0.0
  C   -5.79781334447613      1.05012241874846     -1.66467148649236
  O   -6.99343458954418      1.04676407414937     -1.06826430598070
  C   -5.12492934733618     -0.32678318392111     -1.58208576574428
  C   -5.28736179826836     -1.18100741416737     -0.28108923801004
  C   -3.56163459812333     -0.32180661496050     -1.34338820015905
  C   -5.47375199611937     -1.07758157419125     -2.79020180017110
  C   -3.77204138005067     -1.48153917371793     -0.31965585945921
  H   -5.98356787069131     -2.02799967044304     -0.34279983708623
  H   -5.56355435674713     -0.53303854970324      0.55967988469303
  H   -3.54039322708014     -2.45667373162017     -0.77133999927525
  H   -3.23009140002264     -1.38641617672805      0.63138408023724
  C   -3.09219571637517      0.95588242426641     -0.67845308463649
  H   -2.95118059409379     -0.53565560187761     -2.22827368875830
  O   -5.30492909964757      1.99919531124639     -2.21553542343421
  O   -3.60379030593433      1.42920228963035      0.30997221792648
  O   -2.02480146121763      1.47853109599131     -1.29995022307054
  C   -7.71622524522591      2.28816676823057     -1.07594151478600
  C   -8.99925734604300      2.05276680275434     -0.30344279150615
  H   -7.92202983758812      2.59339913356062     -2.11388122554465
  H   -7.10372021795210      3.07447995903619     -0.60839641344478
  C   -1.50075223136414      2.71456533074698     -0.79207850105127
  C   -0.47424285440081      2.44135687530498      0.29709532254510
  H   -2.31966368280109      3.33645285548849     -0.40425603672859
  H   -1.03094582297205      3.21484341034547     -1.65002493442283
  O   -9.69748322611700      3.29878113888144     -0.30875174939693
  H   -8.79049924701421      1.73449963616974      0.73080337000254
  H   -9.61168358837016      1.26646234803029     -0.77367563517692
  O   0.06224698067321      3.71205304733650      0.67115705241473
  H   0.32853574572661      1.78099517025117     -0.06970710566782
  H   -0.94009334722811      1.95612983821390      1.16919080930589
  C   -10.88957702605306      3.32692683805645      0.33503309705691
  C   -11.51722840591924      4.69578820136602      0.25086949449301
  H   -10.83602585340648      5.44982690112081      0.67483170954774
  H   -12.46900288570987      4.69745060873527      0.79544485386796
  H   -11.68588951445968      4.96689159315844     -0.80312860215234
  C   1.00924947553039      3.70654762912386      1.63914201410384
  C   1.48259892030756      5.10665243478810      1.94121053754481
  H   1.91381595860787      5.56064065702287      1.03512948025039
  H   2.23403490933927      5.07603263428931      2.73928776418147
  H   0.63136268839883      5.73525935653389      2.24560864606307
  O   -11.35550854973591      2.36503638016729      0.88936174225807
  O   1.40053404840989      2.69649743461840      2.16562367720361
  N   -5.74651875890464     -1.69019890603351     -3.73613233153988
