29
Coordinates from ORCA-job 4009_0.0
  C   2.27818850485460     -3.55982936086810      3.71684742248788
  C   2.07251051454900     -2.10714624522773      3.42621943235755
  H   3.03543839159976     -3.68911168763924      4.50784900034760
  H   2.59984593964846     -4.12601766420210      2.83147017273187
  H   1.35097851108773     -4.01515018879845      4.10418236327265
  C   2.17123129469775     -1.42437045947003      2.25775032603393
  C   1.63431064268375     -1.18780326519879      4.51306656526076
  C   1.41323280673543      0.18622532646817      3.89077462314027
  C   1.78083898053144      0.03051306630685      2.42804302691615
  C   2.49406233930962     -1.95801850410077      0.89847913694923
  H   1.66340458302495     -1.75021488395751      0.20137734428987
  H   2.68039361465150     -3.04061921894041      0.90648143802480
  H   3.38263202678904     -1.46096999852383      0.47275499837732
  C   0.34049933971993      0.23725492336764      2.78688473792101
  H   -0.07318186041537      1.22692529331980      2.56931117111107
  H   -0.35683241024203     -0.60198151235905      2.70707643478605
  C   2.50781291801237      1.10437146663046      1.62038652858541
  C   1.64973643427607      1.46175440197763      4.66888333499787
  O   1.49039905744331     -1.48758481990770      5.68172088975370
  O   2.20773223271330      2.40736524086035      4.15020086211655
  C   1.11889589898262      1.50936322724428      6.08002549570653
  H   0.01967665999147      1.41285564783910      6.06012482433439
  H   1.40071911462778      2.46240036535281      6.54658304740845
  H   1.48583324797847      0.64811617472415      6.65863564101546
  C   4.01052165253824      1.18310154793757      1.78432971999799
  H   4.20091327618391      1.81151419548307      2.66986774134239
  H   4.45874610175194      1.66715428243359      0.90564777752157
  H   4.47224460048935      0.20093343438998      1.96728610887131
  O   1.89557558578543      1.83960921485829      0.88126983434015
