33
Coordinates from ORCA-job 4010_0.0
  C   2.05975537028887     -4.01403690143229      3.31584222354441
  C   2.37488628577352     -2.51639889450959      3.31611648098453
  H   2.22613780437208     -4.43783053915884      4.31788396773131
  H   2.70899764066793     -4.54552540681256      2.60156395915991
  H   1.01176996978063     -4.20100633990234      3.03657540197985
  C   2.03240909413425     -1.78402735528536      1.99720367082631
  C   1.58761661479223     -1.76354697581057      4.40202164101658
  C   1.24318195375295     -0.34350028619104      3.88217328407884
  C   1.52260759530967     -0.38235399785494      2.37820079827860
  C   0.09961580569465     -0.28000626667588      2.92007356939457
  Br  -0.92374086189380      1.35049618375337      2.68527697837967
  Br  -1.11305760729482     -1.80830276737054      2.76351170988954
  C   2.12960469186615      0.75164850982577      1.58366879807617
  C   1.68174497558317      0.72918443515322      4.85310413651691
  O   1.34833579002046     -2.14516075490081      5.51392708290453
  O   2.84413117943626      0.97558232070013      5.06088803978607
  O   0.65818365781892      1.27869516322152      5.50249071580590
  O   2.11894607249488      1.91548175126442      2.23927674484337
  O   2.58727810340228      0.60383497811836      0.47691780642838
  C   3.86193314045657     -2.27131694009023      3.68633272136148
  H   4.09135306362615     -1.19668271945798      3.76741266675466
  H   4.51214036439904     -2.71095984057273      2.91315168666593
  H   4.09813029834073     -2.73903033990234      4.65431104416402
  H   2.90930530823404     -1.67508860689081      1.34614475255240
  H   1.26470880827061     -2.32262665124217      1.42223042152017
  C   0.98463609323384      2.24346007472974      6.50708736639771
  H   0.02859697334183      2.57784958862982      6.92757286626364
  H   1.52996776339377      3.09200008073219      6.06717587335307
  H   1.61131638338191      1.78858226155269      7.28887782417117
  C   2.64148304198727      3.04960686577985      1.54285651331798
  H   2.03557719006468      3.26588928491309      0.64988180956100
  H   3.67996641029352      2.86637578223270      1.23022653769210
  H   2.59455102497560      3.88700430345417      2.24926090659889
