31
Coordinates from ORCA-job 4011_0.0
  C   2.39091476905232     -3.82886582049983      3.74055974331198
  C   2.22391255396867     -2.35082310841610      3.58881215265470
  H   2.89274156643699     -4.06042582700437      4.69418765210217
  H   2.96937952162494     -4.27892423709555      2.92157873830376
  H   1.40664684098889     -4.32613542944297      3.78360784625780
  C   2.55481118927756     -1.52993271522704      2.56114197796087
  C   1.55262855619877     -1.57145766081489      4.65754240005000
  C   1.45823987808759     -0.10864509559226      4.21846804585833
  C   2.14222195003747     -0.09322659580317      2.82124061827312
  C   3.18227998924017     -1.92889132609595      1.26312307435157
  H   2.48782287843833     -1.74089182663719      0.42536130793016
  H   3.45169431361781     -2.99382702540967      1.24775939237983
  H   4.09329986670926     -1.34267158469890      1.05595958928876
  C   0.66093986039271      0.08858413340904      2.96061535539157
  F   0.14621951716208      1.30778212282911      2.69880961466808
  F   -0.21471957930302     -0.83832936924122      2.52485758736350
  C   3.01418964616312      1.06707007633411      2.35297776466532
  C   1.62254656424776      0.90711232844948      5.34602517052818
  O   1.16324014753986     -1.99734379012502      5.72417741790136
  C   0.84491673329411      2.22538388206431      5.28484817288770
  H   1.14429799723496      2.86379332227989      4.44056427456862
  H   1.02046464078921      2.79420404104213      6.21209367616584
  H   -0.23864808617859      2.05309258030058      5.19744923024222
  C   2.80567271330999      1.49402920154892      0.89406744844689
  H   3.02705332884092      0.68256751010970      0.18463096232251
  H   3.46344424624206      2.34127806275495      0.64159277948763
  H   1.76589459098033      1.81350316206812      0.72552811583763
  H   2.70093162834727      1.11697189689449      5.46573622668499
  H   1.31985037003013      0.36367497017499      6.25689211537001
  H   2.82578764792682      1.93491311770134      3.00401859858934
  H   4.07005415930147      0.79431100414298      2.52514295015546
