37
Coordinates from ORCA-job 4012-2_0.0
  C   2.85810852560089     -3.30662947150289      4.29000851745741
  C   2.15050942684561     -1.97873474132078      4.03100452901188
  H   2.45825063393713     -3.74848876153818      5.21533517469768
  H   3.93780584858491     -3.16372036190911      4.42938959673873
  H   2.69051896150992     -4.02010972948575      3.46819363330723
  C   2.56742552308285     -1.11852620828748      2.79887669951238
  C   2.13328374975515     -1.04571750023108      5.24654244581288
  C   2.16412951927995      0.42039680734698      4.76236995305127
  C   2.48637761920377      0.36481579023972      3.28664477209996
  C   3.86017074972288     -1.52713494500669      2.07908644483427
  H   4.08652352863892     -0.83823564853780      1.25133332324769
  H   3.74812260447428     -2.53198557758479      1.64354217505143
  H   4.73016154772237     -1.55853558493173      2.74641812339612
  C   3.50468252141241      0.93674862683819      4.27689078384084
  C   4.76647491560610      0.20275659726067      4.67075523597771
  Br  3.74630357472269      2.87995852531746      4.17823795882034
  C   1.86351770765860      1.31592058535496      2.26200134628803
  C   1.17091518234730      1.29805153815627      5.54522782447119
  O   1.93443351145423     -1.37720064617442      6.38482410071566
  O   1.56970092375017      2.14014521057780      6.30897059769936
  C   -0.29172893956667      0.97109822814219      5.35915953232523
  H   -0.56387905083668      1.12961969804392      4.30491660855571
  H   -0.89372658627451      1.61376634944529      6.01516923330470
  H   -0.47927468100836     -0.08552354096596      5.61081953974654
  C   2.68855283426453      1.64362138322590      1.03504222000725
  H   3.74070535681979      1.83485552446072      1.28918230461948
  H   2.25073519291511      2.51413528896264      0.52854159302859
  H   2.65585248188730      0.78598171295599      0.34093689700427
  O   0.72809424291490      1.71389316755628      2.39346555759283
  H   1.75836250944291     -1.20865097793504      2.05467855573797
  H   1.07208586108390     -2.19807522287100      3.90544857389645
  O   5.88342703066444      0.89139529473575      4.46028460271715
  C   7.10874023063712      0.25554416333408      4.84190566009253
  H   7.07449390151712     -0.04566278825285      5.89911847052913
  H   7.89733717514948      0.99948668659077      4.67730802181198
  H   7.29030281744149     -0.63781273920991      4.22499964194335
  O   4.74768304763789     -0.92192673280010      5.11902975105462
