37
Coordinates from ORCA-job 4012_0.0
  C   2.38364766460663     -3.84199828167119      3.61698636865272
  C   1.49775478882380     -2.62146690370265      3.35651151355558
  H   2.01652154772489     -4.36954133069709      4.50945441294557
  H   3.43130653281643     -3.56747227082534      3.80799209446489
  H   2.35553677984435     -4.54197729487524      2.76732606708412
  C   1.80654920966113     -1.71407975651756      2.13086693462321
  C   1.45382855736170     -1.67069374686950      4.55283374570828
  C   1.26279734077113     -0.22539976115549      4.07302633886488
  C   1.36154327012114     -0.28695883859850      2.54722571728441
  C   3.30806398042845     -1.70837770447594      1.79639828029732
  H   3.53262699611735     -1.10313288370445      0.90921363105733
  H   3.66798662920805     -2.72580894571833      1.58781208766272
  H   3.89309865760517     -1.29878349578942      2.63641247686650
  C   0.02721764152706     -0.02292676059508      3.25028153540919
  C   -0.63559768558222      1.35068900767365      3.14093118120892
  Cl  -1.34703719922193     -1.19997941119085      3.22759231324406
  C   1.79750344075236      0.93296553735943      1.74426256697557
  C   2.02783958161738      0.76240656458448      4.97398114561771
  O   1.58885483347193     -1.98190660091274      5.70844701293220
  O   3.19204263837619      0.96207451578500      4.72332099781488
  C   1.32743160243556      1.26572743177755      6.20421173776702
  H   0.40640855679300      1.79849983880491      5.92764153588880
  H   2.00472549669065      1.91129922414487      6.77914808284484
  H   1.04069480276481      0.38784567311911      6.80834166257018
  C   1.98153930894754      0.80239491373080      0.24220845580288
  H   3.05010603050913      0.90559739880125     -0.00641203828484
  H   1.45826506410409      1.64672617584432     -0.22932833394303
  H   1.60780752325328     -0.14347320805463     -0.17199566658479
  O   1.88413890078603      2.01779641361106      2.27809920148070
  H   1.23075656498792     -2.05443594537131      1.25374291332951
  H   0.46177353316709     -2.98412997737066      3.25920853180193
  O   -1.01016691182656      1.59318604114997      1.88076610733147
  C   -1.67120275385031      2.84238339347369      1.64900010412980
  H   -2.57820274309762      2.92111681151904      2.26636964429121
  H   -1.92986533893320      2.85416286933265      0.58317815501934
  H   -0.99857718334635      3.67860205682365      1.89169360886139
  O   -0.86513765941613      2.07866925056054      4.07070987542346
