43
Coordinates from ORCA-job 4013_0.0
  N   2.80624478047878     -1.57558263113445      3.08636103136668
  C   2.47235961972443     -1.09304860869320      1.93992128943189
  O   2.57708110394624     -0.69003681546930      4.09055727173380
  C   2.23416850915253      0.61932462927993      3.53562795056570
  C   1.87380734708958      0.30888779043910      2.06260811872469
  C   2.47097149757420      1.34934692168847      1.12210939944470
  O   1.58489957183931      1.73992512150535      0.18915790777399
  O   3.59095190064998      1.78570597399941      1.20586477024784
  C   2.60309962380319     -1.90374461270902      0.71777931075173
  C   3.32371487657050     -3.11474828787233      0.75546957991527
  C   3.44502973860792     -3.90600983239446     -0.38255228014386
  C   2.85162427525860     -3.50484023293309     -1.58683857337539
  C   2.13231837103204     -2.30538586779010     -1.63769333013301
  C   2.00895711410274     -1.51144109931693     -0.49699258008834
  H   3.78718874153233     -3.42292661743073      1.69382212075287
  H   4.00693264860304     -4.84040716594679     -0.34037275529145
  H   1.66304354721036     -1.98793554163841     -2.57201334539876
  H   1.44030465058871     -0.58228671728042     -0.55661665973373
  C   2.04337189744810      2.71889191774657     -0.75101825612676
  H   2.37308865117163      3.62984004870202     -0.22995713055348
  H   1.18907052398976      2.93753934689254     -1.40318643315430
  H   2.88634792293144      2.32603532011978     -1.33932354289780
  C   2.97384468376721     -4.34632261513866     -2.83320880680155
  F   3.68559682689116     -5.46563366326382     -2.62237751928429
  F   3.57598273810668     -3.67060483144705     -3.83173943959167
  F   1.76455570215383     -4.72049872397026     -3.29570933841121
  C   1.16523649777755      1.24818590589477      4.36488028226380
  H   3.15603211211104      1.22513377472496      3.55208125014420
  C   1.34313540473896      2.39598429860307      5.04276231366862
  H   0.21556141778508      0.70329488192069      4.40611829441712
  C   0.37224681241341      3.10343814837232      5.89160855554988
  H   2.32622070772954      2.87760126434665      4.97139612520166
  C   -0.95117645571520      2.65682001799599      6.08779599324150
  C   -1.82844218239683      3.36100459252524      6.91071841051878
  C   0.77704110584430      4.28145523907540      6.54956938539229
  C   -0.10079449513849      4.98744484762294      7.37502925831014
  C   -1.40823739685129      4.52962061573128      7.55896575880133
  H   -1.29882415362704      1.74762863160762      5.59195956435060
  H   -2.84992815815838      2.99676571085214      7.04949467745976
  H   1.79994113368684      4.64369309840138      6.41103203513005
  H   0.23820328607195      5.89771591272700      7.87674376731360
  H   -2.09889677489609      5.07850065094110      8.20448813450816
  H   0.78485427440026      0.26792920271322      1.89237743400483
