53
Coordinates from ORCA-job 4015_0.0
  N   2.77995146396322     -0.23086319589094      2.84535515854256
  C   2.37268562872810     -0.10184816916612      1.62949648391718
  O   2.36554625513286      0.82870644061065      3.61731963566649
  C   1.51638154282318      1.72305807278311      2.84199350005441
  C   1.57623780475628      1.16512997727191      1.39727784963690
  C   2.33900072412260      2.28041472288414      0.61439461557566
  H   0.59850420159839      0.95119788605825      0.95443603025304
  C   2.16057259316875      3.11398103942951      2.72406984838433
  H   0.52489485573621      1.73413723208853      3.30782867369226
  C   1.27584744198735      4.08009659388120      1.88314674003899
  C   1.45305498554532      3.53901502485051      0.41368211692115
  C   3.29288289729546      2.81599020728174      1.71098463030909
  H   2.81470765167053      1.92352996859685     -0.31068603446833
  H   2.46629843944535      3.52638742786466      3.69654412788549
  H   3.85016654165771      3.71397327579383      1.40078830656738
  H   4.01001832890221      2.06767925339135      2.07653133781649
  C   -0.19172544854887      4.37438967091261      2.26262546235024
  H   1.76673356422484      5.06645252032768      1.93012389492172
  C   0.16486609650651      3.49615321150315     -0.42904647324330
  H   2.07935526633437      4.26756471118076     -0.12648604513108
  C   -0.81428824133879      5.17879542278466      1.12750879436182
  H   -0.20245581024523      4.97215590987157      3.18777729227205
  O   -0.99672693375895      3.23888212124532      2.54277293589553
  C   -0.63963762617524      4.75353769063333     -0.12809939758085
  O   -0.63910365276701      2.34711317480239     -0.14930911090309
  H   0.44872966217925      3.48732095508086     -1.49698028679309
  H   -1.46233157008372      6.03315679072977      1.33946168295022
  O   -1.22970365380443      5.44744676716507     -1.19090824638176
  C   -2.07929417284779      4.79645308433939     -2.01757432495646
  C   -2.62774752332160      5.71595102087912     -3.07353960731662
  H   -3.25293141617024      6.48820185710362     -2.59742317277562
  H   -3.22799633999196      5.14090742746172     -3.78844401570608
  H   -1.80532916447477      6.23550639567097     -3.58791695929313
  H   -1.43454575766370      2.45611120386224     -0.70781594528768
  O   -2.35895822748733      3.62426680752331     -1.89895011133089
  H   -1.09346313463284      2.74270891536412      1.70763339421198
  C   2.67129540653117     -1.11673598494227      0.60794754800388
  C   3.52440161495599     -2.20432479415622      0.89286083003254
  C   3.79450179467091     -3.16410980347671     -0.07267690536995
  C   3.22127584206555     -3.06523825074403     -1.35100058643345
  C   2.37028771503012     -1.99878362349391     -1.66019699287335
  C   2.10600767688246     -1.03957112234921     -0.67602192036192
  H   3.96761480607359     -2.28058126029362      1.88731014638069
  H   4.45304987847337     -4.00896519131121      0.14033374380796
  H   1.92268104882882     -1.92078142823378     -2.64685310902216
  H   1.42974970840882     -0.21857370508301     -0.92490687770648
  O   3.57975295001814     -4.09568237428359     -2.20712965624463
  C   3.19283706609773     -4.24453888078869     -3.50307123239401
  C   3.79564706138480     -5.50889215769547     -4.06523151957315
  H   4.89375010520839     -5.46734905634581     -3.99427028274086
  H   3.48889730071516     -5.62599878201697     -5.11153134286485
  H   3.46484243156674     -6.37745238038064     -3.47442912602376
  O   2.47919032062206     -3.48566262057587     -4.10456549767346
