53
Coordinates from ORCA-job 4018_0.0
  C   -1.05003108026777      1.31187094240928      2.24780337918300
  C   -1.96880198932336      0.28816475644154      1.93039015797752
  C   -1.85004236913147     -0.41574931403723      0.71572409350848
  C   -0.81401696436084     -0.09493059821486     -0.17794059802724
  H   -0.73376786095567     -0.64882356627815     -1.11751290409729
  C   0.09107716552199      0.91979106760375      0.12846139389224
  C   -0.03002202510474      1.61409628732348      1.33776201207821
  H   0.65654637738395      2.42186388092433      1.60143954212630
  H   -4.79823365999504     -1.97687376277799      6.50818078655945
  C   -5.31050127218649     -1.16473279113300      5.98836754379389
  C   -6.17677121883486     -0.31046535516482      6.68977700456374
  H   -6.32827396700039     -0.47912329463910      7.76083156265902
  C   -6.83856774136930      0.75741381984359      6.06816791968513
  C   -6.61776283021083      0.96679476692429      4.68837978582233
  H   -7.11745360752250      1.80130587215937      4.18550934003838
  C   -5.76924091436023      0.13047516614382      3.97792242692016
  C   -5.12044542388650     -0.93627239351250      4.62428572618319
  C   -2.84022774612928     -1.45339813969120      0.46496927233387
  C   -3.87282672491193     -1.66046307296126      1.30047230616509
  C   -4.11079949560735     -0.83359209517008      2.53670664634924
  O   -2.94615290921045      0.01046995788813      2.82662823903223
  C   -5.40018335297038      0.10750359213328      2.50187199005948
  N   -4.32668321115766     -1.64556061421755      3.71715483518583
  C   -6.56269148397033     -0.49977915528793      1.65785680174816
  C   -5.06300521519812      1.49217062241711      1.92907812369077
  H   -4.28342707784388      1.99444661495626      2.51572109536299
  H   -5.96167676988211      2.12902199012825      1.92989899979888
  H   -4.71780640107585      1.41320680571404      0.88503053013006
  C   -3.32093182105681     -2.58204930582226      4.16664320365993
  H   -2.83556327497270     -3.04358361999613      3.29475525299987
  H   -3.78839443536896     -3.38639734085321      4.75737246520190
  H   -2.53727893325213     -2.10715331114827      4.78884981641361
  O   -1.17032941744498      2.07228797473102      3.37538088587252
  C   -1.03634929260436      1.42470278065893      4.63366425836079
  C   -7.79607102084900      1.64137381439193      6.84124608528324
  C   -9.24551208825206      1.12946241350540      6.83595685571283
  H   -2.72512410063551     -2.07273963669993     -0.42987147433071
  H   -4.60006640682099     -2.44915186794713      1.10507424702483
  H   -7.77139351330145      2.66184798631368      6.42108307921392
  H   -7.44938532933139      1.73206932947473      7.88524107066276
  H   -9.63783521394491      1.05417492410748      5.80840748119293
  H   -9.90940890163421      1.80268436824023      7.40381437466332
  H   -9.31263332170485      0.12622918205517      7.28780163581678
  C   -7.20648701057552     -1.80392042670865      2.13769966267322
  H   -6.20922805328206     -0.61265617954969      0.61785127094070
  H   -7.34926671489378      0.27357146530541      1.61924044660136
  H   -6.49648093588387     -2.64345371252437      2.18118253881014
  H   -8.02361480344591     -2.09220612812880      1.45625610227716
  H   -7.63723084118797     -1.69232211959657      3.14458636856710
  H   -1.04285692145523      2.21772907403006      5.39511173247030
  H   -0.07759973094949      0.87728006445341      4.69808420153447
  H   -1.86673930249077      0.72887000738807      4.82918070632848
  H   0.89280115490091      1.17429827439462     -0.56877028067503
