58
Coordinates from ORCA-job 4019_0.0
  C   -4.42476345360318      0.35041028969710      2.28677094154772
  C   -5.40081314530509     -0.07786533028836      3.20930516640746
  C   -6.20964444609375     -1.19549545645517      2.90438115816389
  C   -6.03879016486213     -1.86065174111486      1.68517244148007
  C   -5.07432174698736     -1.40913535339262      0.78780935301482
  C   -4.26342238445916     -0.30780707663786      1.07456079951834
  H   -5.51944590312531     -0.34584249438457      9.47461949591502
  C   -6.31795119693845      0.29438704044031      9.09712586351841
  C   -7.25675701719912      0.85705423864803      9.97392860938779
  H   -7.17124503871569      0.65042012176232     11.04439928090028
  C   -8.30052086013215      1.65995364063615      9.50493137191672
  C   -8.41836743678722      1.91863889688495      8.12868389761100
  H   -9.23257855087540      2.54702005233866      7.75655308602632
  C   -7.49374306591682      1.37019501062935      7.24856586662434
  C   -6.44404298986566      0.56385397054821      7.72933896509434
  C   -7.16246905860191     -1.61599459382024      3.92281713222730
  C   -7.25955273598098     -0.94471781466378      5.08015100352089
  C   -6.43654280454359      0.28089278283949      5.40497187216930
  O   -5.51198746808910      0.60805688300639      4.36152668382396
  C   -7.34284440374959      1.54342581009860      5.74449050586237
  N   -5.67991770941974      0.07852493750126      6.66125835323581
  C   -8.66357960015865      1.56257573613263      4.96554307203566
  H   -9.31266087846523      0.70963618773445      5.21020862061753
  H   -8.47867214889822      1.55885769904871      3.87950224597785
  H   -9.22182023812455      2.48334769551879      5.19796145894208
  C   -6.56741504266258      2.85101978737306      5.46908387969300
  H   -5.57662559514879      2.83760770070144      5.94714746005846
  H   -7.13478296541084      3.69545843924659      5.88998082719946
  H   -6.43347708953069      3.01967390595645      4.39145218379485
  C   -4.42667707977550     -0.56506233212641      6.76144039682949
  H   -7.77212557430919     -2.50360985055044      3.73275935656299
  H   -7.94701382776695     -1.26053999228675      5.86790152043795
  H   -3.51248840706789      0.02529318693452      0.35968577127648
  O   -3.57504698974758      1.39028023243099      2.60729278466204
  C   -4.06248130931537      2.67350951153435      2.58771657543736
  N   -4.89627051099238     -2.11086144643949     -0.49291482050701
  O   -5.60438993966590     -3.08328574469884     -0.70810166227533
  O   -4.05135535006247     -1.67884111300060     -1.26248392477908
  H   -6.64623580349887     -2.72889159981657      1.42902852347348
  C   -3.44215089927762     -0.04539093356405      7.62318557600884
  C   -2.19707496397534     -0.66261159006858      7.73871302097721
  C   -4.10897974410021     -1.71105314621261      6.01210754051587
  C   -2.84883805341274     -2.30319201102347      6.11885292882332
  C   -1.86649957312689     -1.80041305209109      6.98464401265246
  H   -3.65577684371730      0.85519089254478      8.20241179231875
  H   -4.85330220931711     -2.15639035119486      5.35295021071681
  H   -2.63378983298095     -3.19357733932639      5.52006522989664
  H   -1.45740592028406     -0.23701905171599      8.42394527971409
  C   -0.50138826226317     -2.43800806464302      7.07827558036096
  H   -0.54778629408022     -3.52233450238594      6.89121657031898
  H   -0.04807441548991     -2.28319294753220      8.06980562778052
  H   0.19242690833853     -2.00987684094862      6.33251417165249
  C   -3.00361729720700      3.63622449560250      3.04994180491157
  H   -2.75137566876943      3.42122683988822      4.10034899540789
  H   -3.37345938880158      4.66397037924277      2.95440823587114
  H   -2.08434379587918      3.50192829191560      2.45987486105368
  O   -5.18071479152906      2.94168951683899      2.24581688914713
  H   -9.02582902227350      2.08162759670773     10.20488555446804
