65
Coordinates from ORCA-job 4020_0.0
  C   -7.60387330581579     -3.07386518957742      3.79734782727499
  C   -6.95994073821193     -1.84229805979115      4.04572611626159
  C   -6.05175356415197     -1.32590741751351      3.09351049208056
  C   -5.81263124006498     -2.03052587363421      1.90865731731175
  C   -6.47527035323608     -3.23454221340357      1.68353333034104
  C   -7.37043082724051     -3.76679891059372      2.61809562170567
  H   -5.84059203748841     -1.07874049821499      9.60678058817799
  C   -6.71821053373111     -0.52802364443514      9.26346907318542
  C   -7.77267449541320     -0.24869022888870     10.14787455203388
  H   -7.69915969905142     -0.58748754231930     11.18504869157963
  C   -8.90969548105913      0.44539239498969      9.72600966676685
  C   -9.00793782328368      0.88734821971594      8.39408627916072
  H   -9.89478491584332      1.43450711463579      8.06159595283278
  C   -7.97012151522554      0.62066554421215      7.51148582962967
  C   -6.83474532987237     -0.08916749850863      7.94166137772715
  C   -5.40750928089366     -0.06414630304343      3.42505859131440
  C   -5.65622131075258      0.56599769547740      4.58588923977018
  C   -6.60102081356906      0.04345581677564      5.63285275675265
  O   -7.25901264972662     -1.19889257646603      5.17637065226333
  C   -7.77050288639009      1.03212611253522      6.05944983497018
  N   -5.93642761457303     -0.25194121770754      6.88108028316091
  C   -9.01697402430256      0.87959636414017      5.17925295442688
  H   -9.44294544003056     -0.12981660600143      5.24558180158718
  H   -8.78070609201797      1.09106041427364      4.12336160795924
  H   -9.78621268669115      1.60201364477327      5.49495943862512
  C   -7.28991215179945      2.50109229308613      6.02503698974657
  H   -6.36346293003018      2.64045952274341      6.60303341936180
  H   -8.06125516017992      3.14421920377501      6.47489805200800
  H   -7.11980368620032      2.84829670574279      4.99327898639355
  C   -4.79095069028903     -1.14314803143302      6.95201692377012
  H   -4.69666272078856      0.35744821011513      2.70888065198429
  H   -5.14066395982612      1.49436531802678      4.83309447474159
  H   -7.88022557877117     -4.70858292963679      2.41962233092399
  O   -8.53886113561325     -3.55820013691267      4.68741467972094
  C   -8.09904726032801     -4.02243128229779      5.89429592318001
  N   -6.23319735373278     -3.96533380134944      0.43173720157972
  O   -5.42420377184446     -3.49208526058879     -0.35342543490869
  O   -6.85611193057815     -5.00088221064507      0.25044256449293
  H   -5.11927051555814     -1.65210704940434      1.15729661711666
  C   -3.54900466888870     -0.45116951113108      7.51229209071994
  H   -4.56039290819683     -1.52190132560969      5.94620179928724
  H   -5.02709065754150     -2.02935285535907      7.56514018553704
  O   -2.52217064690297     -1.40368785385069      7.59427115087938
  H   -3.76847960375770     -0.01261698792260      8.50916519274030
  H   -3.26140500553408      0.39438697408749      6.85092971378997
  C   -1.30558270240081     -0.89526896242333      8.07148775858021
  H   -0.90490704902729     -0.09299989285013      7.41757603218231
  H   -0.58012045674233     -1.72198585168811      8.09508790554076
  H   -1.40086533089688     -0.47994160486255      9.09625859280272
  H   -9.72094099274278      0.64739203963999     10.42957216341157
  O   -6.94224633183773     -4.07657243666344      6.21909579562504
  O   -9.17170345849597     -4.39776255510634      6.56896509678413
  C   -9.07291076534914     -5.03955513555727      7.89436937380052
  C   -8.43534778896369     -4.07243734524282      8.89406948333497
  H   -7.38580807074572     -3.87247909966478      8.64302165247601
  H   -8.47653120048496     -4.51041320969652      9.90385520841306
  H   -8.97982159267000     -3.11602705086531      8.91276740446788
  C   -8.29123316621511     -6.35060540995660      7.76985555924728
  H   -7.24473333118971     -6.16710711651097      7.49216410541406
  H   -8.75262154592208     -7.00433703222525      7.01290157659080
  H   -8.30850585594993     -6.88133703747546      8.73456755680219
  C   -10.53772996790572     -5.30461577307335      8.24338388800727
  H   -11.10303466857126     -4.36122401189544      8.28234736331355
  H   -10.60892779470450     -5.79713524702789      9.22505475754278
  H   -11.00421093418585     -5.95643579972013      7.48915533569729
