59
Coordinates from ORCA-job 4021_0.0
  C   -7.65233325438875     -2.80577402802844      5.19126210382411
  C   -7.15184458270369     -1.56740145380585      4.73665277501532
  C   -6.15966937572453     -1.48686268003773      3.73169613800017
  C   -5.62898434994609     -2.67671998421428      3.20204352774749
  C   -6.08229457115804     -3.90808753303448      3.66530456122721
  C   -7.08819997254261     -3.96462033063757      4.64265171158698
  H   -5.67045334646126     -0.47097466054515      9.12576237077609
  C   -6.55895048990225      0.10625577766279      8.86319640668887
  C   -7.57051572353394      0.32260801555009      9.81786321454821
  H   -7.44713314305252     -0.09002694591782     10.82318199735482
  C   -8.72358520474764      1.04191444490529      9.50332334500428
  C   -8.88775575672748      1.58096839814981      8.21092329206815
  H   -9.78490312580526      2.15704871691156      7.96533316828630
  C   -7.90437744790633      1.36855046162490      7.26054375112571
  C   -6.73546407529427      0.63214280777609      7.58300585502765
  C   -5.91259552634894     -0.15129025060458      3.20678213137583
  C   -6.28872536852575      0.94522342503440      3.90567943219332
  C   -6.79293999554175      0.74286567852823      5.31931360953106
  O   -7.69459372757093     -0.42821017860718      5.24093479259132
  C   -7.68149028689653      1.91409206315245      5.85292458179356
  N   -5.90569463016653      0.52240169841538      6.45041472865661
  C   -8.78973618267655      2.16777967493682      4.82816130792811
  C   -6.91156727570505      3.24817638771521      6.11080019729202
  H   -5.93389272190182      3.06844911932714      6.57798993570842
  H   -7.51275629454646      3.84805205906180      6.81053336763852
  H   -6.76284604130983      3.85992027556816      5.21362284761981
  C   -4.66761104780992     -0.23762470980805      6.44575011972228
  H   -7.43535844944430     -4.94139008255517      4.98546787086965
  C   -8.74746514488548     -2.81174597957403      6.23898007530756
  C   -9.22833061346083     -4.18409650019596      6.70661207585993
  C   -3.50858441404628      0.49054280823641      7.14104154035795
  H   -4.39066392940692     -0.42400240565379      5.39968468563549
  H   -4.82051302433424     -1.23329821284570      6.90889413612103
  C   -2.21765874237475     -0.33392938975498      7.16404373708310
  H   -3.79644847120537      0.75456729990957      8.17374950993263
  H   -3.33323025457714      1.44878494900732      6.61994719065938
  C   -1.04976749103498      0.38339973492007      7.84352911069907
  H   -1.93565240060044     -0.59979601983233      6.12835969108007
  H   -2.40793068441079     -1.29511610029881      7.67639210281636
  H   -0.80983625413167      1.33155425532658      7.33304761590838
  H   -0.13778866834817     -0.23527254935108      7.84164508270944
  H   -1.28529635092430      0.62684679565207      8.89351331975206
  H   -10.01810796365132     -4.07301146986969      7.46622518864833
  H   -8.41402977422582     -4.77208014453017      7.16154417866837
  H   -9.64778773102124     -4.78003147849751      5.87917036599612
  H   -9.50003649852704      1.18937543337083     10.25814596590492
  H   -5.66626242190624     -4.83469184861876      3.26182303009982
  H   -9.60289927079278     -2.23331640525379      5.84572961762788
  H   -8.39937492504846     -2.22215558377760      7.10527838216283
  H   -4.86807557177954     -2.62175199249014      2.41807539544577
  C   -6.63901427695940      2.25868419726925      3.25631367438762
  C   -8.16535674094444      2.55931971526999      3.44092515192770
  H   -9.45845327309874      2.97196748046649      5.17548455236515
  H   -9.40177715006522      1.26166895071685      4.72334829237204
  H   -8.32644797588792      3.63159899985870      3.24288695162280
  H   -8.71230606966259      2.01931872141966      2.65204103154077
  H   -6.41404858494941      2.20406591977277      2.17990669802615
  H   -6.03549899919766      3.08803353939266      3.65383243544113
  H   -5.58092436020149     -0.05391888656874      2.16695007263795
