68
Coordinates from ORCA-job 4023_0.0
  C   2.68806477779723     -0.29740430758123      0.59509653844316
  C   3.02945156655576     -1.40589514547529     -0.38476145872676
  O   1.86628477736343     -2.24770301393709     -0.56936877422795
  C   0.63060436569635     -1.68708231488715     -0.68074328469066
  C   0.34799495038118     -0.46118488184732     -0.07883391761967
  C   1.42327313595215      0.14442667748404      0.70011508221871
  C   -0.97045761584701      0.09549177091548     -0.18665204588987
  C   -1.97583037804857     -0.65604041075128     -0.88453053251658
  C   -1.64046436479607     -1.91364564146394     -1.44503066200792
  C   -0.36429954415969     -2.45934455552770     -1.36830367306217
  H   1.18556517822989      0.94038107008626      1.40885636978518
  H   3.49474319392783      0.11550862439395      1.20442117332410
  C   4.11178843630037     -2.31006340037370      0.22939119569428
  C   3.76880466410679     -3.46955901620413      0.94032511777903
  H   2.72087085829897     -3.76258296328099      1.01086381487219
  C   4.75138084920871     -4.25056890062567      1.55680781883628
  H   4.49509654632073     -5.15595575692744      2.11145413669132
  C   6.08397878841893     -3.85533001163770      1.46984580639659
  F   7.03119971296508     -4.59453229048855      2.06649179120378
  C   6.45525064890917     -2.70635762991496      0.77503253178066
  H   7.50973530010447     -2.42770268220711      0.72136400885815
  C   5.46434060956926     -1.94187839809836      0.15557850649034
  H   5.75606734709360     -1.04765575936332     -0.39988415121676
  C   3.46568711129904     -0.88031211741263     -1.76807680690961
  C   3.70845555294673      0.47601401393930     -2.01591587977694
  C   4.12737766102584      0.91648502997520     -3.27659204154128
  H   4.32058412037620      1.97203757800768     -3.47904696117925
  C   4.28941967466247     -0.01695551957132     -4.29464883108035
  C   4.04061649720998     -1.37416569980967     -4.08491667842033
  H   4.16826761801146     -2.07666256222170     -4.91128045724630
  C   3.63397448450306     -1.79734177623671     -2.82059237928091
  H   3.43402913684453     -2.85747442526144     -2.64968616403509
  C   -3.29297864310088     -0.12349927323035     -0.99199365747823
  H   3.56345455978803      1.20801304980078     -1.21912114391850
  F   4.69215657718643      0.39489933479392     -5.50556291369299
  H   -2.43166600453916     -2.46802589817620     -1.95511996837444
  C   -3.61338122851749      1.09936345708506     -0.44194177003525
  C   -2.62075401392694      1.84487738516226      0.24077067612577
  C   -1.33437663273129      1.35584179508364      0.36347129149610
  H   -2.87441684866767      2.81723136923492      0.67157687899026
  H   -0.58578368842238      1.95567671072724      0.88419095538937
  H   -4.05038818397281     -0.70681580569896     -1.52364199327614
  H   -4.62768035021676      1.49658711620628     -0.53201772626291
  C   0.01507006868335     -3.76000834092852     -1.93191548655516
  C   -0.77452526867141     -4.54876754946570     -2.69984143995494
  C   -0.50260644937761     -5.85995115149856     -3.29116200466920
  H   1.02172047283989     -4.09270762413129     -1.69795605682250
  H   -1.78212317166653     -4.19006042418277     -2.93834419851723
  C   0.73977394235416     -6.59389735333257     -3.17660443371350
  C   -1.52685057585899     -6.45950901756625     -4.01898148719736
  C   -1.41462871491847     -7.73187803349474     -4.63331898262802
  C   -0.17793152333780     -8.44169622423839     -4.50030845196781
  C   0.88012347508735     -7.83853238257841     -3.76399463366310
  H   1.81705907227779     -8.38832330220664     -3.67399036839242
  H   -2.47425103270415     -5.92138593577662     -4.11866910862214
  C   -2.47912177267359     -8.32566291264232     -5.36835869244652
  C   -2.32949066287539     -9.56880547886668     -5.94869522093502
  C   -1.10513907090062    -10.27171573299213     -5.81614610632627
  C   -0.05410131162892     -9.72059469893199     -5.10905942698130
  H   -0.99507764121433    -11.25650394919162     -6.27829977955187
  H   0.88912322543430    -10.26566141364023     -5.00913120035337
  H   -3.42150223188973     -7.77861395555000     -5.46567837095707
  H   -3.15336397984830    -10.01569273236709     -6.51129629192541
  O   1.73214250886226     -5.99285936033007     -2.47153312258367
  C   2.95204452437209     -6.67067521451668     -2.25927892853211
  H   2.79897554444097     -7.62723973283739     -1.72833137574512
  H   3.57039472666290     -6.00959529809067     -1.63687791156583
  H   3.47962464244378     -6.87120700532659     -3.20908674130141
