40
Coordinates from ORCA-job 4028_0.0
  C   -4.50063319454535      0.89291228300194     12.57026544158458
  C   -4.33446967190860      1.84687121297137     11.36638084718925
  C   -6.03727157633419      1.20084713834849     12.57941500974053
  C   -3.64824407247315      1.10372955558070     13.81508259870064
  H   -4.37460083000632     -0.14733115082120     12.22542532204510
  C   -5.88574949971016      1.77960677938183     11.11649532217873
  C   -3.39402928124562      1.53001715601525     10.23720438587999
  H   -4.08419335392362      2.85994010224749     11.73266852014306
  C   -3.36321989257073      2.53363520280278      9.09948080934410
  C   -4.12016848300021      2.19702236392751      7.81456809188499
  H   -2.31203339184512      2.68007895026971      8.80091622640886
  H   -3.71437879468345      3.52157082065750      9.44845202961616
  C   -5.53339394615624      1.82198268498703      7.58321065753422
  C   -6.63279848103175      1.60952216186759      8.62354612835168
  C   -6.35995848035445      0.89434466914524      9.95812456363191
  H   -7.40612702185798      1.02203994506611      8.09756663221209
  H   -7.10425044093209      2.59107548128142      8.81769848980409
  H   -6.36051091391140      2.77111121911458     11.01504714164671
  H   -5.66805988881283      0.05320335202845      9.78812232440047
  H   -7.32114598523860      0.44442366270943     10.25394555691324
  C   -6.43574676547582      2.31499500913531     13.55595525514731
  H   -5.81146241822992      3.21545806387394     13.43951388172972
  H   -6.35211302093785      1.98433974643313     14.60465838046775
  H   -7.48317634199244      2.61649584301339     13.38456461772961
  C   -6.93909701236236     -0.01550787864419     12.79212779904940
  H   -6.68513499863239     -0.84727691159765     12.11690497801598
  H   -8.00394556585181      0.23137757237435     12.63915799955749
  H   -6.83590229910479     -0.38691936110803     13.82628718675266
  C   -2.59610073284318      0.45349011564501     10.21554579706925
  H   -2.59381428423849     -0.28423958466619     11.02173667354051
  H   -1.91607660227101      0.26723656849229      9.37898603688148
  O   -4.47642967566349      0.85263420532820      7.50604578493458
  H   -3.66445881355208      2.72499156028120      6.96001073310796
  C   -6.11625407347666      2.18658202651914      6.22483848664195
  H   -6.72023906494071      3.10723085236343      6.28732854339614
  H   -5.32279262278303      2.33837240712260      5.47848779206067
  H   -6.77253902673589      1.37749578104618      5.86360137257814
  H   -2.58788549574681      0.88702407544063     13.60408439657768
  H   -3.96307876399040      0.43895954874040     14.63749731617637
  H   -3.70414522062882      2.14079676962360     14.18362086937455
