60
Coordinates from ORCA-job 4030_0.0
  C   -5.12400774983458      2.91755086626021      9.65713144109171
  C   -3.72225084242990      3.29433784817307     10.16097772108831
  C   -3.00563332321794      4.18750485832497      9.19447012998852
  C   -3.27969125109163      4.17615831338277      7.87097911125219
  C   -5.10320306776661      2.27091990059782      8.25974907231586
  C   -4.32201853130760      3.23371432542037      7.27758983765434
  C   -6.39633455548639      2.58369204796923      7.44293979507429
  C   -5.71986216241214      3.84405921941853      6.88994357075391
  O   -3.78441157372419      2.47820037040694      6.22257543403234
  C   -2.56183484906771      5.06192882667827      6.90577516098458
  C   -4.64953802448139      0.81390517433265      8.25996300430790
  H   -5.42199666656245      0.16823824869798      8.70871571002841
  H   -3.71530153350708      0.66735623036812      8.82740279132581
  H   -4.46685135614370      0.47502126856610      7.23195495993075
  O   -5.94239734250185      4.08695742847820      5.51108330035156
  C   -5.91725444288016      5.36533883390847      5.07304922540703
  C   -6.22907562253581      5.47073695916028      3.61639855352431
  C   -4.00869177938621      3.83067010621586     11.57463107693190
  H   -2.23035915410558      4.85195804779870      9.59089857327076
  C   -5.45416487808316      6.32454043768771      2.78752302255541
  C   -7.30518457494132      4.75549215575212      3.04507256098754
  C   -5.74578432494561      6.41478425133517      1.42423225530561
  C   -6.80890443812071      5.69363433531843      0.86584622928860
  C   -7.59260784955826      4.86830343958791      1.67743222927511
  C   -4.29996287629242      7.12797919964600      3.33856364765878
  H   -3.59877705846952      6.49562414366537      3.90535966885430
  H   -4.66014383857109      7.89441645706575      4.04106861422191
  H   -3.75060202123734      7.62077496923080      2.52334057916083
  H   -6.54629462470312      1.85176182884073      6.63742924568467
  H   -7.33664353716210      2.71609484084319      8.00041085657052
  H   -3.12319979172355      2.36659842553939     10.26484766294864
  C   -5.71480541804023      2.17309917338218     10.86090774621283
  H   -5.67068351548699      3.87511154713145      9.56970208683643
  C   -5.19745247237153      2.95753506263707     12.11924642002509
  H   -4.31263845131477      4.88907806715702     11.50842423485375
  H   -3.12786302828249      3.79014557722641     12.23555656311232
  H   -5.33583341649952      1.13895252885646     10.88561783433304
  H   -6.81459889192722      2.11295838164862     10.83552956999594
  C   -6.30412171246588      3.85524084183328     12.69754033968436
  H   -6.72219149483443      4.52552183728881     11.92804702788162
  H   -5.91730959377458      4.48775710907867     13.51456353304934
  H   -7.13350572177979      3.25269233551306     13.10429456674330
  C   -4.71191925043769      1.98223714529926     13.20395653055217
  H   -3.87465212952612      1.36141442657812     12.84299293222000
  H   -5.52169051020757      1.29973516890841     13.51268220922833
  H   -4.36775550529251      2.52177367359115     14.10243992482835
  H   -3.48034334034708      3.13289812284446      5.56800833132180
  O   -5.63987102225284      6.30267395133085      5.78859228203905
  O   -2.71806661792729      4.91151835238569      5.69903288870637
  C   -1.64649285778543      6.15919235879479      7.41351934039961
  H   -0.83561420826205      5.75085487560333      8.03722468268150
  H   -2.20919628810919      6.87948603835556      8.02847611962014
  H   -1.21049626265917      6.67812784049403      6.55029310905822
  H   -5.14900509800406      7.05043174260435      0.76767609559929
  H   -8.43684078882807      4.31302193695722      1.25283207375144
  O   -8.08241662279809      3.98717515521861      3.84693031550588
  H   -8.78849065695386      3.59117147964314      3.31998882822429
  O   -7.03824749518309      5.83482169385687     -0.46278143181288
  H   -7.78749282874236      5.28399965560700     -0.72535381798579
  H   -5.93965115765472      4.75670056150287      7.45900462150742
