92
Coordinates from ORCA-job 4031_0.0
  C   3.28998333110564      2.92548532461844      5.69420852636103
  C   2.71388554565399      3.49461760763722      4.33847496086847
  C   2.20263186092487      1.82620755255809      5.64223360355909
  C   3.12034411524714      3.82491208367721      6.92602848094904
  H   4.30603398388226      2.52499872547664      5.59696146205558
  C   1.41659263162737      2.71691810669505      4.60228749685434
  H   1.67136086650084      1.70265022087803      6.59209626986413
  C   2.74971488639299      0.50788856865925      5.08509677468387
  H   0.71466916504889      3.36258615209564      5.15268094382952
  C   0.75871090843819      2.05814393146967      3.40317359060717
  H   3.25289606357689      3.02397378449707      3.50167504823183
  C   2.57992155731466      4.99499863643495      4.15914584141444
  O   3.56644551696444      5.59143958155994      3.44780035704449
  N   4.08271735159400      4.77184876599322      7.18106177681698
  N   1.91634377489621     -0.57827452121061      5.10177340165925
  O   -0.56541360375470      1.80279146153902      3.52863386520760
  O   3.88452872262774      0.45536893673283      4.61975427549121
  O   1.35033361906018      1.73940362404961      2.40743448615413
  H   -0.90988778519347      2.20601232351449      4.33893249785652
  O   1.69202938190449      5.64828989784946      4.63644707428092
  H   4.15410598668598      4.92492427749081      3.06235433592233
  O   2.14269700906360      3.67900832851630      7.65230254829892
  C   5.32578024310530      4.93344755470055      6.41991497246825
  C   5.63986050834433      6.37749419703596      6.02462532700461
  H   5.25834786012586      4.32536403010667      5.51036273406273
  H   6.16765886426461      4.52373913231672      7.00868529574134
  H   4.81957082494119      6.82368513739373      5.44281258455403
  H   6.54790787346511      6.39136863985931      5.40057540321722
  H   5.84156085140390      7.01182223905917      6.90049687346116
  C   3.91877932835545      5.59590952363928      8.38373254975204
  C   4.97325311278819      5.34910596592684      9.44790843712505
  H   2.92084774154882      5.35592236303585      8.77521916897759
  H   3.91470774373765      6.66097287514691      8.10421148508614
  C   0.62962083899700     -0.61688873565964      5.80151769891891
  C   0.71261042253140     -0.97396733736171      7.28846849856510
  H   0.00136784705856     -1.35403231239889      5.27634452737001
  H   0.11352647703160      0.34450352109123      5.67134771436741
  H   1.16145116800591     -1.96679142119239      7.43739618129324
  H   -0.29714166058850     -0.98213886176678      7.73109923863650
  H   1.31807615514123     -0.24131982614152      7.84537895719435
  C   2.37307772972045     -1.80625445522200      4.43162515184666
  C   2.94180288633151     -2.87030457730782      5.35189300330689
  H   3.13543035552997     -1.49434490950851      3.70559505729846
  H   1.51761762996278     -2.21898647266677      3.87363759707324
  C   2.27906778557869     -4.08831168136978      5.54958476677458
  C   2.79261898850109     -5.07527876220237      6.39826986150662
  C   4.15847793934575     -2.66121668923712      6.02725714631984
  C   4.67775991169512     -3.62853721072929      6.88397326179319
  C   3.99482737015405     -4.83947572055292      7.07539514155716
  H   2.26346335957154     -6.02108554842067      6.52626519007528
  H   1.33938504122084     -4.28374935521676      5.02318364152797
  H   5.62160720051251     -3.47354233814113      7.41136277041039
  H   4.69924695463538     -1.72405702936078      5.87147342432663
  C   5.27086800343955      4.04564877753867      9.88269450944640
  C   6.21920279585631      3.81402230312184     10.87865437750503
  C   6.88922818655494      4.89795774348870     11.46360410989235
  C   6.60119291857808      6.20148609007737     11.05311420171159
  C   5.65057165346984      6.41777461577326     10.05069852587743
  H   5.43392687508848      7.44246343169771      9.73344392824957
  H   7.12894247420822      7.03292014487172     11.52500224166787
  H   4.73999693511910      3.19695682406459      9.44262705135175
  H   6.43811538398514      2.79815261056737     11.21521690941441
  O   7.78088992530595      4.72120491984479     12.49580819720172
  C   8.89569757091568      3.92973134926325     12.34669495124471
  C   9.50435764057152      3.67930007056562     11.11242311618050
  C   9.46110235890007      3.41008625485049     13.51892378614184
  C   10.67050131254089      2.90732658493081     11.06362952986237
  C   11.25617159651142      2.37756962001385     12.22151109179357
  C   10.62582510700070      2.64818519136546     13.44955799547977
  H   9.07722670845480      4.08743226916232     10.19467746253623
  H   11.13757747755583      2.72028708860632     10.09192818278343
  H   8.97376461523256      3.61918844718854     14.47374996140498
  H   11.05531744951744      2.25060468076764     14.37444269396907
  C   12.51898718607970      1.55113178297739     12.16417427517278
  H   12.86756197905382      1.41799646840853     11.12888636209467
  H   12.36586664521460      0.54797993685637     12.59749068237375
  H   13.33723627107239      2.02460272695839     12.73363615658895
  O   4.60301882475387     -5.75964722152537      7.88894172663352
  C   3.89999498056903     -6.76005644016124      8.52274761725880
  C   4.40429062624257     -8.05988659340765      8.44356859986647
  C   3.77379173610204     -9.09347442892586      9.14255473107921
  C   2.63169414845411     -8.85927225583441      9.92228139452236
  C   2.14371325276564     -7.54188873062629      9.98657596229113
  C   2.76598615214306     -6.49679456943410      9.30324829761686
  H   5.29468749206756     -8.24415305581243      7.83868454438854
  H   4.18165444501069    -10.10642694725989      9.07626334734527
  H   2.38092964603822     -5.47741724174004      9.37754975740510
  H   1.26063981451532     -7.32482194456669     10.59561309747629
  C   1.94255944638925     -9.97552315240425     10.67050752975469
  H   2.49294775523686    -10.92379304240365     10.57808420407683
  H   0.92033995246473    -10.14458411938869     10.29021548862290
  H   1.85049841443899     -9.74358549505808     11.74498212209150
