41
Coordinates from ORCA-job 4032_0.0
  C   -4.70609291781437      2.21212487245104     11.35991462592835
  C   -6.16068491814893      2.46544582720986     11.85953967193543
  C   -6.18696853464991      2.87697561785726     13.33725541841146
  H   -5.44873212491434      3.66206441699023     13.56279378526669
  H   -5.94584496973861      2.00893116509599     13.97405463629089
  H   -7.18209987134549      3.24722607467779     13.62886520273772
  C   -7.15077912908280      1.33012840538616     11.60074193121659
  H   -7.18057724555661      1.05447971179448     10.53434017129549
  H   -8.17412315107966      1.60546595093666     11.90336084962358
  H   -6.86597245911685      0.43207964219270     12.17606136679397
  C   -6.22356471924345      3.67720023249667     10.85893043031198
  C   -4.65383114304730      3.63388042308406     10.74040652993421
  H   -4.66450963593538      1.43024355845466     10.58631604443065
  H   -3.96537116623884      1.96870291548269     12.13555304706839
  H   -2.46583510279233      3.35988517533744     12.44084585053893
  H   -6.80709400718350      5.92857960569243      7.36781449230391
  C   -2.74123143350782      4.38742406422683     12.19341580641528
  C   -7.00512944837472      4.93889205077259     11.25026934270828
  H   -2.10254769912372      5.17661510083212     12.60198113543332
  C   -6.28399843173778      6.75429081006320      7.87915958531927
  C   -3.80008989035263      4.68225089247048     11.42561343978105
  C   -5.91436624314225      6.36886801722461      9.29084535019648
  H   -5.39437506427273      7.02626756486083      7.29282422793848
  C   -7.10084085338548      6.03675448859330     10.15519023030193
  C   -4.64463846891345      6.41316913759243      9.74065470057743
  H   -3.87166430237278      6.69691988497414      9.01567925300927
  H   -6.98363340747343      7.60483880287230      7.89132534337349
  O   -8.15488180226081      6.60945132405512      9.97600457722769
  C   -4.15118241448218      6.14161879419535     11.14016238189774
  H   -3.26277226348501      6.76250406902759     11.33290792603380
  H   -4.90422900305001      6.47555031244273     11.87320882338076
  O   -8.32832578251350      4.64204800491183     11.71688035299669
  C   -9.25196749408907      4.16977334697642     10.84317487692183
  C   -10.62358727117546      4.17994700822001     11.46879077005341
  O   -8.99579451440681      3.79585651290528      9.72640943265792
  H   -10.59454081366591      3.76758039535902     12.48814189133340
  H   -11.32058761717049      3.61253434562230     10.83997171383648
  H   -10.96239648043884      5.22578154579513     11.54387352393842
  H   -6.63877061321580      3.31617138573275      9.90914181615670
  H   -4.34630217770027      3.63899748824034      9.68091097876728
  H   -6.54127541380049      5.40537105689303     12.13240846565493
