94
Coordinates from ORCA-job 4033_0.0
  C   0.67624438484052      1.17309229953465      4.37221690954941
  C   0.88741297485476     -0.01146793057812      3.39060832959668
  C   -0.69586227413748      1.45205356310164      3.67243046987410
  C   -0.62347024491164      0.02096416372029      3.06745914843095
  H   -0.92979894467421     -0.10396197337321      2.01604202850900
  H   -1.16360761081643     -0.71690674102080      3.67646630336564
  H   1.29517914056732     -0.94543796688137      3.80626705507860
  H   1.50184382184031      0.28059576886978      2.52193773770289
  C   1.76680266471082      2.25366168273155      4.36589229793852
  H   0.55114339241835      0.81120479075493      5.40332795763459
  C   -1.96740532820359      1.92767884939854      4.40246961983741
  H   -0.52445708250476      2.19751237266791      2.87777260719982
  O   1.30359075655239      3.37424009799215      5.11688337149401
  C   1.81527628418506      4.61512771445343      4.74396654592324
  C   1.07577045020841      5.23547734901329      3.55983294669319
  H   2.89465482412156      4.58369952298066      4.50025845409549
  H   1.70961557263584      5.30434279359737      5.59906496511601
  O   1.58773075732096      6.44694519353464      3.27833663021809
  C   0.98416815677803      7.15901683668886      2.19633727399291
  H   1.07093460490534      6.59111840398736      1.25716925550526
  H   1.52395909928550      8.11087666711712      2.11609437643508
  H   -0.08321736736565      7.34128993613749      2.39489796567250
  O   0.16131522800732      4.73569419594077      2.95378895747535
  C   3.05848186743459      1.67503623128162      4.91147485696884
  H   1.91444294374405      2.56370530357058      3.31038527429703
  C   3.66764884532937      2.04743333094745      6.04185872720076
  H   3.42549667066458      0.79944771704351      4.36001267872384
  C   4.85059560409427      1.32128811323720      6.65355220495063
  H   3.26742627144081      2.90468131443454      6.58885520746689
  C   5.18157774893928      1.53879455355258      8.16227057284021
  H   5.75948196473955      1.64821352158317      6.11575094389391
  H   4.76617678781460      0.23851221277205      6.45196917332482
  C   6.63713730710352      1.08268051066861      8.38997863481520
  H   7.30066290837403      1.57799418937209      7.66480392842565
  H   6.74088257907652     -0.00607789360694      8.24190353059255
  H   7.01554084392056      1.32789735256920      9.39190211911883
  C   4.25750274174099      0.84109222970115      9.21954764091078
  H   5.12364979975858      2.62151044867761      8.36790850512666
  C   4.65758719963970      1.12694769521520     10.66924051120026
  H   4.58844350877079      2.20375040318514     10.89155948529918
  H   5.68996787739200      0.80367572117961     10.85662373474873
  H   4.02831447617837      0.57078662648051     11.38008144082404
  S   2.52576919091547      1.39094038402757      8.91301360105235
  H   4.21269814863642     -0.24352966509048      9.02896093595537
  N   1.60227241985118      0.93700112292461     10.27321249283892
  O   2.58153741925059      2.86351895227980      8.87137753637964
  O   2.01964144670711      0.59631002360924      7.79401477417187
  C   0.22813638951346      0.53264928600525     10.34666503938138
  H   2.04064706639105      1.04597157508022     11.18465200450354
  O   -0.13133217663468     -0.01935749116337     11.36710686829521
  C   -0.63405078716776      0.81747697181673      9.18075467715681
  C   -0.44041264487745      1.91285807488969      8.32523563879974
  C   -1.13256991442987      2.00925603283901      7.13352466331706
  C   -1.70926119047079     -0.03734156456840      8.88433674269705
  C   -2.46133643760792      0.05472945569076      7.71067651695060
  C   -2.06673242250516      1.02380989658800      6.72375950344538
  H   0.28587304585026      2.68971209449620      8.56050704445664
  H   -0.86787594056431      2.82794479679503      6.46976442174475
  H   -1.95801743887378     -0.81754639328467      9.60946028705862
  C   -3.69794744807083     -0.83329522875665      7.60460484279751
  N   -2.55263527223483      1.04124634627787      5.42269510838314
  C   -3.38498119870047     -0.04409013006662      4.91027794105188
  C   -4.90510390446755     -0.15050195686635      6.94745030533144
  H   -3.97411565000888     -1.11797837211072      8.63161446281256
  H   -3.47527728678148     -1.78910107546633      7.09650759730164
  C   -4.86357773133257     -0.15210920944770      5.39204217914500
  H   -4.96966321383996      0.88251927235304      7.32219971855141
  H   -5.83701663354535     -0.64271659622699      7.27248222011510
  H   -2.89672431532544     -1.01166873979757      5.12105794990979
  H   -3.40276828560028      0.04886810800798      3.81699650463155
  C   -5.34248803775014     -1.53268184820953      4.86321956703331
  C   -5.73478868147927      0.98993207507918      4.83481781875798
  C   -6.89891793093529      0.76068741559654      4.06467533516581
  C   -7.38747701145359     -0.64152792898102      3.75857891977546
  C   -6.85934524559155     -1.66153425344142      4.76336056474301
  H   -7.05659031523371     -0.93342825438886      2.74286892327969
  H   -8.48976920890933     -0.64822064004121      3.72814173587730
  H   -7.13517560275544     -2.68400483890622      4.45593102648303
  H   -7.32680115055625     -1.49394250185316      5.75013721733305
  H   -4.92271039811878     -2.32604968411285      5.50402830969302
  H   -4.91867284443659     -1.70395573832721      3.85633540786781
  C   -5.39191727701011      2.32757605581271      5.10959306141919
  C   -7.63608917016745      1.85294718345657      3.58052464968482
  C   -6.13226440700070      3.39985711643122      4.61246830297666
  C   -7.27368843466559      3.18168613861194      3.82821007098596
  H   -4.51879390835359      2.53721520571402      5.72896470412468
  H   -5.81998333304319      4.42243096080834      4.84511231053537
  H   -8.53743385638085      1.64953706409900      2.99123630904929
  C   -8.09919242858426      4.32543372405647      3.28878246465934
  H   -2.74809765690434      2.08079492550059      3.64058754169622
  H   -1.78487274728683      2.92476407771719      4.82413179116691
  H   -7.64095109819410      5.29883228584068      3.52019246069571
  H   -9.11625752016714      4.32445699313871      3.71754837271828
  H   -8.21344817587291      4.25859132332920      2.19366117797400
