67
Coordinates from ORCA-job 4035_0.0
  C   7.21548659499639      0.83305516799509      4.12663570279094
  C   7.48286463640896     -0.19848562212064      5.24650570225550
  C   7.00396345298779     -0.36593741426497      3.12770802489068
  C   7.72091832105729     -1.28165389571143      4.16408631324068
  H   7.54587677685396     -0.21967614171705      2.17924648199483
  C   5.55834054444179     -0.77389055800611      2.85217928919292
  H   6.58016050868733     -0.38583505144273      5.84782916568913
  H   8.31850666299151      0.05659449704588      5.91443024464653
  H   8.78910449952181     -1.41417260375856      3.94059165417132
  H   7.26572778293959     -2.26994525398668      4.33526445455215
  O   8.49175873069076      1.44732916354253      3.85171579070315
  C   6.13599355843213      1.88641130367972      4.30691490370250
  C   6.02985414674464      2.79655578898577      3.07333345079832
  H   6.37335905986466      2.49666585770098      5.19755740108672
  H   5.16283532452087      1.41087589771845      4.49008683243040
  C   7.42186205308375      3.32670726949754      2.74431490103601
  C   8.57007903848451      2.59736914234098      3.14588036686050
  C   7.65587231838021      4.52298115654613      2.06579731140867
  C   8.95827470573766      4.96278023560647      1.77930798042147
  C   9.99522422523804      4.13397841910177      2.22513947942460
  N   9.81012906025236      2.99447307282597      2.88988106389733
  H   11.03912777559261      4.41572180419603      2.03011030639977
  H   6.80428254571429      5.13192259922023      1.74782248626944
  C   9.22779526999289      6.26961494885085      1.06762706806710
  H   5.01120624764715     -0.98771789022942      3.78615690931640
  H   5.53969252363041     -1.69721837782860      2.24940489318588
  H   4.98982584283519     -0.00389093846559      2.30776507781525
  N   5.00259605249524      3.81762211565251      3.25195094659499
  H   5.69191089589676      2.16716346105445      2.23461765102425
  C   4.17034522648623      4.17987339056898      2.11362700731908
  C   2.96811301000958      3.23355722743765      1.93433045165430
  H   4.73326711441215      4.21890471118144      1.15842415090550
  H   3.78307243185844      5.19804592850802      2.29161026082743
  O   3.35498354648443      1.93096107034630      1.55217076483374
  C   1.87123004857780      3.83018503221030      1.01168956730386
  H   2.50633711689808      3.13185511708220      2.92995024478332
  C   0.71477099716356      2.83495900229729      0.72882530931736
  C   -0.08670402985527      2.43874776719785      1.95041438638109
  H   1.14089431185589      1.94315680516911      0.24692451860334
  H   0.04405632342003      3.31143689292767     -0.00474149592217
  H   5.37346723845812      4.63610220532038      3.72578097754765
  H   3.56156528373874      1.97181779853974      0.59049535797664
  N   2.37591660017509      4.40560369062994     -0.25100679904558
  H   1.44993603445932      4.68992574375799      1.55862877587538
  C   3.11146024211074      3.75995573406800     -1.19425154538168
  H   1.98502348790970      5.30139516953425     -0.51664623069273
  C   3.32533079914027      4.50426060695631     -2.49988324102521
  H   2.88127101930177      3.91175326204150     -3.31495676683888
  H   4.40631985741051      4.56169399949926     -2.69685651295593
  H   2.89746837874302      5.51714234215804     -2.51592901139576
  O   3.60137997479822      2.64441623445836     -1.02561267144637
  C   0.30804546901599      1.36401328721214      2.76715147557396
  C   -1.24685882304853      3.14824940620367      2.30250664428987
  C   -1.99740921823623      2.80641778907505      3.43080674904408
  C   -0.43140142816508      1.00740772050271      3.89761104902734
  C   -1.57644608643683      1.73566054439828      4.21544542285012
  H   -1.58169360739951      3.98161966509781      1.67688222173039
  H   -2.90350388184098      3.35071379558578      3.70553787081247
  H   1.21544837848598      0.81028698535395      2.51317355809974
  H   -0.13372503044000      0.17245668121079      4.53568203035187
  F   -2.29247471451936      1.39690584468038      5.29941839693798
  C   9.13537919341749      7.50237883637847      1.98112674407796
  H   8.51671977458816      6.38529074991232      0.23031923921159
  H   10.23174854632635      6.23104103077940      0.61145041994268
  H   8.13441642510774      7.58967912114978      2.43555165285537
  H   9.33234225815724      8.43070209756228      1.41958509641206
  H   9.86574857531022      7.44075855897679      2.80404207629053
