106
Coordinates from ORCA-job 4036_0.0
  C   4.36715495130499      6.24079059539200      4.08234478814912
  C   4.70921079074834      5.10525034420072      3.29038392804724
  C   3.79433079433293      5.33183506905472      5.13724484354004
  C   4.13787395770010      4.19588478274324      4.34755830973602
  C   3.18351568602686      5.19923886555827      6.36451315349195
  C   3.89326743376238      2.90770777290883      4.75616877192715
  C   2.91758152230461      3.87567723056628      6.79350318582607
  C   3.26046358750975      2.74410332352243      6.03302280691344
  H   2.90325356036686      6.04932521756049      6.99124298057926
  H   4.18099550215659      2.04071221521133      4.15760794190161
  H   2.41378279454657      3.72764671945936      7.75118658992885
  C   4.62945691315617      7.52772346622032      3.68202033576032
  C   5.28338496231300      7.69096185427294      2.41546915803947
  C   5.61658764648549      6.56171998141704      1.64937774871167
  C   5.32917125439156      5.23809465309382      2.06817106825402
  H   4.34254416794608      8.39485082744252      4.28108054252924
  H   5.60690815796655      4.38789614824816      1.44056559666945
  H   6.13657043502757      6.70986355543740      0.70024982286284
  C   5.60797718422632      9.03125645667593      1.92394932558107
  C   2.98465714850568      1.40452863661864      6.55309284513810
  N   2.98893566411829      0.26275196671572      5.77745646416443
  C   2.70346928429018      0.94160717363158      7.83591789893968
  N   2.53088411184826     -0.41339931771542      7.83823458017557
  C   2.70176410443702     -0.79683811321915      6.58362284278945
  C   5.91334805565371      9.52043929671689      0.65733240258063
  N   6.16224732945119     10.86386217524495      0.69913149802179
  C   6.01481686530305     11.21502733678800      1.96377362172100
  N   5.66508105052235     10.14672629219847      2.73643399299465
  C   6.19097757320366     12.59686238170252      2.53883143166505
  C   2.63349344971151     -2.21398835060977      6.05194251209458
  H   5.62014219640428     10.21112823438182      3.75384870640903
  H   5.93820302474601      8.96468945959579     -0.27927475400726
  H   3.05564519602527      0.14651775917679      4.76116971496370
  H   2.64286345645686      1.52552498613119      8.75368174281657
  N   7.39564627919881     12.71849779813501      3.41763870442056
  C   8.34239117794771     13.70256862327254      2.87341766022126
  C   7.43950438025798     14.63337111308405      2.05933686167746
  H   9.08401605480260     13.20691395626215      2.22312011954065
  H   8.88766144821870     14.21735671213503      3.67483457988784
  C   6.40948064312122     13.67092748448753      1.45507739858787
  H   7.99822011131261     15.20062995037741      1.29978830547936
  H   6.95327505798616     15.35874930136247      2.73340144246357
  H   6.80253098590095     13.18294104845378      0.55135682317312
  H   5.46507823555662     14.16211672830937      1.18019647760129
  H   5.31731643049512     12.82468195982313      3.17309825521727
  N   1.57368508077400     -2.41114511477774      5.03875136198997
  C   0.32297018808386     -2.68615845470968      5.75267541600832
  C   2.25237441420592     -3.22284825853242      7.16340517775252
  H   3.59747445351335     -2.45583719833546      5.57680541813554
  C   0.77400688401625     -3.60977737133342      6.89458407827100
  H   2.38273429412021     -2.74908906662443      8.14409018388866
  H   2.90473350821202     -4.10636879303427      7.11466402686095
  H   0.13810114768434     -3.49117502927676      7.78430245879214
  H   0.70025201041791     -4.66163645074784      6.57499556022327
  H   -0.43808356083327     -3.13312021571508      5.10368104958974
  H   -0.09393865144758     -1.74232295573315      6.15288650975554
  C   7.37764147798303     12.15770306178043      4.65035780766198
  C   8.59306165343955     12.30116133647458      5.57805609236004
  C   9.61776683310649     11.12868008429384      5.41740348306588
  C   9.00844947377509      9.75146660208572      5.70109810321485
  H   9.79929543636892      8.98452618087776      5.72730384123537
  H   8.28379591432594      9.45602442786273      4.92567149243798
  H   8.49114025736069      9.72978051657123      6.67222032776859
  C   10.34112369875547     11.15518057925964      4.06602205760085
  H   10.36763322536958     11.34060790571131      6.19980672123230
  H   11.12981767473104     10.38629144554768      4.04216976681731
  H   10.82488020767999     12.12765246896292      3.87866663707291
  H   9.65492921502589     10.94355905244080      3.22910106375070
  N   8.07292236117244     12.38750892092177      6.92784902467831
  H   9.14258101464312     13.23291018057700      5.38408994525423
  C   8.71471669244962     13.08631565966636      7.90071029875768
  O   8.03181392769312     13.01223064451610      9.06937454698400
  C   8.61299447893654     13.70488529653297     10.16869746373959
  H   9.62329330786109     13.32547259583178     10.38822510256682
  H   7.94967753332502     13.52803473458103     11.02550953923690
  H   8.68643865028593     14.78487626825309      9.96520004896842
  C   1.73337211792672     -1.94462785557472      3.75244904786876
  N   0.83918866032300     -2.41424404793406      2.79022151753755
  C   0.74112672573899     -1.65125878665262      1.57183189127141
  C   0.41724837001997     -3.84099637192239      2.75260805288381
  C   1.79230113363799     -1.58877437013099      0.64503618794401
  C   1.65518110745396     -0.84563207992425     -0.52744177625183
  C   0.47281101095263     -0.14240715547860     -0.81545110267422
  C   -0.56679849754463     -0.20025899982401      0.12396250008041
  C   -0.43459593155046     -0.93978201402396      1.30292744341000
  H   -1.24582267370171     -0.95823951770086      2.03402247843999
  H   2.72766715843711     -2.10652596202631      0.85972275431619
  H   2.49061544581761     -0.80348122481794     -1.23306610579317
  H   -1.49351670983435      0.35072564777989     -0.06178633079237
  C   0.32818775035812      0.63676046273602     -2.10036516867708
  H   1.26157425515872      1.16024141372354     -2.36200430585608
  H   -0.47551282644687      1.38565405837225     -2.03267453539972
  H   0.08522885815834     -0.03172916157646     -2.94546533133148
  C   -1.08384449744221     -3.99909738829392      2.49090248175047
  H   -1.68492488830481     -3.43338723140109      3.22004119627560
  H   -1.36985332929956     -5.06080839525264      2.56035992759272
  H   -1.35426222414342     -3.64513947186963      1.48393032419436
  C   1.24903006362760     -4.66506749033080      1.75784132139955
  H   0.64067175353153     -4.23567276327062      3.75163905344441
  H   1.07139394630855     -4.35121903397153      0.71764090459350
  H   0.97982174133184     -5.73077151818232      1.83837104257627
  H   2.32622033272467     -4.57143634953980      1.96756615056693
  O   2.63729221346185     -1.15605508872290      3.46098495978050
  O   6.40495931132073     11.50203523781026      5.04668807711805
  O   9.75470162366405     13.69861245616342      7.75649393780609
  H   7.19071457752874     11.92456027586106      7.12178577306593
