31
Coordinates from ORCA-job 4038_0.0
  C   6.05367371921629      6.54318626368373      4.16384199226785
  N   5.20391630177594      6.06973655210832      5.27696372313706
  C   6.32225563639023      5.03932400838126      3.80559338162097
  C   5.44832770231383      4.73207436306771      5.03845522011466
  C   7.07102795684347      7.50401139256312      4.84858070722159
  C   5.42981155269279      6.84326523388150      6.45139811199262
  C   6.43684111530757      7.72556467750469      6.23611850107643
  C   6.92652496269903      8.78078417915665      7.17391752421534
  H   6.52822204137581      9.76708896522969      6.87176307143499
  H   8.02521658281337      8.86058404340745      7.15046329845196
  H   6.58675260620277      8.59428566996689      8.20046509794440
  H   5.45618121161118      7.05425440931957      3.39463333947454
  C   5.84732543520944      4.51441838922648      2.44291064127235
  H   7.35640376532846      4.71429630594947      4.00131651274325
  C   6.71680745115610      5.01300503466680      1.29533346357918
  H   6.68680323794310      6.11282962904069      1.23213815546421
  H   6.34306950612878      4.61131926049967      0.34169063802807
  H   7.76373055012813      4.69719890687924      1.42491844900575
  O   4.51566910405449      4.92046962406193      2.17477330942774
  H   5.91376262836667      3.40825811947456      2.48285239535078
  H   3.91224088718913      4.41629539115721      2.73712140616260
  H   7.08452959337642      8.45871519002611      4.29485341343819
  C   8.52133266066189      7.00094524263268      4.94578492046026
  H   8.59621069993212      6.08013733207550      5.54634160151549
  H   9.17112327468751      7.75504355444528      5.41574200430554
  H   8.93031732228742      6.79409430672704      3.94364056536546
  C   4.65834125440118      6.58234382794764      7.70642782883370
  O   4.56481510198338      7.39775234403346      8.59227496481763
  O   4.08771548901529      5.37454640152595      7.80595211004961
  H   4.33930045686723      4.74360347952467      7.09397351463091
  O   5.09548019204073      3.75606790183467      5.66789013659661
