53
Coordinates from ORCA-job 4040_0.0
  C   4.20286020222516      6.25720333136055      6.76535361711451
  C   4.66347884473725      6.30426716422859      8.27845811009765
  N   5.07033881058371      4.91267892601485      8.12634641248199
  C   4.82276078974413      7.22560474244027      5.79209642991141
  C   4.87826518562736      8.60477173304571      6.06809489885712
  C   5.33570455611062      6.81351421213547      4.55483973646050
  C   5.42736442266767      9.47921208871801      5.14304018335568
  N   5.86221872817670      7.64007587717614      3.64988258265727
  C   5.91926871998284      8.94997769339992      3.92381384283794
  H   4.49159314039746      8.99080111191873      7.01668263017334
  H   5.31096305809988      5.75152016803302      4.28422183019984
  N   6.50778252635438      9.75128459945581      2.97883332146447
  H   5.48638881451610     10.55095249030926      5.34902613932595
  H   6.67825547478998      9.32554473540809      2.07566349413640
  H   6.35309765250365     10.74982457350527      2.99967769318599
  C   3.53260180518352      6.49220368435946      9.27673764617113
  H   5.49410189124035      6.99284446561144      8.48479411106836
  C   4.70372556998688      4.79988133091030      6.79992279025179
  H   3.09972026618080      6.25665983132602      6.70043047435955
  O   4.77446216551977      3.87074357976326      6.03225302319250
  C   5.50399741842123      4.01211112451228      9.12894386201510
  N   5.67845803971445      2.74970845424978      8.66347298569274
  C   6.01953780631137      1.62462460424005      9.53296311940037
  C   7.25139992570958      0.89291179481990      8.98775657049746
  H   7.08457011116880      0.50752318225689      7.96868113466533
  H   7.51345765807501      0.03738190861302      9.63053866898887
  H   8.11686452931949      1.57236876350160      8.95045690817147
  C   4.80380921254178      0.69538661597186      9.79204804696904
  H   6.28636944910905      2.08195853951451     10.49759277251631
  C   3.67263079051129      1.42746400222306     10.53921871489642
  C   2.49209348077965      0.50001564019686     10.85735913961495
  H   3.31134584645906      2.26732584104562      9.91864726093724
  H   4.06676769186499      1.88124870634252     11.46393820753764
  C   1.95220355253492     -0.17782572145628      9.59186953427522
  H   1.69133058497703      1.06885411766601     11.35973516529921
  H   2.81773171807350     -0.27651913659861     11.57526684696779
  C   3.06762207830358     -0.91261026661127      8.83819694803850
  H   1.51155496815892      0.59027875986328      8.92915177371902
  H   1.13594374853399     -0.87615957031215      9.84487322710781
  C   4.25256818978612      0.01342069899491      8.52465511838775
  H   2.67715702257604     -1.35333270439297      7.90487566226111
  H   3.42530110727150     -1.75923541493170      9.45408739495788
  H   3.92148853913277      0.79073453096507      7.81062117827421
  H   5.04427608979198     -0.56231305597128      8.01647879477333
  H   5.17885227685556     -0.10406039535430     10.46084841977047
  O   3.62328287339947      7.68233078631239      9.88728942834719
  C   2.59959263008050      7.98380680771189     10.84065035967442
  H   1.60729307857950      7.97453097997890     10.36441224986633
  H   2.82920924858245      8.98325882743375     11.22999078235100
  H   2.60528582146562      7.24437107607881     11.65539122192043
  O   2.64352078428805      5.69822778505974      9.45284372905320
  O   5.67251506199986      4.41020850196428     10.26636774966701
  H   5.49692604099444      2.58562787699117      7.67409805608130
