46
Coordinates from ORCA-job 4041_0.0
  C   -5.23186377246823      1.61027772796769      4.44207899617347
  C   -4.10090831115162      0.99587804111998      3.68462603938561
  C   -4.68800835592663      2.95346697388114      4.95155667742426
  C   -2.95590377364329      2.01064954413972      3.78547774505766
  C   -4.64290600368331      3.78700133431652      3.64577918955507
  C   -3.44591342446806      3.14807955292035      2.85977374692806
  C   -3.19048674680668      2.63296019802007      5.17928603894923
  H   -5.23617787121524      3.42122572013115      5.77904188923400
  H   -2.56968421087993      3.52305174383984      5.34630626567600
  H   -3.03149998823431      1.92082936368491      5.99627773071479
  H   -1.94603614994544      1.64057139091127      3.56303459585575
  N   -2.74542495237630      4.44535927329941      2.99843394390191
  H   -3.60570997796563      2.85003848935850      1.81465334226090
  N   -3.86750581307444      5.04937599168879      3.64338064638761
  H   -5.61583918314375      3.88230180211041      3.14181757478516
  C   -2.13779583212467      5.12441948947918      1.94780405285089
  O   -1.45794839165677      4.23249393885828      1.19422731428237
  C   -0.70734901446304      4.78218105330316      0.11272664060529
  H   -1.36303320850355      5.31932582450392     -0.59000539853935
  H   -0.22882292953096      3.93156615689798     -0.38925323793404
  H   0.05616130769314      5.48346353969078      0.48290895944620
  C   -3.66586101414740      5.90950232448365      4.71195469325380
  O   -4.83454693702343      6.06338012582374      5.37625143403679
  C   -4.81066080084073      7.00521716243377      6.44782794603715
  H   -4.09174144027634      6.70220301825603      7.22484765188918
  H   -5.82794593168277      7.02415579904122      6.85925128813127
  H   -4.52899915747760      8.00485755078069      6.08335356438521
  O   -2.18035981793358      6.31195056496544      1.76106007458733
  O   -2.63067106058961      6.45991440304929      4.98668502118345
  N   -4.53965571435335      0.42141051177703      4.96902631937262
  H   -4.27798500012432      0.42196752103987      2.77014739398124
  H   -6.26296620937940      1.49283647840773      4.09705091899475
  S   -5.34000838461213     -1.09278319843839      4.83849621931593
  C   -6.00654281670844     -1.25724359283579      6.49221101332406
  C   -7.36881184648880     -1.03047058760456      6.70443873414336
  C   -7.88235289783495     -1.17946816397969      7.99654757576501
  C   -7.03844882494392     -1.55320620180712      9.04733879662536
  C   -5.67725628751750     -1.78709783520033      8.81436552160362
  C   -5.15095102597463     -1.64441255703123      7.52916537470233
  H   -4.09681054659723     -1.83789269159045      7.32175443072536
  H   -7.44459549895047     -1.67037649601602     10.05549729173944
  H   -5.02448725704996     -2.08904058123481      9.63724087272296
  H   -8.00855296789199     -0.75693299058878      5.86343978665934
  H   -8.94613438139146     -1.00862976808852      8.18013494390103
  O   -4.27812929842309     -2.07674579684756      4.64138487897580
  O   -6.45968827821792     -0.99803214891839      3.88860550094246
