51
Coordinates from ORCA-job 4042_0.0
  C   3.58070960449102     -0.67738965171829     -1.09687332340031
  C   4.54183273118219      0.35100641257506     -1.04807359998563
  H   5.53619372782868      0.11245518918522     -0.67180893231577
  C   4.24479129698944      1.65315662370073     -1.44258287584051
  H   5.02493597671872      2.41648472835316     -1.36634219372729
  C   2.97270946084461      2.00955544309542     -1.92146306039764
  C   2.01104500605216      0.99836585194809     -1.98149091258645
  H   1.00533380149566      1.19799105619900     -2.35345562695235
  C   2.29813568790915     -0.30857791255617     -1.57631977365560
  C   2.66372598689712      3.41347130592885     -2.37965676882174
  C   5.81941434445246     -2.74604175131264     -2.88456064792796
  C   6.36146974224123     -2.41944215375276     -1.46953895289284
  N   3.90255689418066     -2.01216220104798     -0.76527189523906
  N   5.29785692162965     -2.27958279962864     -0.47003517402278
  O   5.72621847192674     -3.38302514227679      1.59035428286229
  C   5.03468772245903     -2.84137925783271      0.76679632243932
  C   3.54081398804706     -2.54316613894417      0.58730404971831
  H   1.60383938771936      3.66576405003838     -2.22334408512749
  H   2.87269565555217      3.53428154636390     -3.45734441929001
  H   3.27518685437174      4.15572857722223     -1.84375365623552
  N   1.20971446437001     -1.28646424695413     -1.69988655133829
  O   0.32001220003370     -1.04768696329308     -2.50320229029652
  O   1.25111277636451     -2.28252461924418     -0.99068815290764
  C   7.40853835990198     -3.49321199829552     -1.07055889062371
  C   6.80942758127643     -4.91233781986289     -1.14691952936015
  C   6.31272085438391     -5.20161667330974     -2.57629375741470
  H   5.99189361748030     -5.03026441733397     -0.42000513961966
  H   7.58395894127627     -5.64257058037821     -0.85616214284153
  C   5.22595828872767     -4.16706700608249     -2.93503491966224
  H   6.88782810296717     -1.44820437489505     -1.53279573948088
  H   4.37567797460074     -4.24783747352790     -2.23885403482868
  H   4.81747937118348     -4.35476477921732     -3.94163476840450
  C   8.58025769361065     -3.38642733547286     -2.06995811716177
  H   7.76082701262679     -3.29552590684246     -0.04723332440477
  C   8.08496345267436     -3.67958016981609     -3.50158850710017
  H   9.03507107706185     -2.38129357202844     -2.02212282500246
  H   9.36843464432792     -4.10361815089995     -1.78511719115581
  C   7.00149924895629     -2.64556924963509     -3.87158159268066
  H   5.04980181613233     -2.00776536936036     -3.16020389669105
  H   6.63706284821622     -2.80635087037913     -4.89907009067917
  H   7.43100577590383     -1.62853266111811     -3.85099136537857
  C   7.51076602463246     -5.11987761714122     -3.55902363289680
  H   8.93086145785466     -3.59539297180329     -4.20650459835695
  H   5.88076159600079     -6.21701063149522     -2.61619663239464
  C   7.18640708110905     -5.60302003271248     -4.97718630241813
  H   8.29443106519007     -5.79581303330076     -3.16865503216202
  H   6.41282571760598     -4.99612974628188     -5.47302777819247
  H   6.82307781659406     -6.64396539334449     -4.96014151840447
  H   8.08437144323100     -5.57559544378689     -5.61693931399699
  H   2.89584730702942     -3.42915093845474      0.54220882675973
  H   3.11650112568695     -1.79334372927186      1.27056005249479
