60
Coordinates from ORCA-job 4043_0.0
  C   4.95123506955905     -1.88246273191486     -1.61343901604712
  C   3.57603784506404     -2.09780597897284     -1.78742116052707
  H   3.12350588169038     -3.00591660192088     -1.38804153265398
  C   2.79405782951647     -1.14931081258936     -2.44351460994716
  H   1.72287361167470     -1.31081414607033     -2.57843966834294
  C   3.37319810392105      0.03430903437036     -2.93267468527099
  C   4.75525174692412      0.25089459167982     -2.74111093272288
  C   5.53943608119668     -0.70274427317067     -2.09398335564161
  C   2.57510830115729      1.01765211272731     -3.60724636875661
  C   5.80928944645596     -2.90600924676595     -0.87908610208426
  C   6.34682986227593     -4.18392894667466     -1.60208588512198
  O   4.98771881562413     -3.75802093642497     -0.06392605219863
  O   5.61302059364477     -4.97215332644897     -0.60451613461818
  O   6.83299356636543     -2.29705908089037     -0.15432392565321
  C   6.44271859107311     -1.55958581531477      0.99605332452790
  H   5.83696759649036     -0.67305260333792      0.73553207207383
  H   7.36974776108347     -1.22785932068511      1.48335651943853
  H   5.87077542641063     -2.19288312729799      1.69338628108386
  H   6.60304290242195     -0.52867031340076     -1.94581613263381
  N   1.91105365955778      1.79666238525444     -4.15538270163903
  O   5.23131036037655      1.47687555552298     -3.15496159659892
  C   6.42491860409403      1.64241276572014     -3.81122285810587
  C   6.61837340383384      3.09492377079603     -4.14953423534214
  H   5.81383564501164      3.42388720537665     -4.82603466874221
  H   7.59509874393739      3.23422800701637     -4.62782446746933
  H   6.54491537627777      3.70769903165213     -3.23802689714705
  O   7.17419570775555      0.74018915040603     -4.06641212655499
  C   7.84587564120381     -4.47126683946623     -1.53148824754176
  C   5.84848658474639     -4.48840759449717     -3.01759716339534
  C   8.05723026032602     -5.98205710672332     -1.78981444549403
  C   6.01209632481909     -6.01094503065370     -3.27895041829549
  C   7.46962613821556     -6.46145405241999     -3.12454640662747
  H   9.13592647211201     -6.20765271906517     -1.73621815595593
  H   7.58133187618947     -6.53534170477671     -0.96186691127654
  H   5.63192081074139     -6.25330106704396     -4.28483459631723
  H   5.37459949587482     -6.55093242302734     -2.55858087316117
  H   7.53351289437523     -7.56083728063641     -3.19016821432897
  H   8.06863703641628     -6.06581635007504     -3.96167984614434
  C   6.60073420008443     -3.64273035243063     -4.03351384462668
  H   4.77415101676089     -4.25165897747117     -3.07900611613845
  C   8.59766943500063     -3.55457074168016     -2.51786896043859
  H   8.18935461417677     -4.24880889083727     -0.51235863025215
  C   7.87333533714599     -3.25202393458341     -3.81230557125352
  H   9.58402755180776     -3.99963071189032     -2.74748523875111
  H   8.82704553487416     -2.59516908975562     -2.01842789362523
  C   5.86826863591333     -3.32153627502962     -5.31946552658608
  C   8.65604392720795     -2.43546336062511     -4.81825780952524
  C   8.06313534431416     -2.44067281812601     -6.23584532925666
  H   9.69987928015908     -2.79945700358246     -4.84746368867144
  H   8.71609167637758     -1.39215249934119     -4.45303966286228
  C   6.54646830235192     -2.22940788755442     -6.15152648275366
  H   6.10576094414844     -2.19690835904948     -7.16291842397761
  H   6.35749861893517     -1.24534378331313     -5.68857156968875
  H   4.83093298798276     -3.02478569094203     -5.08075883661016
  H   5.77034079303367     -4.24803004891439     -5.92002290405539
  C   8.74255247648897     -1.40330432610818     -7.13343841275757
  H   8.23849718616194     -3.44411177690850     -6.67129484834747
  H   9.83228567594989     -1.56557432528753     -7.18485414947489
  H   8.57363127572746     -0.38431143771435     -6.74569161514901
  H   8.34881111698197     -1.44274188911151     -8.16271228996350
