87
Coordinates from ORCA-job 4044_0.0
  C   -3.31298896464265     -5.52175110053673      2.66475054670046
  C   -2.97425744855215     -6.82813234407892      2.29201839445140
  C   0.01815214411041     -5.14756455437088      6.10579158188617
  C   -1.01772271021148     -4.63874244716202      5.29999085864655
  C   -1.57248710334717     -5.40353595250033      4.27038812101294
  C   -1.13626277372018     -6.70520587401676      3.99300882882969
  C   -0.10331657740903     -7.20402734966787      4.79674128768353
  H   0.27608874422453     -8.21086410583903      4.60528882959334
  C   0.47090237782253     -6.46114894471871      5.82265106451917
  H   1.28936509597609     -6.90801384465450      6.38292952118814
  C   -0.67216577866657     -7.61169187360696      1.71078751896841
  C   -0.35270140051881     -8.94186632902371      1.47560011391689
  C   0.57782799517159     -9.32201426701348      0.50484724602505
  H   0.80465044114130    -10.37909436605250      0.34748108221233
  C   1.19001388189637     -8.31096872008954     -0.23773308249905
  H   1.92339272169765     -8.56458900456605     -1.00745102537186
  C   0.86921114992708     -6.96156824348306     -0.00311764227942
  H   1.35860274385591     -6.18375541387018     -0.59558024153821
  C   -0.06460237260174     -6.59562230629155      0.97276489369898
  H   -0.30726275083469     -5.54427317324796      1.14641574110332
  O   -2.58555929133784     -4.80142050382101      3.57417627586622
  C   -1.71352126610819     -7.50307101707675      2.82586736298973
  N   -1.93142931379906     -8.95028770837593      3.17361617412348
  C   -1.13155407879938     -9.80788109077050      2.38738431589633
  O   -1.08162084934864    -11.02012471922113      2.44140265976087
  C   -4.41657883433094     -4.85603392696575      2.12385489595155
  C   -3.80540812019594     -7.44449056680074      1.34571756226995
  C   -5.25749301271094     -5.48846028551864      1.18784599208282
  C   -4.91560809040780     -6.81102075707482      0.80186737558318
  H   -5.52188275851395     -7.35674598214532      0.08153444146969
  H   -3.57784742893954     -8.46512444190027      1.02770992052934
  H   -4.56728669683291     -3.82549878656076      2.43734105619611
  H   -1.45933708627713     -3.66214416760277      5.48119938639677
  N   0.57007567517689     -4.37300852742363      7.14132044737489
  C   1.57147938201928     -4.98531821814156      8.02352918712002
  C   1.68471630399075     -4.36689749849002      9.41476487212239
  H   2.56945074614035     -4.98927011874533      7.53453814276384
  H   1.28523697904110     -6.03660848210212      8.15606654514845
  H   2.01843003605666     -3.31875121950742      9.39885691409786
  H   2.42938959580492     -4.93650183075131      9.99340175508226
  H   0.72430236963620     -4.40690561424574      9.94855554129949
  C   0.64212090639419     -2.93717976318196      6.96571936753556
  C   -0.40427244886571     -2.09741415183153      7.70404445345253
  H   0.55372874139579     -2.66530320472018      5.90149249137484
  H   1.62048767625692     -2.55861363469653      7.30343602769371
  F   -1.65797948071002     -2.33056676504908      7.27616366524504
  F   -0.14417052017665     -0.79386962003179      7.49021981226077
  F   -0.39881849679408     -2.29698207864130      9.03024810102345
  N   -6.38958065471014     -4.85351688292835      0.67332972664697
  C   -7.14155681664563     -5.44212259522656     -0.43852822252702
  C   -6.46465486338857     -5.31794516478093     -1.80552647208475
  H   -8.11676709435922     -4.93435545561623     -0.47189683963508
  H   -7.36484842810605     -6.50143356068780     -0.21739758449537
  H   -6.30818091300716     -4.26121232102266     -2.06728164373367
  H   -7.09689192177304     -5.77847274093133     -2.58230799399634
  H   -5.48730242730377     -5.82400531420590     -1.82306496229334
  C   -6.94730059188015     -3.69219513279815      1.31894588794790
  C   -6.56440098259002     -2.34550966156380      0.70683906572848
  H   -6.66355568605848     -3.65629004611367      2.38120742687114
  H   -8.04880594963707     -3.73463567732153      1.28673140796734
  F   -5.24243321675121     -2.11460618250275      0.75378991226437
  F   -7.17744423353450     -1.35207972720158      1.37352791954463
  F   -6.94124019193667     -2.25804176379733     -0.58286809260925
  C   -2.82323344967159     -9.38422884080735      4.18195530391868
  C   -2.96932791251761    -10.76520736844020      4.48335090653189
  C   -3.58957711944248     -8.44564145523670      4.91710642688856
  C   -3.85764531101189    -11.12448152825848      5.48360148926306
  C   -4.47918461616386     -8.83679288506385      5.92305752386002
  C   -4.60884351390256    -10.19039202956959      6.20222557181614
  H   -2.40013807876761    -11.51692866892809      3.94441324773581
  H   -3.49791862418447     -7.38519402160486      4.70851525373206
  H   -5.05503859726217     -8.08916141062961      6.47325282976925
  C   -4.19423941457863    -12.48975218986406      6.00007565972740
  C   -5.44882157484555    -10.91429019958969      7.19647226057211
  N   -5.12635457199234    -12.27512823427701      7.03094326080705
  C   -5.78990232731921    -13.33791962532120      7.73080634225987
  C   -7.01491964391107    -13.84784663813003      6.97464631555345
  H   -6.11400773904998    -12.97354375618690      8.71755792781846
  H   -5.09381897576226    -14.17762737589914      7.87794647037658
  O   -7.58214150343220    -14.86111106809182      7.64761863410084
  C   -8.74283765320176    -15.44712667968890      7.05417525763696
  H   -9.54241058794453    -14.69913917650282      6.94010795512365
  H   -9.06328316252118    -16.24714094955202      7.73322422887824
  H   -8.50598795202433    -15.85969842758756      6.06152587677830
  O   -3.77812957371023    -13.57141536643734      5.65978217053414
  O   -6.23967719089983    -10.48621241866949      8.00522393472586
  O   -7.41990698728377    -13.40999256277875      5.93011723453601
