34
Coordinates from ORCA-job 4047_0.0
  S   0.98550259824155     -2.53902689383870     11.92932166626783
  S   2.11319849960075     -2.56928193865821     13.67507524076145
  C   3.57578350295687     -1.65646229721756     13.23020592635549
  N   4.51447230442406     -1.51594898711516     14.09798676250333
  C   5.55095768726360     -0.75200570118257     13.59110860798691
  C   5.36489967248613     -0.30072315505812     12.26012534540521
  S   3.81829680848379     -0.87120480521748     11.65468237448480
  C   6.73029101345486     -0.40305545941833     14.27060961553305
  C   7.68184274328256      0.37400682693270     13.62018983828853
  C   7.50077764562490      0.82538483632080     12.29079734517976
  C   6.32737620686256      0.48087105602187     11.61023077547477
  H   6.87729340548287     -0.74653235155967     15.29672485344141
  H   8.59908365201875      0.64752025288785     14.15009399439595
  H   6.16880397047572      0.82190156689332     10.58391687290830
  C   8.57002041762682      1.65677063092429     11.62220415458785
  H   9.48984165521750      1.06821178651057     11.46018678252697
  H   8.85054005380122      2.52445083572547     12.24247814578881
  H   8.23911925548574      2.03428301996815     10.64312024943628
  N   2.63464904082228     -4.65012168954019     11.29730651445995
  C   2.86785630362525     -7.70993668441554      8.42390181091296
  C   3.84794735524564     -6.61893538552727     10.39160421380248
  C   1.81247448758904     -6.79108338094266      8.42783976771838
  S   0.58826089893303     -4.53303547232481      9.66789626312627
  C   2.79112627712993     -5.69241987805885     10.39999593461916
  C   1.56844920501304     -3.98006647647777     11.04970376926380
  C   3.87410471699869     -7.60664193082183      9.41454013370301
  C   1.78077689809289     -5.79633601506033      9.41189381413833
  H   4.62850623486622     -6.54369251191942     11.15148451101329
  H   1.02566853537277     -6.85492357992377      7.67203029773671
  H   4.69681169908204     -8.32767619470033      9.40648962075505
  C   2.94466208898782     -8.80049512834836      7.38216910022499
  H   2.94705211394490     -9.79987716328448      7.84959402289896
  H   3.87256232199912     -8.72148609313912      6.79048372910321
  H   2.09575072950684     -8.75765163843429      6.68379794519613
