70
Coordinates from ORCA-job 4048_0.0
  C   -3.18603772446065     -5.38183073035564      2.60201726929824
  C   -2.83443544151047     -6.66948758936624      2.18541516172827
  C   -0.42464812500687     -5.43668851203947      6.52320528949445
  C   -1.28993309321619     -4.80968679515899      5.62552020262932
  C   -1.71280714574137     -5.46185251086575      4.45773631022008
  C   -1.27719330610649     -6.75624123359575      4.15096127033422
  C   -0.41135178227721     -7.38229267091409      5.06137555197913
  H   -0.06489193007802     -8.39617942211626      4.84681111420717
  C   0.00710652361120     -6.74415369818712      6.22416262703037
  H   0.67910593431967     -7.26388154807640      6.91270051215272
  C   -0.47207504886249     -7.44372507485133      1.89437202805907
  C   -0.13619403682138     -8.75271585792160      1.57747574030270
  C   0.93531546075362     -9.05956653777420      0.73554338312281
  H   1.17161164657663    -10.10172531022861      0.50777817248265
  C   1.67472022585502     -7.99724744774638      0.21097581592418
  H   2.52155612823327     -8.19422007969985     -0.45160906409637
  C   1.33748339416715     -6.66963694439138      0.52932146890483
  H   1.92791419136886     -5.85075829567196      0.10925679546328
  C   0.26033670944313     -6.37701662800101      1.37396218278722
  H   0.00610099140670     -5.34186729975318      1.61558494461321
  O   -2.57159467397404     -4.75801292930635      3.65791102913274
  C   -1.67855703560675     -7.42489933858740      2.83465194666836
  N   -1.96330345909255     -8.88735278405840      2.99213903791767
  C   -1.06986972333593     -9.68062919152626      2.25769580245562
  O   -1.04666584366499    -10.89643668822269      2.17780825945598
  C   -4.20608383735524     -4.64929823205142      1.98663441094599
  C   -3.55901923409366     -7.19671434954767      1.10640264421237
  C   -4.92445123469110     -5.17772267870195      0.89379811371029
  C   -4.57148270374194     -6.48973984669359      0.47298821273669
  H   -5.07802725274229     -6.95416627959321     -0.37170584556936
  H   -3.31577864285573     -8.20022729339270      0.74874798871013
  H   -4.43071662357606     -3.67660024898436      2.41908958107045
  H   -1.66703515975338     -3.80137883225787      5.81175990749689
  C   0.03738889827078     -4.74178967438384      7.78088282430637
  N   -5.93736835857132     -4.46911652598482      0.25364534786893
  C   -6.98768912988338     -5.20122921893164     -0.45618665490074
  C   -6.79007153823816     -5.32756631170134     -1.97041167862700
  H   -7.94980562900844     -4.70033136911747     -0.25326199457953
  H   -7.08363011502940     -6.20531106469916     -0.01144616859582
  H   -6.77317286496998     -4.34256332981021     -2.46077306208659
  H   -7.61160713227970     -5.91429383974421     -2.41467282192849
  H   -5.84260849933654     -5.83349733090094     -2.21220343229361
  C   -6.22787591140711     -3.09177696055765      0.63838651333175
  C   -3.03834193301437     -9.38452486630081      3.78370944125143
  C   -3.30775305110576    -10.77043847594263      3.84045897284427
  C   -3.86006016992527     -8.51793758364416      4.52355946495602
  C   -4.36569975790140    -11.25710947224683      4.61343009864166
  C   -4.91261815997059     -9.03144569993608      5.28811753247282
  C   -5.19895321425056    -10.39423523941561      5.35947005977662
  H   -2.67489834403532    -11.44543375973493      3.27644446234232
  H   -3.70203537810962     -7.44481836157057      4.51946004268343
  H   -5.53593748468808     -8.33152689899856      5.85270856846788
  C   -6.33110250755024    -10.95105990085603      6.17991391169288
  H   -7.03963406372245    -11.51836439602366      5.55281157937092
  H   -6.88419868923623    -10.14745128646432      6.68885838472621
  H   -5.96419044380284    -11.65804530910204      6.94331455878241
  O   -4.66802667493188    -12.58271772371349      4.70354042724437
  C   -3.89370375907529    -13.52034090671365      3.98933089017563
  H   -3.93934888072403    -13.34748932774444      2.89892853578037
  H   -4.31671465722584    -14.50977563642559      4.21294544218933
  H   -2.83396165055923    -13.50296919225122      4.30120134881429
  C   -6.75211076981171     -2.20980941214284     -0.49576749755706
  H   -5.29613821092000     -2.63821799557469      1.00129807695969
  H   -6.94265174675989     -3.06012715459140      1.48967184337624
  H   -6.03359332181292     -2.16487409795347     -1.32965584446666
  H   -6.90265299975466     -1.18532107917443     -0.11913129789459
  H   -7.71909603232677     -2.55382790025335     -0.89359064315650
  H   -0.43214140305534     -3.75373641195397      7.89681072254408
  H   1.13133068423636     -4.59703977332250      7.77569044989268
  H   -0.20228524668306     -5.33872363247803      8.67675373001249
