58
Coordinates from ORCA-job 4049_0.0
  C   1.37848173567577      1.32369230267315     -0.12081054239396
  C   0.51656106740289      0.89013316082336     -1.13293128487701
  H   -0.37987992973644      0.31691249923745     -0.90111293386572
  C   0.78924118923763      1.20721286686787     -2.47084442684984
  C   1.90655266386022      1.97478865131255     -2.80535823871560
  H   2.11221802684359      2.21937192786660     -3.85062850435099
  C   2.75407847227767      2.44672360407671     -1.79626176937874
  H   3.61504030518959      3.07342002619714     -2.04443224762923
  C   2.49076451237491      2.12524429243603     -0.46416498404063
  H   4.23633173281237     -1.70739679030516      3.79099394449551
  C   4.08252644932672     -0.83059083122446      3.15667973538874
  C   2.78374575695881     -0.48983854346086      2.75371038773478
  H   1.94553100933403     -1.10004578799071      3.09551994000366
  C   2.57997159978221      0.62533861680347      1.93616095357021
  C   3.68250624863544      1.41078841590366      1.54902775902253
  C   4.97305063465463      1.07502352904072      1.95638700775167
  H   5.82107894449925      1.69478756243212      1.65136839229144
  C   5.17398401753713     -0.05630135676058      2.75751681471850
  C   3.29658375656753      2.61691368081116      0.72260907620759
  C   1.22581143971084      1.14766655179968      1.39990337195554
  C   1.07912090440228      2.61355038893436      1.95603296635432
  C   2.33244052839448      3.44611792783178      1.64108157898055
  H   0.11384866652180      0.85375089794016     -3.25430919926246
  H   6.18429067340619     -0.32775561221821      3.07453003831796
  C   -0.07090366178275      3.37204620110222      1.29118151622562
  H   0.85723208270023      2.54477041477264      3.03064265861512
  C   1.82633749957348      4.71122671554586      0.96314182561796
  H   2.88622215134060      3.74589689151220      2.54305038854454
  N   0.43129402440561      4.60120367468154      0.80645705126891
  O   -1.21221001348351      3.00297723640323      1.17987779831827
  O   2.50030607794474      5.64482024326484      0.60458867099542
  C   0.10100435649131      0.24379137812763      1.95352026148508
  C   -0.37109690307752      5.59535940128333      0.16731649690343
  C   -0.14785058613920      6.95361209236169      0.44424117182567
  H   4.15881624450736      3.22649632877395      0.42169354144639
  C   -0.20450588564754     -1.07748976685241      1.27016046214807
  H   -1.11741812787161     -0.95930015907848      0.66319015504796
  H   -0.43202985045956     -1.82376177468586      2.04507741516939
  H   0.60454585731149     -1.43106325377450      0.61687131029148
  O   -0.45541045468976      0.54201807063544      2.98500074517471
  C   -1.37713592772770      5.21905069295393     -0.73567732390586
  C   -2.15849453285443      6.19694813123868     -1.34914381461605
  C   -0.92739230121095      7.92343967601343     -0.18031739064679
  C   -1.94083061152942      7.55647615662656     -1.07870550336933
  H   -1.55305766863880      4.16568217690358     -0.94648286430342
  H   -2.94365931911440      5.90749165143624     -2.04858018222490
  H   0.64044430171122      7.24679996964811      1.13642001392341
  H   -0.76618488422943      8.98407908701924      0.02191053916294
  C   -2.74919089806333      8.64316905636605     -1.70970072527039
  O   -3.70733480883221      8.16762012160833     -2.52847356153429
  C   -4.53996436490812      9.14061153082939     -3.18019922707312
  C   -5.57406761810160      8.39956395925113     -4.00270985454213
  H   -3.90573281864221      9.79265815695192     -3.80382433417472
  H   -5.00372974293898      9.78452004449591     -2.41499935055387
  H   -5.09362699304212      7.76292858055432     -4.76226194645526
  H   -6.22838681967690      9.11901307374661     -4.52006285642018
  H   -6.20242160509175      7.75961251207415     -3.36343782205491
  O   -2.57422660390175      9.82463374718097     -1.51335310044800
