59
Coordinates from ORCA-job 4051_0.0
  C   2.09629854266642      2.34567547267021     -1.08565201332780
  C   3.23539245306299      3.03679429282060     -0.94419146091295
  C   2.77952022107173      0.33078941279523      2.96311314889311
  N   1.84490084168038      0.68420191467680      2.02458308272383
  C   2.14116289273677      1.69165572644719      1.24983436287824
  C   3.37196133075354      2.43159444648139      1.39407069131786
  N   4.27268233557728      2.13972163571989      2.29160068271610
  C   4.00512559517900      1.06105603370253      3.09431435172823
  C   3.46528313700186      3.60665509918151      0.44185368572905
  C   1.21648289303717      2.24280399298296      0.15737452242670
  C   0.91500426312653      3.71232509766077      0.68902726182229
  C   2.25549636362228      4.51514218465269      0.86550684005883
  C   -0.07314307013275      1.42791003871348     -0.03051657773411
  H   4.42478198318593      4.12726150452418      0.55815342379959
  C   0.10042759496936      0.01164346222887     -0.58842609223570
  H   0.56036848481177      0.01103935938433     -1.58999891395021
  H   -0.88028462799793     -0.48220556041246     -0.68262335427805
  H   0.72398877122870     -0.60333929066335      0.07576621925188
  H   -0.74494262390458      1.99716170394189     -0.69474512769771
  H   -0.57995447501045      1.36799739745488      0.94680580185875
  H   3.95013631085302      3.20399216453055     -1.75400370582061
  H   1.78420414172020      1.89190953348608     -2.02949508302407
  C   2.53418353869708     -0.77172099859883      3.82070734919360
  C   4.94730133106985      0.66366138757443      4.07693322026044
  C   4.68367526513706     -0.41685454588563      4.89759583649509
  C   3.47066954426545     -1.13811685275263      4.76899484324665
  H   3.27720191846867     -1.98963054255889      5.42680103797720
  H   1.59171233397838     -1.31088947489591      3.70120551391376
  H   5.87322957916726      1.23796995249689      4.15513307377337
  H   5.41337170290250     -0.71943582336541      5.65340823762645
  C   0.04861423608059      4.67717080888827     -0.17592380537217
  H   0.41836993694296      3.56683157015941      1.66146192462573
  C   1.99707783014992      5.83099352470025      0.07703745270610
  H   2.42415456831999      4.76203851394600      1.92534606936589
  C   1.01077161938389      6.62241587703346      0.97709928045490
  C   -0.34301142979669      5.81790736537059      0.80252019920359
  C   1.08277690023598      5.37985443333210     -1.08289060081195
  H   -0.81412689592068      4.21446256623386     -0.67430080609147
  H   2.90530960965721      6.38894257475609     -0.19320596269601
  H   1.57080860789850      4.71288931581082     -1.79744633084576
  H   0.65600180704529      6.22241038941768     -1.64616929042376
  C   -0.90194749262713      7.10415004901471      0.23365263026939
  H   -0.84277905572440      5.45454619807041      1.71359818847207
  C   0.25543373539254      7.79950433640492      0.38990033536347
  H   1.38699920788786      6.77056987303633      2.00142677571395
  C   -2.25888991479824      7.32241594918426     -0.31944854987534
  O   -2.45417055855623      8.55869619940177     -0.79011879857196
  C   -3.74278000726750      8.83541040762766     -1.33651443092286
  H   -4.52877179500508      8.68820374028573     -0.57943172140849
  H   -3.95682929994516      8.17317393490334     -2.19001257196815
  H   -3.71553537924087      9.88276684880323     -1.66116420826185
  C   0.70174867409970      9.18353935392776      0.09840633143332
  O   2.05021340663924      9.25442285437305      0.19594794668767
  C   2.62940394256382     10.53427587889805     -0.05353332983179
  H   2.39304184109480     10.87953488486473     -1.07214124974566
  H   3.71310871297015     10.41013164618334      0.06521075905868
  H   2.24944132101966     11.28187248368683      0.66007563600138
  O   -3.09622520074333      6.44557117750979     -0.34040412364059
  O   0.00474249931767     10.12961851918102     -0.17413860759820
