75
Coordinates from ORCA-job 4052_0.0
  C   1.82441586205891      0.97175781763258     -0.69087771767778
  C   1.16893435181654      0.50042038360826     -1.82993265671212
  H   0.39887828126398     -0.26709897657759     -1.74049159298177
  C   1.50414474196337      1.01385065013090     -3.09036278324868
  C   2.47924050213605      2.00626998852523     -3.21527685626183
  H   2.73544598589764      2.40345938813575     -4.20110525279511
  C   3.12660655728543      2.49694344671909     -2.07478856760272
  H   3.88324640525644      3.28172281022753     -2.16125452605103
  C   2.80323231075453      1.97808381310467     -0.82101445419213
  H   4.91003739840167     -2.15102085583570      2.96356235933200
  C   4.64283086003168     -1.21796779747364      2.46021811814021
  C   3.33360955212672     -1.04685726680585      1.98538812755018
  H   2.60667576623875     -1.84862263590124      2.12443724122081
  C   2.98441247306589      0.13816411670223      1.33187971087296
  C   3.95198150418097      1.15258153925056      1.17421152176984
  C   5.25111350473148      0.97970326792595      1.65014127836851
  H   5.99107070757660      1.77482462786489      1.51915328529474
  C   5.59951007376322     -0.21500760788469      2.29352228581131
  C   3.42609870691275      2.40066166806697      0.49305118013512
  C   1.59145217628098      0.51449556516281      0.76476358296211
  C   1.20104258326890      1.82152938509075      1.57627512350601
  C   2.27766803532969      2.91504223156075      1.41565102536668
  H   0.99418621229426      0.63414532312955     -3.97995335053282
  H   6.61827486803719     -0.35904561894047      2.66344483946035
  C   -0.10703312428552      2.48985172838149      1.14751190422624
  H   1.07318138943018      1.52487601344084      2.62868466203960
  C   1.55219827784791      4.13606407415659      0.86383473702576
  H   2.71196092414816      3.20842683427408      2.38402254025929
  N   0.18575577750771      3.81240236067471      0.77362978710152
  O   -1.21602441588500      2.01620738733330      1.15099325874470
  O   2.02847369222186      5.20038719519889      0.56560690410333
  C   0.52776138651554     -0.55209691641180      0.93241183251496
  C   -0.81023696700767      4.75349629303380      0.40328255836660
  C   -1.38785794147906      5.60230949949591      1.36488341981839
  H   4.19444425800901      3.17486098898784      0.36559276950871
  C   0.61317986482833     -1.81013295258113      0.48506215761184
  C   -1.24943592245982      4.87916020997136     -0.92367925635656
  C   -2.22538335336684      5.81419399299707     -1.27780087747655
  C   -2.36034054325538      6.53810047304377      1.01852844431446
  C   -2.79234177250762      6.65418541249119     -0.31164711222623
  Cl  -0.56510910023759      3.85818657651012     -2.15548438364106
  H   -2.53584022337251      5.88027314948172     -2.32197404057010
  Cl  -0.87769547937670      5.48317971015519      3.02978357843503
  H   -2.77901678540510      7.17830912830193      1.79727034056866
  C   -3.85709428419991      7.65798671444673     -0.68083669874900
  H   -3.97084350651519      7.74441732876723     -1.77119142676034
  H   -3.61902519284392      8.65677702172695     -0.28080911117032
  H   -4.83548328031432      7.36574821795929     -0.26248343426195
  H   -0.38398079169672     -0.23839257532506      1.45067732410506
  C   -0.43960876459424     -2.85677659513013      0.70136613600118
  H   1.51051353126540     -2.14174282384567     -0.04938797779100
  C   0.03558376345799     -4.02699178418331      1.57162868383427
  H   -0.77545709260729     -3.28848641450255     -0.26154654329387
  H   -1.34683446366334     -2.42680778808302      1.16281487521543
  C   -1.00400177742349     -5.10617645008637      1.84948208586908
  C   -0.51080257736675     -6.45346631322887      2.41004014049366
  H   -1.58844155424647     -5.27012879176933      0.92572997427966
  H   -1.72267275008889     -4.65005224570552      2.55911262081244
  C   0.46451943865355     -7.11755954249688      1.41740393944071
  H   -0.01091046280743     -7.25595169887903      0.43111292766724
  H   0.78407852382770     -8.11176036777001      1.76696193243273
  H   1.36847756085260     -6.50551748716658      1.28348714667531
  C   0.11790181340239     -6.34478873177703      3.82388877711218
  C   -1.71476958711384     -7.39116838982016      2.69241910897782
  C   -0.01386804168066     -7.75311869128884      4.44601428933098
  H   -0.46618991965260     -5.61773885178144      4.41578936893177
  H   1.15071395412664     -5.97128297073183      3.79498261907773
  C   -1.20365428651566     -8.43477586295177      3.70964497677612
  H   -0.17394433042972     -7.69859464250442      5.53429224620697
  H   0.91281786097274     -8.33127305649332      4.30171967225210
  H   -2.00211318057364     -8.74466462095424      4.40190503714885
  H   -0.87007612761403     -9.35062307406839      3.19623495113355
  H   -2.12044478140651     -7.84598170499628      1.77311222203396
  H   -2.53100638496190     -6.79839822428733      3.14166205992011
  O   1.16140732921384     -4.06111600542889      2.02217693019389
