72
Coordinates from ORCA-job 4053_0.0
  C   1.66359295932164      0.72909936514336     -0.23773142617013
  C   0.70882991925719      0.32515316061635     -1.30979952225799
  C   1.10600484526490      0.57533643711837     -2.75139939394965
  C   2.20634615613376      1.31702196243380     -3.02074924355248
  Br  2.73636858468333      1.71874262431885     -4.79528412704549
  C   3.07120223824850      1.89910213627676     -1.95267748009048
  C   2.70788860955743      1.52814924138835     -0.55788596395264
  C   4.42377830526946     -0.78816772939429      3.61821416137496
  C   3.04190712452447     -0.71345960440713      3.07064959850735
  C   2.81050280970715      0.23258730885618      1.93682676933271
  C   3.82048491561621      1.05038703508959      1.55175706962000
  C   5.21895019440790      0.94474599178792      2.04919530412898
  C   5.43751510833662     -0.00392994151293      3.19570656033983
  C   3.43646821952147      2.14014976788226      0.60050406800494
  C   1.45419791651483      0.57398107580339      1.28503014305261
  C   1.15634185798346      2.08716166419347      1.78390577355435
  C   2.34778189444021      3.01488445399612      1.38356782671983
  O   0.37673265630901     -0.18936817537582      1.71123205299715
  H   4.29407149469385      2.74277087488613      0.28236724785895
  C   0.30062332559948     -1.57764071578423      1.40668705075767
  C   -0.64481153679317     -2.19393280446439      2.42121294123772
  O   -0.80322687506525     -3.56709722974134      2.04113422638320
  H   -1.62057020776823     -1.68225817097342      2.40363767609422
  H   -0.23452695928437     -2.12251303351549      3.43796843872522
  C   -1.63113126243960     -4.31654369270956      2.79872575829765
  H   1.28703117553947     -2.06291024422291      1.47339253806545
  H   -0.10198433063056     -1.72251194076796      0.39458454829280
  C   -1.69261767188500     -5.73677807494493      2.28813921609960
  H   -2.04305109461804     -5.74640050869652      1.24418292041559
  H   -2.37070284702966     -6.32536430908781      2.91783886034769
  H   -0.68618650841981     -6.18382919365701      2.29687016998525
  O   -2.23126011411737     -3.88444649518774      3.75036557615161
  C   -0.20138638969714      2.52574518089676      1.30918591656340
  H   1.11097437619412      1.98531158344730      2.87970472982725
  C   -0.38379696834415      3.64186914958534      0.58863976965660
  C   1.98023130044649      4.23118146548517      0.57359299986029
  H   2.86033257800417      3.36222723310716      2.29517544061728
  C   0.72377667641471      4.52189930289682      0.20419707844244
  H   -1.04977620135647      1.88925235465733      1.56155012749594
  H   2.80394845600209      4.89230478631537      0.28806205625604
  H   0.50387333444410      5.41858847013870     -0.37700905469867
  O   -1.65963133644201      3.93692202080797      0.11821005350194
  C   -2.23305111866341      5.13554191673576      0.43860593886098
  C   -3.59164720511224      5.25135298144447     -0.20284134211990
  H   -3.49938841457517      5.16245739584917     -1.29650896485221
  H   -4.04186911792974      6.21534128169589      0.06252525411885
  H   -4.23638448415335      4.42546520052287      0.13582201289363
  O   -1.70347746248844      5.95472776577774      1.13952766797229
  O   2.16802980896797     -1.37827451875619      3.60211618576001
  O   6.13160699035887      1.55128535359452      1.52876197676881
  O   -0.38478066403428     -0.15675173706598     -1.07505905007906
  O   4.01104523297094      2.63266039587080     -2.18624433622051
  H   4.54792290105960     -1.49387223849678      4.44286332230253
  C   0.20050061780583      0.00843931687404     -3.80416900434900
  H   -0.16579974720640      0.80555750327456     -4.47129927745018
  H   -0.65526729491844     -0.49717229979066     -3.34126658307677
  H   0.74945016263264     -0.70538978146507     -4.44077140046326
  N   6.73154696786112     -0.08990331352501      3.72796459715324
  C   7.49468195633106     -1.24511160115338      3.89591801896361
  C   7.51939264258596      0.96283174559309      4.21011568282746
  C   8.71059881217561      0.34330892017944      4.62812566665605
  N   8.66814349272640     -1.02265149793277      4.41278476199056
  C   9.72526833600329      1.14634177805461      5.19987054298411
  N   7.18559822446050      2.24261839503455      4.31202848192370
  C   8.15521454720377      2.99219874484295      4.85033649969633
  C   9.40257267775922      2.51798141226879      5.28878150157113
  H   7.93726576737628      4.06166615915299      4.95225105789200
  H   10.12108765018864      3.22225075566147      5.71593236328233
  H   7.10800616787150     -2.21358008775909      3.57424460154011
  N   10.88885593037785      0.59528897338674      5.63373791404335
  H   11.06079517481505     -0.38528136343650      5.45446184391147
  H   11.65431471900398      1.17371966088155      5.94812560864916
