52
Coordinates from ORCA-job 4054_0.0
  C   1.66020529656091      0.59199218461858     -0.79989597776414
  C   1.25724133151892     -0.44628449623280     -1.64394059133845
  H   0.38697756681892     -1.05908288970284     -1.40979530902015
  C   1.97467903890856     -0.70374102674545     -2.82079544748087
  C   3.07234613621458      0.08483979798327     -3.17461154768720
  H   3.62581428098201     -0.12628144793210     -4.09330906873027
  C   3.44615080405253      1.16377678113346     -2.36405809164882
  H   4.27377164471567      1.81751283521677     -2.65239155581696
  C   2.73632877767816      1.40673858400808     -1.19022509804115
  H   3.01742979764961      0.92748770189267      4.83798931576682
  C   3.05461660990288      1.24929894446543      3.79389537059172
  C   2.00335231911590      0.90764060738211      2.93135804533706
  H   1.15596547425890      0.34802565317247      3.32681458452622
  C   2.05246778588117      1.29707007600628      1.58988283751298
  C   3.12566943246473      2.09193701013467      1.15327030252895
  C   4.16757446298863      2.44560126001049      2.00771740212059
  H   4.98500008383789      3.07562111176535      1.64689359618884
  C   4.13967837995942      2.00035483096159      3.33488644381732
  C   2.92092934117192      2.58065187579888     -0.26017297052573
  C   0.97769499169798      1.06168473933167      0.50370612737324
  N   0.52233490641447      2.49183957737002      0.15586858961939
  N   1.61631426915606      3.29340406700477     -0.24622480215120
  H   1.66438626932586     -1.52786788448915     -3.46855996824805
  H   4.95450790136173      2.25941578458565      4.01593492972046
  C   -0.76501917082828      2.99296954470785      0.18845687764702
  C   1.56028219753680      4.63211662225454     -0.56438104278196
  C   -0.89945334712739      4.43681379958147     -0.16397352677650
  O   -1.74176043981166      2.32058575799488      0.49398648469255
  O   2.56933598545324      5.25768819295267     -0.87251939182999
  C   -0.16634445825259      0.13957616055435      0.96870613892917
  H   3.66247031047960      3.31158769105739     -0.59574669550928
  C   0.25010966379027     -1.29774707133921      1.32873366250094
  H   0.66797652931273     -1.85346619928435      0.47876972040110
  H   -0.64176862649360     -1.84640464703760      1.67161633890916
  H   0.99525888778457     -1.34749687937099      2.13366761569476
  C   0.20726073318689      5.22296865251185     -0.51446316099251
  C   -2.17867446415943      5.01228816704711     -0.12560420589877
  C   0.02894642557649      6.58024295096822     -0.82317983128796
  C   -1.24367404518263      7.13822650059559     -0.77888427287442
  C   -2.37037411031702      6.36341621246325     -0.42925273765513
  H   -3.01611455062248      4.37013454471790      0.15638686384211
  H   0.90813813172455      7.16970483403361     -1.09041255972236
  H   -1.37586470596321      8.19881736027018     -1.01411081516734
  C   -3.75556201552063      6.97341613356641     -0.42329560100277
  C   -4.43641165781258      6.93660926030227     -1.80151708569067
  H   -3.69105241778382      8.01924774003467     -0.07718868372170
  H   -4.38429959830332      6.43964802069190      0.30851278039551
  H   -3.84716189536987      7.48718531734739     -2.55289247613964
  H   -5.43938863822725      7.39132271650648     -1.75755252761299
  H   -4.54802342013242      5.90089653224799     -2.16092461007640
  H   -0.93832744279847      0.11324018516961      0.19064212990097
  H   -0.66207076277593      0.60413622171460      1.83047349517652
