43
Coordinates from ORCA-job 4055_0.0
  C   0.98304823938334      5.37053222352703     -1.32664299220019
  C   2.47587482297654      5.17171669728886     -1.32634826239434
  N   0.49466248390892      6.37937324768558     -0.60035884178762
  N   -0.79997445138711      6.59429968412282     -0.52236547033878
  C   -1.66209962149980      5.79337470990091     -1.17559994199733
  C   0.14215355135887      4.48480713288566     -2.02359344933102
  C   -1.22027817889433      4.69950294782891     -1.95121418429226
  C   -3.07063449772056      6.12311288329924     -1.03114170825968
  C   -3.72377179840119      7.11762168743743     -0.34493616926423
  C   -5.11660102728033      6.92106330727060     -0.58894767279043
  C   -5.22425215279807      5.82263356805003     -1.40654131967179
  C   -6.37882845353472      5.11171224715017     -2.01766631307702
  H   -6.40885835851252      4.05366889730295     -1.70608252331266
  H   -6.32263099342108      5.12781413241757     -3.11966082887501
  H   -7.32041548820236      5.58895760750628     -1.71290302780950
  O   -3.98329084976124      5.33539608818137     -1.67688806406086
  H   -5.94375876662716      7.51745786572383     -0.20873035346459
  H   -3.24068150632739      7.88514059484264      0.25418535245938
  H   0.56410775972820      3.65492599569938     -2.59512281520440
  H   -1.93953322708955      4.05872017993724     -2.46366580404990
  C   3.35200712648898      6.31490712483957     -0.67604961900535
  C   4.59913192415729      5.52824591434605     -0.23358887856720
  C   4.24360545260464      4.08044223314406     -0.75702552020936
  C   4.26749147963333      4.11046280457150     -2.28017397907586
  C   3.16724118255425      4.78419338641053     -2.63975117471143
  H   5.08022830670632      3.74910658280783     -2.91155696542376
  C   5.77727827542472      6.22902390613539     -0.89181518439437
  N   5.27138118600761      7.28858128192972     -1.64566508668438
  C   3.87321628751879      7.38580005210367     -1.62333445779237
  C   6.11451860212256      8.16417614382931     -2.45221871478720
  C   6.60994302519313      9.38774103898877     -1.68175118272480
  H   5.51274944199987      8.47229302663663     -3.32002652563449
  H   6.96471773045298      7.55956034904636     -2.80188900915174
  H   5.76563402757627      9.99932292217128     -1.32699782428688
  H   7.23501859555552     10.01706060344492     -2.33540255860419
  H   7.21896669724707      9.08810028204159     -0.81468071265441
  O   3.23779240462917      8.18250384078187     -2.27201326594556
  O   6.94920368031270      5.93832801718497     -0.81262599673981
  O   2.84364185790202      4.06328650356361     -0.48031454082250
  H   4.76480728780445      3.26087220460937     -0.24893673360010
  H   2.86363642296528      5.11809071741321     -3.63246861265370
  H   4.74473353463102      5.49223109539357      0.85543379592045
  H   2.77247798461356      6.77577827054745      0.13424713727128
