71
Coordinates from ORCA-job 4057_0.0
  C   2.74449380108442      5.65149133539349     -1.49378406612859
  C   3.76209527849714      6.52272195612081     -0.64061560264255
  C   4.81407723940591      5.48447543386956     -0.17758458327115
  C   4.29208191001082      4.13856583727393     -0.80442348734093
  C   4.42621111752516      4.25326859059286     -2.32322652828482
  C   3.51527564671919      5.16457952410502     -2.73029319640030
  C   6.14040075218776      5.99660567263783     -0.71237789033612
  N   5.90455439732219      7.20837572955440     -1.35891910887097
  C   4.55841805884176      7.58830606726627     -1.37828133229272
  C   6.96870546861209      7.97216790244719     -1.99563162935078
  C   7.79029595076664      8.79761540033816     -0.99292847297806
  H   6.48787425925953      8.63104191080735     -2.73295608207064
  H   7.60872440828748      7.25816803396301     -2.53407221985837
  O   4.15065721790640      8.59843450799112     -1.90733688255094
  O   7.23199265940157      5.47436963308952     -0.62628717062611
  C   2.77803466948282      4.36045270208126     -0.63370081713356
  H   4.73614625292145      3.24320724068520     -0.34891811674331
  H   4.88984471750407      5.39216236418080      0.91741931957605
  H   3.22232154574421      7.00652787487598      0.18895072285474
  C   1.37500749477005      6.27051420238929     -1.78535439231502
  C   3.28544108305340      5.79353956401277     -4.07624523472972
  C   1.82368257688981      6.23415373564074     -4.26560699304745
  H   3.59508632928433      5.10696896792106     -4.88137886446962
  H   3.92941417662782      6.68862009066780     -4.17494773450885
  C   1.31562120196540      7.08867087627508     -3.09032983646469
  H   1.17537566092528      5.34333518003430     -4.36872105020047
  H   1.73006106136827      6.79870136250558     -5.20863879585880
  H   1.04841144791871      6.89115725799150     -0.93265369128546
  H   0.63904361883643      5.44884336487733     -1.86657610426804
  C   -0.09974843258046      7.61652266993327     -3.34193256354614
  H   1.99337277883312      7.95333606046633     -2.97970902226639
  H   -0.81927389770110      6.78749930367196     -3.46251228315241
  H   -0.14255712993610      8.23052250816050     -4.25643977476537
  H   -0.44978376343401      8.24121184763479     -2.50352619820248
  C   5.48512914398456      3.53887240245119     -3.10308241086858
  H   5.42916290869949      3.76131113282675     -4.17927763424831
  H   5.39993232316885      2.44480361634067     -2.97545495472346
  H   6.49350226604073      3.81429517718142     -2.74700725828889
  H   2.46218554302743      4.51953315618299      0.41188984561051
  H   2.17673629571587      3.55422973069687     -1.08033677611141
  C   9.08699612402377      9.38476003404699     -1.57843686538269
  H   8.05471141396749      8.17967676984575     -0.12005336121810
  H   7.15256499028133      9.61518943862884     -0.61943359734933
  N   10.28604738067894      8.61847447026212     -1.25602671597813
  H   9.23932610048659     10.39651309227567     -1.16902225161233
  H   8.97146756056480      9.52145509321345     -2.68172850370061
  C   11.50240163597660      9.30627143708263     -1.65538129340587
  C   12.74080446948047      8.57920690276843     -1.13998882649318
  H   11.49482015266879     10.32656724834829     -1.23687240836860
  H   11.57599936818169      9.40589890802348     -2.76476306581778
  N   12.76086932695093      7.18366692316429     -1.57175597559213
  H   12.75184747793000      8.63174543172324     -0.03126969226542
  H   13.63089592729448      9.10523723080125     -1.50307055370847
  C   11.52225962139618      6.48282771583773     -1.25503803373259
  C   10.29689048324144      7.24991936002420     -1.75145402132112
  H   11.42926828741456      6.31390167775269     -0.16195739505823
  H   11.51990402076662      5.50157773538088     -1.74708419038067
  H   9.40745526210062      6.70968572083698     -1.39538944063660
  H   10.28655796606241      7.22290308335716     -2.86792238107917
  C   13.95726160246429      6.48829812411187     -1.69465898328243
  C   14.03272138692012      5.08702412323945     -1.48349322992713
  C   15.22027972386362      4.38767616960302     -1.66359277282984
  C   16.40127646105604      5.04828532993345     -2.04798217212840
  C   16.34572234406956      6.44329206918080     -2.24203811966598
  C   15.16102562620929      7.14360097760769     -2.06758017500849
  H   15.16899004069072      8.21744027615253     -2.25258358537627
  H   17.24796646667978      6.98047288855727     -2.54299104933147
  H   15.23930735809198      3.30922410335092     -1.49081244280173
  H   13.15568681789240      4.52974063548558     -1.15835870504158
  C   17.62293802793259      4.32417433896789     -2.23490792471148
  N   18.61265853572226      3.73374276529852     -2.38889339463375
