67
Coordinates from ORCA-job 4058_0.0
  C   -1.55416248087199      3.38250121639325     -2.44271239881407
  C   -0.96975529320001      2.08914890236673     -1.76507627787740
  C   -0.50837373453594      1.18599032111271     -2.90261190487854
  C   -0.26462530979174      4.04805834539945     -2.97569149992309
  C   0.83102060042013      3.00022027088169     -2.50327054019944
  C   0.60679554628206      1.75700106496140     -3.36984758479501
  H   -1.04860043283687      0.32071525547146     -3.28892799117535
  H   1.21341464601085      1.47602749118317     -4.23114961459252
  C   -2.11347573567764      4.36067958179874     -1.41707224992222
  H   -2.32454883705806      3.15537482621829     -3.19282699761958
  N   -1.27835537640468      5.47785413532496     -1.37943493164232
  C   -0.18050768673696      5.38111568426360     -2.23609891179025
  H   -0.22527432745238      4.22760118000158     -4.05899681262003
  O   -3.10031252851281      4.21723680919109     -0.73552625094949
  O   0.68106872783372      6.22134956789403     -2.34702674968482
  O   0.26265514732595      2.59359535538628     -1.25218411053771
  O   -5.62106334367437     11.31566144378468      2.42063276505142
  C   -5.43954371663738     11.98410418895210      1.43312083797663
  N   -4.41272029764909     11.77611922118498      0.50442765944210
  C   -6.24478700295795     13.19474049062915      0.98090719481710
  C   -4.38523200542392     12.72769696483575     -0.50855820419606
  O   -3.54329184369557     12.76644499647261     -1.38066129301952
  C   -5.55760748241767     13.68471970694868     -0.31528763527359
  C   -3.40301075337816     10.73836054007884      0.65064496732447
  C   -3.59568580475482      9.59154631905473     -0.34064887276734
  C   -1.48577286571972      6.59437248324291     -0.47070233760574
  O   -2.60496604335928      8.63405686362325     -0.06248866846692
  C   -2.54116982438977      7.57313623917497     -0.98285736361178
  H   -0.52484573451768      7.11564136785055     -0.35960667024861
  H   -1.80074934620490      6.19786694199790      0.50575274842197
  H   -3.47387148541290     10.35613410506647      1.67832264302402
  H   -2.40879841481835     11.18458257737058      0.49844991772557
  H   -1.59384784409743      1.66119726576874     -0.97133739950239
  C   2.24529660929770      3.51544666139712     -2.36951004540962
  O   3.09991484557988      2.40891157740917     -2.06901440481457
  H   2.31035474182670      4.26256397147874     -1.56432118418100
  H   2.57131898508105      4.00591376181097     -3.29875568689077
  C   4.40778215514687      2.52271574666781     -2.40162832669136
  C   5.17378645278415      1.29197296382415     -1.98324820545257
  H   5.13205975702611      1.18441780182042     -0.88786899002945
  H   6.21667738917724      1.37855589796875     -2.31122458131233
  H   4.71031959949692      0.39131317888073     -2.41429478102919
  O   4.87140247661228      3.48739879619396     -2.95452904644288
  H   -3.51960284350482      7.05935352782297     -1.06778951451094
  H   -2.26138717793159      7.93996971801613     -1.99223887861455
  H   -2.23891645766898     14.49285102141195     -2.60061523040555
  C   -3.96119514295365     15.78061457831755     -0.64787793802225
  H   -1.69615808486166     16.15971421861265     -2.26127677333492
  C   -2.26646383663009     15.53210566084690     -2.96441985175373
  H   -1.80461875043166     15.58689962995623     -3.95735085951328
  O   -4.45365491193325     16.05909766583958     -1.95235395517493
  C   -3.70165071449424     15.99138670562804     -3.09255279336779
  O   -4.22707899514065     16.28425505701578     -4.13048711127954
  H   -7.91958761539649     15.80445020703875      1.82999431258189
  H   -6.75722014189728     16.66009810447135     -0.47751046756445
  C   -6.95624370570839     15.52733649516938      1.39971332740893
  C   -6.38910157315994     15.95219655818483      0.26486790636767
  C   -6.02993133390051     14.43732189688397      1.92370933033601
  C   -5.10100744940474     15.13869110316427      0.12120404338824
  O   -4.74560965737129     14.89023240068247      1.48428948934055
  H   -6.03014395146498     14.21068355751131      2.99660840655156
  H   -7.30419010606116     12.91747625442352      0.89068213265316
  H   -6.17705180545007     13.69980291425216     -1.22189135205111
  H   -3.67995784782206     16.72188177256606     -0.14464128231976
  H   -3.09105166839412     15.11227656174625     -0.65936763208367
  H   -3.50134584797487      9.97177816531996     -1.37705002818522
  H   -4.61155250815694      9.15793414377995     -0.23026549026191
