59
Coordinates from ORCA-job 4060_0.0
  C   -4.75670687133222      0.18857658259043      2.80520373939567
  C   -5.82699068685278     -0.35508167673984      3.55528160966470
  C   -6.67076504648394     -1.32222796980737      2.97523300327072
  C   -6.45300083938856     -1.70426850867740      1.64854551561835
  C   -5.41110259623960     -1.13473319556392      0.92102510952162
  C   -4.55045767724797     -0.19113799433503      1.48832707853004
  H   -6.17544931905937     -0.70532443968943      9.88698222810191
  C   -7.06009040818444     -0.24950943734568      9.43772426095163
  C   -8.12006172812285      0.18784366352787     10.24835667472600
  H   -8.04576075702045      0.06028841720576     11.33192996157412
  C   -9.26130162779159      0.77423431498947      9.69747768948934
  C   -9.35480273523747      0.95089157684169      8.30438757046219
  H   -10.23963035106410      1.42857348502655      7.87399488016456
  C   -8.31671564546045      0.52113132521403      7.48979089399222
  C   -7.17835135600890     -0.08811142935762      8.05342905959944
  C   -7.76570240990477     -1.92654117754757      3.81774134409133
  C   -7.43552918965875     -1.79392582618380      5.30731358210296
  C   -6.95340472382124     -0.39459618256974      5.74085705604144
  O   -5.95140597167670      0.09040741426722      4.82379935509012
  C   -8.09527055644279      0.68969773170105      5.98873001390317
  N   -6.29914360652771     -0.46763010444535      7.04698302391803
  C   -9.37749734481257      0.51850301231816      5.16544235179094
  H   -9.86165623701554     -0.45722144667857      5.31867901457468
  H   -9.19279172407363      0.66573188304327      4.09014512376581
  H   -10.10365897691149      1.28908387880616      5.46807907086644
  C   -7.53382904003738      2.10994729767117      5.74088849515202
  H   -6.61872990707373      2.28722282740719      6.32426916859138
  H   -8.28395761897201      2.85065909267991      6.05764824782101
  H   -7.29474883572129      2.27963248910990      4.68144027042429
  C   -4.99237292929373     -1.04703304302365      7.25096793732128
  H   -3.72856323798496      0.22802951486097      0.90983593005245
  O   -3.85877227982489      1.04549459571405      3.41064755954998
  C   -4.21574048669106      2.36325809132696      3.60452204502854
  N   -5.19623497546087     -1.54915698560834     -0.47390052983893
  O   -5.96429623344297     -2.37554103022277     -0.94436178514979
  O   -4.26281096302045     -1.04193043848693     -1.07747751559751
  H   -7.08541723054491     -2.45267266342505      1.16976710964432
  C   -3.90239920175954      0.02443334618472      7.23737537950673
  H   -4.77739599543639     -1.78812615529800      6.46360116489537
  H   -4.96784623589938     -1.59493899786199      8.20756307508561
  O   -2.65112775288997     -0.60861982156427      7.53791085966569
  H   -4.11078561891779      0.80460672181467      7.98873000023479
  H   -3.85192522674419      0.50258198196426      6.25070122411270
  C   -1.53528827802703      0.11476421857980      7.31310677663188
  H   -10.07797932811991      1.10061271324809     10.34561673533147
  O   -5.27646928092128      2.80130446506633      3.25607539483959
  C   -3.09403677768883      3.11089626116113      4.26906636603301
  H   -7.88582316698282     -2.99084571605462      3.55939688866415
  H   -8.72779346411989     -1.44730466188771      3.57923047098033
  H   -6.62864702257608     -2.50427956116966      5.55077467471304
  H   -8.29440065824839     -2.07077158321293      5.93667930677714
  C   -0.29577156903539     -0.66095294455130      7.68486409564696
  H   -0.30538442439502     -0.88192679666256      8.76398794127403
  H   0.59540848742566     -0.07356914905581      7.43327017700197
  H   -0.27925447774377     -1.62580135701461      7.15529777424601
  O   -1.55108054440623      1.24010530945780      6.87557078858760
  H   -2.22355194263150      3.13324082992353      3.59359065813956
  H   -2.76791137691375      2.59919819902062      5.18830051082846
  H   -3.41864401955999      4.13570905331878      4.48617359259703
