44
Coordinates from ORCA-job 4061_0.0
  C   5.36186064039684     -2.31593932031669      7.50317576523030
  C   6.25836701435114     -2.04438609942235      6.37359873649926
  C   6.36644466733939     -0.99154287042804      5.52499272375821
  C   5.50482569803714      0.17877428766600      5.40488831088313
  C   4.07011180364473     -2.04627917344063      7.79928192404535
  C   2.92944458587434     -1.41457456669587      7.03695089187149
  C   3.28173187710978     -1.03327452997691      5.55569740773247
  C   2.28523055802657     -0.28587141478704      7.83992963889916
  H   2.16070525382964     -2.20718721569152      6.97031180217443
  C   4.15864106272284      0.18945181437757      5.45011824010496
  C   2.03280742941005     -0.93345271961355      4.68384953143677
  H   3.86320178069078     -1.88929891001349      5.17828999784332
  H   7.06169671895430     -2.78771104179815      6.29296271592708
  H   7.25196962515118     -0.98700160472843      4.87663787595076
  H   5.87157113086772     -2.90801220700002      8.27508277183939
  H   3.73907085289020     -2.42416421629337      8.77496093234673
  H   3.65463124496411      1.15467769701332      5.34521772673759
  H   6.01708263859449      1.12885912572061      5.20661500314510
  C   3.05134770890518      0.73865191354358      8.42130830342123
  C   0.89468395663770     -0.24322341686626      8.02454503006313
  C   0.29000051762319      0.79088061349409      8.74411601705138
  C   1.05199776753814      1.82386603135942      9.31089804432395
  C   2.44490769211314      1.77247762117089      9.13863950141927
  H   4.13842143768011      0.72055390866435      8.31980042958335
  H   0.27222270205231     -1.03322530720735      7.59477272206138
  H   -0.79716109028349      0.79173459718073      8.87016995178177
  H   3.07043653701818      2.55276976580795      9.58379233474147
  C   0.39961721627117      2.95880309213859     10.06359284411543
  H   -0.57974607641137      2.66455846010750     10.47160522520044
  H   0.23079024043485      3.82941703674786      9.40466273464103
  H   1.02789662026109      3.30476511222132     10.89974523872979
  C   1.19421939806392      0.19371165562788      4.67635940773301
  C   1.67142484185289     -2.01211911673222      3.86106383034331
  C   0.52268168413004     -1.97086726139406      3.06677421726410
  C   -0.31306274423859     -0.84385196253206      3.05775124852532
  C   0.04650131642358      0.23474236060228      3.88077018860435
  H   1.42747248523626      1.05496467921956      5.30592277255416
  H   2.30347588171098     -2.90553776413340      3.83981086526719
  H   0.27416222832465     -2.83170525811864      2.43814026467037
  H   -0.58588784590444      1.12784663512133      3.90346498373738
  C   -1.53494649611137     -0.77920693535590      2.17279005589596
  H   -1.94625664308090     -1.78153445067742      1.97558890013173
  H   -1.29488237506721     -0.32729604030793      1.19359092262131
  H   -2.33082154403547     -0.16649300425350      2.62486196909218
