49
Coordinates from ORCA-job 4064_0.0
  C   10.88922840142583     -3.68681877374203      7.09281831026578
  C   11.40237291509528     -3.63668595804415      5.79956091053518
  C   10.50488556625099     -3.23449116701253      4.79401020873895
  C   9.55796211793509     -3.37361905216836      7.37417062677060
  C   8.65497329475840     -2.98553034812827      6.39005190377600
  C   9.16668591341432     -2.91619188607526      5.08206665791763
  H   12.43669620260223     -3.89351362554172      5.55438648771558
  H   10.85306753276955     -3.17009372134328      3.75896875930713
  H   7.61294269812034     -2.74940299092635      6.61583320483088
  H   8.50858968111260     -2.61151518395518      4.26302883488231
  C   11.22317119713275     -4.01269021698505      8.54605128626349
  C   9.69484344444434     -3.66946872426500      8.86180717860687
  C   12.31732321120654     -3.18705368122300      9.24733196391867
  H   11.43420124449653     -5.08419995799063      8.70849560804568
  C   9.39694981030055     -2.55308879221578      9.85927270760782
  H   9.13640846544194     -4.57255018771017      9.16233180975176
  C   7.91607166487933     -2.25887839498913      9.99513873122838
  H   9.88352810759132     -1.60767446372160      9.56289172844619
  H   9.78887923095433     -2.78986058029761     10.86235509058165
  O   7.67461780548656     -1.47185423532140     11.06118189638090
  C   6.31450156406384     -1.09111101509673     11.27407614717538
  H   5.92570347104870     -0.52569120643792     10.41296688382000
  H   6.30895881843143     -0.46359786235116     12.17427405157221
  H   5.67803350440682     -1.97707022157678     11.42232892204754
  C   13.69931563020265     -3.49451538681801      8.74822496416807
  H   12.26773606039547     -3.36787611402990     10.33498682811852
  H   12.10879409935649     -2.11315366679143      9.08923010447000
  C   14.68862761023135     -4.04160234271106      9.48492208058784
  C   16.02042152388323     -4.33720156820282      8.99197693084211
  C   17.00584059276644     -4.87099116487107      9.75246955096690
  C   18.37499506947498     -5.19945125078976      9.34785125133028
  H   13.90127893547722     -3.25321957034058      7.69627980140643
  H   14.49280863540277     -4.28154632277071     10.53873330488470
  H   16.21029889312160     -4.09996394268942      7.93866491577095
  H   16.77125170671703     -5.08758146534747     10.80216621346953
  C   18.86669406848417     -5.01952839441514      8.03568701936236
  C   19.26876507262516     -5.72333364823965     10.30199080061755
  C   20.58491455554122     -6.04860811417439      9.96830345492696
  C   21.06937806306750     -5.86675832179980      8.66549842081743
  C   20.17846532593523     -5.34540872403937      7.70753610721595
  H   18.21089692118920     -4.61978059420827      7.25853049975782
  H   18.92086532242386     -5.87708644315484     11.32789867060404
  H   21.24964725830071     -6.45229623857226     10.73794224328393
  H   20.52538859804421     -5.19310745686755      6.68052641448812
  C   22.49005850426193     -6.21125860306890      8.29162724134961
  H   23.04395234878071     -6.62973620674336      9.14539657192257
  H   23.03926400612789     -5.32126683717006      7.93866146570890
  H   22.52231157129734     -6.95112422355716      7.47352023817115
  O   7.04711376352138     -2.65212115150777      9.25416499557133
