26
Coordinates from ORCA-job 4066_0.0
  C   -2.63822986911689     -0.60652938329366     12.30239644473516
  C   -3.43754917252995     -0.33295895971314     11.11090576444472
  C   -3.08250957467530     -0.59056897946438      9.83612342818433
  C   -1.88692501418134     -1.31431498791671      9.35119867515770
  C   -1.32474483639231     -0.43950492688094     12.59458726910016
  C   -0.19095748836729      0.07817949617486     11.83317422353375
  C   0.09135318618373     -0.18901019978700     10.54219688788804
  C   -0.58280261907449     -1.14879582389899      9.64095740087431
  H   0.11624197309737     -1.79418339841579      9.09067111634076
  H   -2.11704970252009     -2.07767261430074      8.59467083920156
  H   -4.42407411503234      0.11580573111012     11.28600578136987
  H   -3.80736249814207     -0.33449426906234      9.05228260748270
  H   0.49511836161580      0.73786938848018     12.38026703484391
  H   0.99415907176932      0.27229099945170     10.12082613050130
  C   -1.48931195502072     -0.79509704807639     14.06804300769268
  C   -3.02432889851233     -0.99041784380969     13.72630046865000
  H   -1.33995054439821      0.08214714505570     14.72679280790574
  C   -0.69331142269291     -1.97510952481050     14.61955652340402
  H   -3.64061679784695     -0.21113681555148     14.21487967196238
  C   -3.66992828322005     -2.35454653772715     13.95607461525537
  H   -3.10114903005010     -3.16296676446691     13.47055626710670
  H   -4.69154533867895     -2.37544811400305     13.54107251401088
  H   -3.74497748920995     -2.58702673636562     15.03170606416514
  H   -0.79530103845118     -2.86942846493604     13.98512225555711
  H   -1.02113060933754     -2.23934353657701     15.63903512075122
  H   0.38046370478482     -1.72861783121502     14.67115707988019
