29
Coordinates from ORCA-job 4067_0.0
  C   -2.48043525495477     -1.01979752495980     12.11440219092788
  C   -3.33639039830925     -0.44742548339982     11.01614991139542
  C   -3.10694954877053     -0.28008094171841      9.70477391899512
  C   -1.90953868752651     -0.54215985761667      8.82606818179085
  C   -1.05037555698378     -0.49760068268391     12.39105431690051
  C   -0.46814428116818      0.55707735676168     11.45176192990258
  C   0.22634371682976     -0.04631315372025     10.21997906510762
  C   -0.60174050906751     -1.06879699153304      9.42870660671317
  C   -2.20181838425945     -0.10201186390939     13.29588791442847
  C   0.00821711564929     -1.44872010830152     12.93638420538240
  C   -2.83714402067769     -2.48034811952450     12.37902423721622
  Cl  -2.82532345569429      1.57205976130749     13.26959838946967
  Cl  -2.29466787583698     -0.73714775855270     14.96438556502013
  H   0.38509032623040     -2.11306149004161     12.14343503593154
  H   -0.35771655995822     -2.07450975983949     13.75816463910422
  H   0.86347104536952     -0.86894479381282     13.32106646286528
  H   -2.55266082723290     -3.09818313909535     11.51229591956168
  H   -3.92619346115725     -2.58229012525664     12.51379903425488
  H   -2.35286637184286     -2.88620683392086     13.27561941276304
  H   -2.24636509005523     -1.25133454716552      8.04507044528989
  H   -1.69633267191153      0.38945682240408      8.26453229190451
  H   0.02365555209751     -1.43371263235027      8.59572529986308
  H   -0.80813283572036     -1.95751046761927     10.04944862002142
  H   -3.95890200248584      0.11566808554952      9.13534852652713
  H   -4.34031097143912     -0.17838251849982     11.36821559116530
  H   0.51493832768979      0.78142570621607      9.54725342952013
  H   1.17426106702581     -0.52392541064664     10.52247637563374
  H   -1.25688753579712      1.25061257116303     11.13495825531578
  H   0.26100914995733      1.16268390076646     12.01913422702792
