43
Coordinates from ORCA-job 4071_0.0
  C   -2.07537318812367     -0.42830645329156     12.89609857289975
  C   -3.31021791838988     -0.22960660716735     12.01205569358040
  C   -3.07117324024401     -0.01372112941540     10.49848631011507
  C   -1.99774011746684     -0.90780316876144      9.88003919954670
  C   -0.80470730938240      0.36374899528656     12.77301729524573
  C   -0.62523387560265      1.45156629752822     11.73654793085676
  C   -0.08176287370766      0.96347092024337     10.37181511602865
  C   -0.52505877989682     -0.41597540656039      9.83121823746191
  C   -1.70976488726003      0.58974319169902     13.97374941096246
  H   -2.28743900517021      1.51847365620310     13.99722257115424
  C   -1.28855309127792      0.12339230800395     15.29913346682753
  C   -2.30015651095845     -2.38866997331850     10.08662947008852
  C   0.58692019535519     -1.45051990985062      9.98538935615820
  H   -0.29600317183355      1.73964261963869      9.62251477094852
  H   1.01696447893962      0.92122273480051     10.44179786376455
  H   -1.57654494014509      1.98901001575645     11.60512072835113
  H   0.08225839177807      2.20468338569254     12.12513925876453
  H   -1.91411762042579     -1.45973194868449     13.22536430668398
  H   0.10482815047520     -0.19785375869066     13.01561318507268
  H   -1.70622887227320     -3.04206948976787      9.43794696425268
  H   -3.36144541016027     -2.58330658931881      9.85997454050253
  H   -2.11951070387032     -2.68725657203392     11.13083999234349
  H   0.32929387798479     -2.43790328484319      9.58734988347009
  H   0.84232517024927     -1.56777041908947     11.05090794050793
  H   1.49311115190161     -1.10839716038915      9.45923144987484
  C   -1.37410341153069     -0.47211670501903      8.56903733097680
  Cl  -0.99637914028590     -1.67151701502308      7.29709766528526
  Cl  -1.92941226252299      1.03849269149821      7.78528591501508
  O   -1.62034051554478      0.85938120607160     16.36901412874423
  N   -0.61433606265359     -0.94707404172010     15.61389497150400
  C   -0.52932150538842     -0.85950850235343     16.98581681163400
  N   -1.10996917317239      0.20038033085629     17.49083490899372
  C   0.16777493236350     -1.87668786724912     17.83449695282651
  C   1.64667706998468     -2.05047689980118     17.46704065537729
  H   -0.35860005330723     -2.83933340496094     17.71059332983895
  H   0.05266133217609     -1.57725519918284     18.88716084361290
  H   1.75457290973003     -2.33384448883008     16.40871080650400
  H   2.11041672657069     -2.83625968889796     18.08366480559121
  H   2.20880099713124     -1.11641672794864     17.62670066521852
  H   -4.02123491817023     -0.20809396595618      9.97002007709206
  H   -2.84173053996849      1.03833309281163     10.29793347815571
  H   -3.95640006250247     -1.11045879806739     12.15509687569346
  H   -3.90518622340403      0.62384373010268     12.37739626247297
