30
Coordinates from ORCA-job 4072_0.0
  C   17.12463532507763     -3.30202582233962     12.90358618305256
  C   16.96428458098804     -2.63589643951509     11.50142490524930
  C   15.71522874229719     -3.92421617210036     12.78397044773264
  H   17.20207716497299     -2.55293383301685     13.70181531396724
  H   17.96305471776602     -4.00984967666924     12.99242292497915
  C   15.40694229705904     -2.98666171216600     11.56303690189771
  H   15.04359616626172     -3.81901134482107     13.64751917682263
  H   15.73125179138807     -4.97851902052337     12.47408289777363
  C   17.68147250044565     -3.39795451724068     10.40896921427872
  C   17.35833976541855     -1.15786450855172     11.36810542855246
  C   17.05876651633096     -4.13674599741069      9.47594760131934
  C   14.81749648494950     -3.67560800883322     10.35275160100766
  C   14.49777428780573     -1.81719755863582     11.93064008376492
  C   15.59944434067746     -4.23027259622493      9.41162777739842
  H   18.77181198356121     -3.30241909633117     10.39803448980072
  H   17.64664231796061     -4.65689422429186      8.71446007286823
  H   13.72757441864345     -3.73667217779578     10.29392445309821
  H   15.14703765716926     -4.75549378852177      8.56553550690961
  O   13.33789523563024     -2.26433168311119     12.44870459715136
  C   12.35800247716630     -1.27356884677468     12.76528589115592
  H   11.48816159317274     -1.81740681097435     13.15445491741996
  H   12.08053465377307     -0.69790286512617     11.86902117195808
  H   12.74078082961324     -0.57321846571719     13.52325676679099
  O   17.47172956521083     -0.53977400536597     12.55679751334470
  C   17.70254417043499      0.86707765022430     12.50772683123122
  H   18.60916638006014      1.09779728615849     11.92808320910775
  H   17.81834007049391      1.19673191637792     13.54832815051559
  H   16.84395740430615      1.37221894926663     12.03930080838451
  O   17.59275569788247     -0.62078045511198     10.31445071769370
  O   14.72992086348241     -0.64605617485650     11.75756444477275
