96
Coordinates from ORCA-job 4074_0.0
  C   11.63370627352716     11.98315397069686     -4.20120129519443
  N   11.40923110396109     10.92065230872246     -5.16985324081736
  C   11.65866277754098     10.54832021235949     -3.78538149549600
  C   10.35240725502813     12.60383629038527     -3.62917112773785
  H   12.55088191523606     12.57616034804982     -4.25967736316325
  C   10.39248650467069     10.23502821510053     -3.00246972570508
  H   12.60101790520592     10.05405600710428     -3.52260535675363
  C   12.46721495891364     10.66747263401230     -6.13825110555266
  H   12.37861417856334     11.38484822003016     -6.96759678462108
  H   12.35312061686036      9.64704763581184     -6.53684729956114
  H   13.48767315507176     10.75698589572783     -5.70770929681538
  N   9.56207439089649     11.40621599932719     -3.28571457205611
  C   9.39383992658619     13.45699754115413     -4.53804938975689
  O   10.62690615196719     13.25170799477759     -2.39788547437004
  H   10.61004836917093     10.15892581604116     -1.92358791063819
  H   9.87378001497700      9.32216300206161     -3.31942231040344
  C   8.32606309476937     11.47145603060596     -3.82143948519208
  C   11.49746051222188     14.36308988756611     -2.42385672279528
  H   11.37760308718867     14.88369740444772     -1.46226872976838
  H   11.25900481727034     15.06728856220459     -3.24104401153566
  H   12.55890956743572     14.06651373517034     -2.52295991611237
  C   8.11753576157683     12.64160326733872     -4.51575393256108
  C   9.87283384263720     13.74380294407742     -5.95794458733823
  H   9.23444230899671     14.42309183006905     -4.03091477365799
  O   10.99548608643571     14.64248524955736     -5.89210694940864
  H   9.06234616561647     14.23697319720417     -6.51608458003458
  H   10.16304491550062     12.82430593245730     -6.48037392733255
  C   11.94672631175304     14.54007258982189     -6.85205372932989
  N   12.89057921844698     15.51173904225935     -6.68118223979112
  H   12.69833206471055     16.29747192143057     -6.07321280311683
  H   13.57478063594621     15.62136866955821     -7.41800106037224
  O   11.97558813314680     13.68975519075325     -7.71468766563524
  C   7.27051279116215     10.39979970207132     -3.66049657183926
  C   6.85793066225737     12.94568452978124     -5.11096337849725
  C   5.76640826789127     11.88144894896327     -4.93528740025095
  C   5.98898436486070     10.70274034472614     -4.26003977338133
  H   5.21725444198026      9.93964078614293     -4.14875259677903
  N   4.61765189984753     12.25087607854131     -5.52594745892340
  C   3.41430981780072     11.45405836794689     -5.57889408450458
  C   2.33139344823316     12.17856914144099     -6.37707117623123
  H   3.05293223762208     11.24165934275743     -4.55455908830691
  H   3.63121270602043     10.47249012911844     -6.04284362281660
  O   6.58586732728769     13.95896688217786     -5.76245801607374
  O   7.52755536348853      9.36362700533996     -3.05410626744899
  H   4.67674676052512     13.15873382002539     -5.99074136847940
  S   0.83419608804646     11.10554938590412     -6.47834411437236
  H   2.69099958407984     12.39345910348287     -7.39579070215324
  H   2.05488373440820     13.12748568580818     -5.89258108331263
  H   0.70959117079259     17.78902709578028    -17.57989761474336
  H   2.42961527972136     11.88102870421725    -20.15643335838370
  N   2.79060964095482     12.79405050886356    -19.91153617076802
  C   0.68034644011389     16.82559477957924    -18.11284351712708
  H   3.62698415933207     13.12750373388683    -20.37229597761115
  H   1.66882741380771     16.34808045898252    -18.03769122148043
  H   1.61931235027526     12.42015519639727    -16.06509427967782
  H   1.31875928994528     14.09569160770091    -16.61944626619762
  O   1.47386640461797     12.65611137641017    -18.11797496451002
  C   2.49756717213349     13.33403203000466    -18.69225218503897
  N   -0.31612760427701     15.96620104325303    -17.48924624763741
  C   1.07192612278284     13.04099153216991    -16.79074661688130
  H   -2.80779487416894     16.36208022286751    -16.07778631497745
  O   3.04862771970684     14.29972790160839    -18.21081190412393
  H   0.47410147122991     17.03078626162288    -19.18526890327179
  C   -1.68725211921467     16.06508384791759    -17.96662436223879
  C   -2.72422388857439     15.67116013177757    -16.92539587051195
  H   -1.93744571284063     16.80535315551921    -18.73526348974454
  H   -3.71925656852695     15.56233874933657    -17.38932062905241
  C   -0.84585022447889     14.87405671563289    -18.29112303471465
  H   1.00711326609148     12.10275820727516     -9.49978159494168
  H   -0.87280687171185     13.68960669132421    -10.08580469691431
  C   -0.42344686350314     12.77938814073603    -16.63767475647881
  S   -0.48168806155532     12.28266821001925     -7.57571523007988
  C   -0.95603994442604     12.60200389083552    -10.27259296705213
  C   -0.04542358490562     11.83827796392931     -9.31197887538142
  C   -1.10192230986949     12.92262954833401    -12.72481967244679
  C   -2.07778981429821     13.89351111508519    -12.72954217336362
  C   -0.44277173098610     12.41545584206247    -14.01426205668334
  C   -0.90278669377481     13.01903204360149    -15.22133327695366
  C   -1.88971981421601     13.97855132727878    -15.22067468532705
  C   -2.54233800476706     14.49934672069121    -13.95881200434698
  N   -2.21937871149658     14.37612189149987    -16.46691055569726
  N   -0.59202083281031     12.31522786788799    -11.64047166175865
  O   0.44172400755116     11.55864999536349    -13.91951651283258
  O   -3.40116109524098     15.37457055638700    -14.02138195769540
  C   -1.38924832213595     13.69224066502477    -17.47804121819481
  H   -0.45306119969883     14.71029448307922    -19.29857877628875
  H   -2.54200913742013     14.25797031646931    -11.81195938285265
  H   0.12954487159327     11.62804918368867    -11.86652366436373
  H   -0.61942791135352     11.73507661722747    -16.93271681416307
  H   -0.16413636220441     10.75101888858327     -9.43738228396090
  H   -2.01418998364454     12.33318618793241    -10.08886088129320
  H   -1.54701926425662     12.96298692516013    -20.23166765298388
  O   -2.28843881986402     12.92885309100600    -18.26565291309948
  C   -1.76801705542932     12.26825840220718    -19.39940210931155
  H   -0.84735867789266     11.70051684438726    -19.17353071859285
  H   -2.54236623844938     11.56465652927930    -19.73882241225132
