30
Coordinates from ORCA-job 4076_0.0
  C   -2.43836121270578    -11.27812635034544      6.93264880907395
  C   -3.70347251055587    -10.54160502143948      6.46666459376276
  C   -3.34667806391059     -9.57856203366091      5.32116355222948
  H   -4.05764063673933     -9.92571762557281      7.31580720772170
  C   -4.82774163616809    -11.50268612581840      6.07464925835295
  H   -4.51376799831410    -12.16485774376105      5.24890531660638
  H   -5.72604205489511    -10.95750323092168      5.74011782860881
  H   -5.12163702974474    -12.14403236068561      6.92178734319161
  C   -1.36368643807210    -10.30601002506442      7.43249876697854
  H   -2.03921876102717    -11.86722247316726      6.08556208800958
  H   -2.68872548281835    -12.00380184282688      7.72520582883158
  C   -1.19430063713398     -9.09923144284998      6.53442090135279
  H   -0.39371936197812    -10.82656621371788      7.53389624178614
  H   -1.60249526179700     -9.94292862790176      8.44979730286124
  C   -2.08915714391989     -8.79023840704273      5.58222996626520
  H   -4.18688044537660     -8.88485776541438      5.13501979575624
  H   -3.23205788915055    -10.15038491407957      4.37747530782273
  C   0.04110110247112     -8.28927679813192      6.77783640518750
  H   -1.91011806163690     -7.91433622143579      4.94758579405273
  N   0.12094844391385     -7.53272934467969      8.01942233234586
  C   0.05007583020784     -6.78568607418460      6.76220705292427
  H   0.97903292666762     -8.75908355844564      6.44312177129767
  C   1.31191540740293     -6.12679463388170      6.27957020935972
  H   -0.89069930857952     -6.25864609187549      6.57128335413865
  C   1.16557128443530     -5.05534245977028      5.22306013107853
  H   0.59627638961521     -5.44082160500667      4.36038750767606
  H   2.15569628360156     -4.71020572381487      4.89751633159106
  H   0.59244891592179     -4.20423911477484      5.62931978815467
  O   2.39096896134134     -6.45682053470654      6.73353908618430
  H   1.09816438894530     -7.49920563502164      8.32889012679721
