40
Coordinates from ORCA-job 4077_0.0
  C   7.33074858048365     -1.18266083775549      6.36484791029266
  C   7.86493333178410     -1.65022170168954      5.00372224366894
  C   6.12772104375653     -2.13656923737436      6.24428494220734
  C   7.50956050561510      0.15569907533839      7.02597406964080
  C   6.65021552167778     -2.64704524196937      4.88701715632949
  C   4.69644323779005     -2.03140713966642      6.68138675568356
  C   7.27299258890906     -0.95566596510758      3.72170265472319
  H   8.91822791282492     -1.95871171543344      4.95375092179851
  N   6.19602593968282     -1.95969254733191      3.67981306334006
  H   6.75503264534332     -3.74129189386296      4.79255790244786
  H   7.96979466543389     -1.11056664380586      2.87671388853617
  C   6.92159226865137      0.51756543267490      3.73161430815810
  C   7.90426876416251      1.45575072998965      3.36989059990473
  C   7.63347200990906      2.82518656067920      3.38342006481393
  C   6.36183079888505      3.28627035129029      3.74324618381676
  C   5.37036548914258      2.36453698781484      4.08891590537897
  C   5.65009289987325      0.99361785971088      4.08444285839352
  H   8.89685740192468      1.10356448348210      3.07203309561421
  H   8.41523059170831      3.53636502256004      3.10269186299083
  H   6.14429083032904      4.35758541883775      3.74639398844538
  H   4.37120055767079      2.71252983989107      4.36514022028399
  H   4.86435841056840      0.28942819254731      4.36844673923258
  H   5.23103275995154     -1.64348920245861      3.63342756415959
  H   7.30033452077546      0.98740970109892      6.34067707661938
  H   8.54829920577024      0.25341920687866      7.38372505583584
  H   6.84803517780761      0.23805635313439      7.90184601015431
  H   4.06482926173596     -1.60634142048298      5.88447570900769
  H   4.60389069960953     -1.39468968768856      7.57422096143936
  H   4.29914198806238     -3.02880468527272      6.93378125579095
  N   7.17489418628318     -2.34306371938021      7.21529297438868
  C   8.05908429268646     -3.40451349674475      7.34131935150724
  O   7.38900910815916     -4.57569361712553      7.39794027356111
  C   8.18154145281764     -5.74793635931576      7.64387550138613
  C   7.25024634669481     -6.94203171904998      7.69314877278651
  H   8.73153870569789     -5.61637871714018      8.59034255983005
  H   8.93647072448308     -5.84803744936326      6.84630171410588
  H   6.50559965137850     -6.82922544215795      8.49667516000282
  H   7.82702941602412     -7.86112605361871      7.88291202884377
  H   6.71221863962073     -7.06387717242700      6.73983139041161
  O   9.25857786631507     -3.29717354970521      7.44972930446722
