57
Coordinates from ORCA-job 4078_0.0
  C   14.00475486098674      1.05952590131773      4.58622545627649
  O   13.03404005277525      1.57401536967143      3.69105246040836
  C   13.06297634759353      0.16308550370855      3.87164437299444
  C   15.46170922884310      1.12016335874954      4.16955919987397
  H   13.83340075106718      1.25330330253459      5.65143480715130
  C   11.90499994704672     -0.49050068594068      4.58437789730166
  H   13.42204144223057     -0.42559432477311      3.01880882421139
  O   11.37737748192098      0.29695114739926      5.52519475327102
  C   10.26141695642223     -0.22869736577302      6.27059506867528
  C   9.82834973830055      0.82120367542504      7.27854074823073
  H   10.56926895739394     -1.16892309390786      6.75810305664090
  H   9.45231601795379     -0.48015852444757      5.56447479057973
  C   8.62766372677879      0.36627247893137      8.10999048355552
  H   9.58889520206663      1.75244513290037      6.73744210767839
  H   10.68264848077921      1.05463238815976      7.93709877327304
  H   7.75033910132610      0.15849055231065      7.47479638278143
  H   8.33534349771432      1.14118701670178      8.83522842817996
  H   8.85177890109175     -0.55205599511425      8.67829493598576
  O   11.53160123575568     -1.60688448466466      4.32245168178333
  O   16.32366177252209      0.74601886963739      4.95999169085069
  N   15.65803831498818      1.61709838533447      2.92963453087736
  C   16.87003081804986      1.68118558016425      2.09448362480168
  C   18.14609382211621      2.36181710752173      2.65844565969928
  O   18.96098126458703      2.76123067165809      1.83824805072785
  H   14.80120512426372      1.93168287085316      2.47989665278251
  C   17.17421552853277      0.35904596856092      1.34619617419260
  H   16.60119333521753      2.39384713305128      1.30063387101515
  C   17.47894196410519     -0.92201169457998      2.14758986755906
  H   18.01569485529629      0.58147177943984      0.66802334939222
  H   16.30090988303003      0.15969008208146      0.69981768085765
  C   18.79500292040604     -0.85596610900315      2.93423057692545
  H   19.64503832516496     -0.63268795506139      2.26705957760335
  H   18.99815087822384     -1.81999882230427      3.42859715948751
  H   18.76319670901411     -0.08710449853666      3.71716664793416
  C   17.48043589250351     -2.12448070871821      1.19065571680949
  H   16.66189039069208     -1.07921297596421      2.87528746673905
  H   17.66117148180488     -3.06515910907210      1.73549817850954
  H   18.27432858920927     -2.02288922994146      0.43024096302144
  H   16.52035385081450     -2.22489090282582      0.65725922480408
  N   18.28927198878543      2.50090928037191      3.99759601472656
  C   19.46379983213493      3.14203558039081      4.57301179106128
  C   19.21290735417725      4.60297163969852      4.97163611225001
  H   20.26906697781523      3.08139715304547      3.82723776140413
  H   19.77693122441272      2.56012302878960      5.45724589422998
  H   17.66251392063831      1.96738843704305      4.60398714461719
  C   20.39275190289936      5.29167296645607      5.68252908703011
  H   18.32673307142787      4.63812432937964      5.63067440472987
  H   18.94618829933335      5.17383545918340      4.06340321491565
  C   21.64427270429404      5.38705422033441      4.79767198489643
  H   22.01665502937505      4.39744569362086      4.49005160709972
  H   22.46489862210374      5.89603245826418      5.32978382670722
  H   21.43438098421572      5.96306813518440      3.87954389372680
  C   19.97795061259094      6.67991659479921      6.18864999547648
  H   20.65225987604825      4.67775151748523      6.56775674852338
  H   20.79960352665361      7.16948417836075      6.73694330635603
  H   19.10950651065630      6.62158476604775      6.86558989258431
  H   19.70051991384756      7.33941676606040      5.34780642622172
