29
Coordinates from ORCA-job 4079_0.0
  C   -1.53043530139305      1.93779216899302      1.77324105472617
  C   -0.70087927982983      3.18329164238073      1.83518713733256
  O   -1.75974903314319      2.95550936616038      2.74150866255312
  C   -0.93635220664187      0.66030046218533      2.33865319590308
  C   -2.60754912845891      1.77192558968531      0.73091254672995
  C   -0.87024366394933      4.30452422724566      0.84616101431388
  H   0.31618903343444      3.09844723983945      2.24137186244667
  H   -0.19524860212765      0.89349795354994      3.11704936933809
  H   -0.44795716529656      0.05993798792914      1.55609568961214
  H   -1.73391559017700      0.04734308899517      2.78810328129071
  O   -1.88188733208984      4.92781370524076      0.65201423614755
  O   0.29508149259210      4.50819348997259      0.20089328578222
  C   0.32066437179605      5.52833147438066     -0.81625561788336
  C   -0.12562728717652      4.98415021800810     -2.16333460451521
  H   1.36698950201002      5.86658270942464     -0.84680299119076
  H   -0.31903229581019      6.36461576309455     -0.49664447111650
  H   0.49135407797525      4.12255891870160     -2.46397337055397
  H   -0.02587264581055      5.76510805108832     -2.93474903250924
  H   -1.17956252489422      4.66972036067572     -2.12796822692263
  C   -3.83463003144375      2.43691354200300      0.86861583539273
  C   -4.84620292711260      2.25519208664078     -0.07802020555453
  C   -4.64218262699576      1.41695071898585     -1.17818420443469
  C   -3.41774195220478      0.75784411123466     -1.32760405398334
  C   -2.40857106888346      0.93045817364575     -0.37639802739271
  H   -1.45687465944241      0.40794781510863     -0.50549577219662
  H   -3.97790433877592      3.10515125798972      1.71859135311086
  H   -5.79926141601966      2.77709227628550      0.04329703272057
  H   -5.43426271297345      1.27835371974854     -1.91911954564295
  H   -3.24693468715732      0.10382188080645     -2.18711543350378
