71
Coordinates from ORCA-job 4082_0.0
  C   -5.72033977939910      0.86748407344531      3.75236012660049
  C   -6.58329104767467      0.03948341337482      4.49996904547744
  C   -6.93643952811689     -1.23429060675981      4.00058490007910
  C   -6.42575671130196     -1.66081167950873      2.76964515574377
  C   -5.57489597847337     -0.82244304886083      2.05348347628801
  C   -5.21653594024640      0.44150071971165      2.53029297936911
  H   -6.82923496970834     -1.33889044331021     10.52515701011919
  C   -7.76368491384575     -0.86384222850689     10.21977304128352
  C   -8.80410041551890     -0.70599023263014     11.14055642079999
  H   -8.65133104775065     -1.06920059877697     12.15943223967197
  C   -10.03693827897438     -0.11644438348860     10.79124169297459
  C   -10.20009533909949      0.32255646902945      9.45122959036581
  H   -11.14849755392401      0.78174221784207      9.15567250107875
  C   -9.17934772747011      0.17487848607894      8.52844399379544
  C   -7.95628047047838     -0.40975917032427      8.90926104853973
  C   -7.81663131374517     -2.04469082202114      4.83073843597198
  C   -8.25478837055766     -1.58219789760834      6.01177011929472
  C   -7.84449633464542     -0.25103869023320      6.59359168074410
  O   -7.03087348306128      0.50822077654630      5.67787878126207
  C   -9.07403043810159      0.63117635237714      7.07847312823564
  N   -7.08043810494318     -0.45658527760229      7.83032537204224
  C   -10.33926349033743      0.41096149198535      6.23988515276622
  H   -10.71864724034942     -0.61905230483882      6.30412782370177
  H   -10.15066547171445      0.64662144042790      5.18031713408119
  H   -11.14016160334759      1.08239672520042      6.58772365295270
  C   -8.70245763330456      2.13116837631436      7.05563868678996
  H   -7.75729724684059      2.31710998953982      7.58703676347101
  H   -9.49576407690506      2.70197700839660      7.56246074876092
  H   -8.60524186851086      2.50289260694242      6.02588515946377
  C   -5.86759645580737     -1.24197075698506      7.84640440265472
  O   -5.31436168311885      2.08616859271099      4.26042558296379
  C   -6.22253160542895      3.11624310509468      4.31104027491494
  N   -5.03455804580108     -1.27624472118421      0.76264069092085
  H   -6.68069429654602     -2.64015327311534      2.36422131847923
  H   -8.10640607881857     -3.03586786523328      4.47077889004954
  H   -8.90420000226332     -2.18577332196112      6.65029128197096
  C   -5.61240517981242      4.31013830839154      4.99229510267742
  H   -5.44614168617974      4.07109161330701      6.05496479168865
  H   -6.28953040446261      5.16834233121376      4.90683542651190
  H   -4.63180893395957      4.54438682019581      4.55189045958419
  O   -7.33374514280024      3.02869266047255      3.86863318305695
  O   -4.28096658171395     -0.52088013612710      0.16736196149072
  O   -5.37209450868810     -2.38148863764463      0.36564079752575
  H   -4.54857367502312      1.07929649804638      1.95316508807696
  H   -5.29303496824140     -1.04899757145383      6.92967566225704
  H   -6.04658378862248     -2.33250412958941      7.92705610011111
  H   -5.23901403949411     -0.93372519267215      8.69682450303360
  C   -11.14652580412652      0.06188955153393     11.73113926461940
  C   -11.15267970784014     -0.19570226443833     13.05937783610271
  H   -12.05726848537441      0.46679267234741     11.27599677412381
  C   -12.26657934256699     -0.01429120633490     13.99717076189755
  H   -10.23277815864392     -0.56928967911089     13.52244170938630
  C   -12.01048809904201     -0.20910628711903     15.38273296626249
  C   -13.04853012736894     -0.01853084130712     16.27307616932528
  C   -14.32840239328973      0.34871550914596     15.84999423150427
  C   -14.61651693975017      0.53349908994443     14.50707410817273
  C   -13.56828814902694      0.34707030811586     13.59101779756581
  H   -13.78113087646501      0.48434031020431     12.52921626817499
  H   -11.01834874706238     -0.49730504477971     15.73587824602978
  H   -15.62030120173832      0.80815302482973     14.17783921472294
  O   -13.04943822035557     -0.16634853160025     17.63281085932462
  O   -15.15592726141927      0.43954026090473     16.93309617370823
  C   -14.31584183318222      0.32100468564152     18.09257287440795
  C   -14.92005462355103     -0.61604329667160     19.11707310005411
  H   -14.16690705991901      1.33922282135984     18.51161549500787
  C   -16.25770057684491     -0.11787103743449     19.66437366817442
  H   -14.18145681031524     -0.73002685621050     19.92851508746408
  H   -15.02966963123078     -1.60371076509130     18.63888790260480
  H   -16.15098521663696      0.86189507956287     20.15958631546226
  H   -16.66392685028889     -0.82286855308921     20.40576387808870
  H   -16.99722042883147     -0.00810603661216     18.85636791812066
