110
Coordinates from ORCA-job 4084_0.0
  C   -3.54817906162265     -3.33388429704511      4.54357489180649
  C   -3.10559108459430     -2.03072815736033      4.86239362401629
  C   -1.99157512832869     -1.48704785197297      4.18235681349053
  C   -1.37118976073804     -2.22308798057660      3.16687732155471
  C   -1.85354135956858     -3.49082892322003      2.84891820812317
  C   -2.93387040362429     -4.05910824241307      3.53250522037516
  H   -4.45843981597301     -0.64196863715739     10.28698146007071
  C   -5.11330226566453     -0.23213804565407      9.51595537757439
  C   -6.47506948217590     -0.01451746885605      9.78526182730750
  H   -6.86565263708083     -0.25883410365881     10.77705694072888
  C   -7.33339988523613      0.49893723717388      8.81063622952981
  C   -6.83696596760404      0.81615033996657      7.53272149816049
  H   -7.50713007897118      1.21824595368055      6.76775616616743
  C   -5.49310204504794      0.60880019794115      7.25571460145997
  C   -4.63661414604711      0.08272155891011      8.24106773621064
  C   -1.51006402457449     -0.19451105928504      4.65053454948113
  C   -2.12992003045911      0.46971780976439      5.64111623058669
  C   -3.40327934292261     -0.00102767608266      6.28494165026183
  O   -3.74498159895611     -1.37286159679977      5.83246523791426
  C   -4.66872826710656      0.91686826163486      6.01333711575660
  N   -3.34077077650675     -0.05999342885657      7.72527121087268
  C   -5.35453577983086      0.61068021574090      4.67812261317878
  H   -6.20236755089359      1.29899432216732      4.53277977299319
  H   -5.73293047481243     -0.41712357026006      4.62114814753290
  H   -4.65910766315479      0.77335671200657      3.83795794094224
  C   -4.26570544181825      2.41051734050407      6.05432828170493
  H   -3.64871262922108      2.68636380241123      5.18426770184625
  H   -5.17518158412206      3.02945230462325      6.03065277797860
  H   -3.71497826416771      2.66119744410046      6.97393154282572
  C   -2.30022360835714     -0.79939750647157      8.42052598854767
  H   -3.28068817674588     -5.05973658359628      3.27817401401149
  O   -4.54459805572437     -3.92371059682438      5.29713642987677
  C   -5.84011680814617     -3.49120626108085      5.15555203022831
  N   -1.20163251890875     -4.26247240107712      1.78132129355060
  O   -0.26339319428832     -3.74021428535615      1.19736172252647
  O   -1.63619105324929     -5.37976700588500      1.54307249408875
  H   -0.51038174647869     -1.82679861704632      2.62787035717758
  C   -1.49627006298167      0.06935450115433      9.41182466213239
  H   -2.74286019151028     -1.66009654713784      8.95448716842050
  H   -1.61422405587455     -1.22367133715453      7.67155254606542
  H   -8.39048109205940      0.65486447239440      9.03911587044391
  O   -6.17695556849535     -2.70071470585839      4.31873551741123
  C   -6.72125447727678     -4.13752033817177      6.18851858732036
  H   -6.50998993973015     -3.67707091243335      7.16748851872391
  H   -6.50208140371314     -5.21183326925169      6.27202799991273
  H   -7.77376928128138     -3.97191230030080      5.92897675240315
  H   -0.60164975075895      0.21254207022815      4.19754611837692
  H   -1.73202918242377      1.41565613819898      6.01080593483607
  C   5.98791855071515     -5.34086549302278      8.75574199504306
  C   5.87337636716626     -5.05037532120992     10.13078099005528
  C   6.55209585166938     -3.93410121343641     10.66881150632900
  C   7.34199491743343     -3.13671425778211      9.83309356296237
  C   7.44451845629100     -3.45312753501075      8.48057450194703
  C   6.77542210105215     -4.54935545278059      7.92970413628902
  H   0.94792643460015     -5.40346392324263     13.92198695610952
  C   1.74863590370694     -6.05060034594098     14.28453048840276
  C   1.57313500890764     -6.80856354655616     15.45364259262908
  H   0.62452767065140     -6.73870371047784     15.99330442238455
  C   2.58641681037666     -7.63652602343266     15.94140162132774
  C   3.80558551834176     -7.73554396360894     15.24521395972944
  H   4.59447253192533     -8.39771433345052     15.61376574821697
  C   3.99412712464946     -6.99211882292456     14.08877191063951
  C   2.97115551309760     -6.14798444445813     13.61042642111037
  C   6.35481969799970     -3.66658947446502     12.08648716165352
  C   5.56742220842266     -4.46236075457225     12.82659132790410
  C   4.82824982003604     -5.66081882303175     12.27787226168996
  O   5.09691796789808     -5.85823910607357     10.87474486776894
  C   5.13815146665112     -6.99922381036312     13.08237317323126
  N   3.38089424798148     -5.50255231253411     12.44883495970403
  C   6.54146408708331     -7.02254475908827     13.70098063425730
  H   6.68735799812839     -6.23787613936503     14.45731328374728
  H   7.31453575842893     -6.90533910130882     12.92483472346970
  H   6.71657539713399     -7.99268438660522     14.19251331126566
  C   4.96756338165875     -8.22823659318656     12.16040026979377
  H   3.99357081507549     -8.21067746376996     11.64917111544638
  H   5.01133258497708     -9.14100511771762     12.77422113396810
  H   5.76096231576276     -8.27591180519464     11.40132182232007
  C   2.57770181111161     -4.54485929827379     11.71938559497761
  H   6.86749299791692     -4.77600207894661      6.86843829176659
  O   5.26675700617148     -6.38256843614585      8.20572777809243
  C   5.68304398726609     -7.66984596517657      8.44849813261676
  N   8.27383560190210     -2.61053900447625      7.60477736035866
  O   8.85001092778667     -1.66112167577848      8.11472635203302
  O   8.33399132827369     -2.91063436007307      6.42212913399754
  H   7.87487798891261     -2.26905189419872     10.22256990483373
  C   2.47108219195523     -3.12546655284002     12.33385278609853
  H   2.97227073481589     -4.47904656284060     10.69321149923557
  H   1.56291750337164     -4.96715221613143     11.62184862554427
  H   2.43355004988946     -8.20814422817781     16.85982805355691
  O   6.67440091840919     -7.92600334538671      9.07295018465784
  C   4.72275349450031     -8.65087326003457      7.83479037612718
  H   4.51221202417096     -8.38167084607606      6.78915173675829
  H   3.76762518846332     -8.60953622418439      8.38282248941352
  H   5.14084690203505     -9.66257418576250      7.89752607352235
  H   6.84843865830462     -2.79542088220471     12.52623472640755
  H   5.39439013018956     -4.26204813839124     13.88644760083247
  C   1.46302282717124     -2.26807486802127     11.60306176875935
  C   -0.46274878339820     -0.72299316120440     10.18062613560268
  H   -2.19856977415133      0.54900953699664     10.11314719395644
  H   -1.01130798394956      0.88327346611367      8.84863577155041
  C   -0.80063432520790     -1.38897206038507     11.36964194161612
  C   0.14270846112578     -2.14803273251590     12.06552379615534
  H   -0.14870474835298     -2.64494315906955     12.99619716931197
  H   -1.81678916818772     -1.30183386516862     11.76708865032014
  C   0.85681487424873     -0.84505052758890      9.71629179974147
  C   1.80175016610620     -1.60074967593130     10.41452392826399
  H   1.15479934949859     -0.32801619022329      8.79871952705142
  H   2.82599984404477     -1.66275803683393     10.03345293926710
  H   2.18527434443838     -3.21706110141470     13.39395626128045
  H   3.46276568217289     -2.64795741079914     12.31042886038867
