53
Coordinates from ORCA-job 4086_0.0
  C   -4.09934107574961      0.36775709721539      2.79986245763736
  C   -5.23580929816107      0.02354178817770      3.58211152720197
  C   -6.05908356398600     -1.07530111682573      3.23571464790620
  C   -5.73201238289542     -1.84236043658183      2.10684934795076
  C   -4.61432977416148     -1.50839674522102      1.35472514771671
  C   -3.80450650545606     -0.41942527131113      1.68488085095551
  H   -6.32875663759597     -1.86852698570539      9.63643784713541
  C   -7.11597293116701     -1.14486635405757      9.42116057018482
  C   -8.14201460385511     -0.93429794187774     10.34465398808238
  H   -8.17548991039437     -1.48271091495719     11.28618190758017
  C   -9.15640620688416     -0.01370767262469     10.06995441320606
  C   -9.17504775015646      0.73292988473665      8.87641035067059
  H   -9.98271553785551      1.44725661045228      8.71361496960721
  C   -8.16183428897502      0.52609312248020      7.96165600074887
  C   -7.13407988019128     -0.41249682015276      8.22160788681477
  C   -7.23375968750653     -1.42997134451600      4.02488070836532
  C   -7.61035577788072     -0.86481273133365      5.18472149670871
  C   -6.87069852022041      0.18154915296935      5.97966171804397
  S   -5.60171322776789      1.07283861893397      4.95815642934274
  C   -7.84965730377883      1.24642353729824      6.65509725081268
  N   -6.25907239473980     -0.47721946464459      7.15950048918288
  C   -9.06985733066759      1.58016963994651      5.78989948138609
  H   -9.70875820431409      0.70673215594613      5.59934471162927
  H   -8.75357914591390      1.99460636253990      4.81952140995469
  H   -9.68697812925058      2.34142372903900      6.29261231406590
  C   -7.11430045926161      2.55990965405715      7.02048297288750
  H   -6.18416070165082      2.36566342894235      7.57567020607158
  H   -7.76834355688164      3.16867333805638      7.66303171528040
  H   -6.87421501857946      3.15242573142884      6.12460480712159
  C   -5.20076161690575     -1.47216916789118      7.04987449240560
  N   -4.27190232869813     -2.32390453886956      0.17487507134006
  O   -4.99773854723714     -3.27072668556389     -0.08809689816988
  O   -3.28240208081349     -2.00422679113603     -0.46647041518135
  H   -6.34287146590397     -2.69613187508206      1.81253811060392
  N   -10.22817812311813      0.18428555696392     11.04780614223067
  O   -10.18626986331600     -0.46476750126239     12.08453330498070
  O   -11.10677542671975      0.99176999623597     10.77154561388721
  C   -3.90981237831696     -1.05971880134101      7.75982244092110
  H   -5.00165897368892     -1.63650979709747      5.98101775664454
  H   -5.56480598909500     -2.43913087651542      7.44354366214702
  H   -3.51077642542228     -0.12939246510924      7.32738452763904
  H   -3.14716816636455     -1.84837139546763      7.65463592189751
  H   -4.07532027530132     -0.88988702937162      8.83543516499604
  H   -2.94521845225333     -0.20739669327127      1.05186766958401
  C   -3.24354573791189      1.56295126695882      3.17472359886578
  C   -2.01810866826509      1.82500425078743      2.30044310383659
  H   -2.92654949806553      1.44299112437727      4.22692013082383
  H   -3.88720698074136      2.46256081403828      3.17870848771126
  H   -1.31759442106607      0.97462079633782      2.31001599397530
  H   -1.47310372793761      2.70667356627659      2.67102260895678
  H   -2.29293893133550      2.02387472380581      1.25235895765020
  H   -7.84565168484671     -2.24502021553809      3.62630363397812
  H   -8.49918043077674     -1.25573831467575      5.69030329402353
