65
Coordinates from ORCA-job 4094_0.0
  C   11.89133935856280      0.63101060321228      7.99542005912870
  C   12.75069549935092     -0.06402511028517      7.13267926748424
  C   12.18272990551186     -0.97740129345045      6.23248929998019
  C   10.50030884914110      0.44846587810429      7.99872926208261
  C   9.96901633216846     -0.48926826085554      7.09028491594802
  C   10.80566607998505     -1.18898844911477      6.21418844442104
  H   12.82207985612079     -1.52834083461364      5.53711534091785
  C   9.63352159516592      1.23225317069000      8.95099674790946
  H   10.36898323334009     -1.89703232046895      5.50771133218911
  C   14.24349918519457      0.15405280564255      7.18887201615907
  N   8.55489334708583     -0.72701925175795      7.02446848164744
  C   7.80763866007033     -1.29389497191680      8.06871681500124
  C   7.79874556785952     -0.52752636114559      5.85327549165382
  C   6.35515106436074     -1.40697063270409      7.61193897766299
  C   6.34415148975853     -0.89255432445039      6.15053312185611
  O   8.25667928374550     -1.63900725933886      9.13431875708370
  O   8.24983122717249     -0.14919598926910      4.80085998595037
  C   5.35500418384634     -0.45054186373102      8.37750347025083
  H   6.04661287518622     -2.45528429017919      7.72961686031218
  C   5.33107114122502      0.33245465312849      6.16119939564973
  H   6.02536402794411     -1.63160642338019      5.40173449522473
  C   3.97103087226405     -0.74010137743499      7.77642807904419
  C   3.95731886805459     -0.29018987865215      6.49019713661323
  C   5.64092591875161      0.84258251835140      7.58292170185846
  O   6.02889721024027      1.90766631098127      7.97750687020074
  C   2.90738895212929     -1.46848877085277      8.50471018847176
  C   2.89829373126923     -0.48774613169240      5.46093249054650
  C   3.20003439582617     -2.65715628904201      9.20492285272769
  C   1.57903278774213     -1.00190985690603      8.52361473607794
  C   2.20023192297275     -3.36011018210573      9.87977221054536
  C   0.88451812669554     -2.88625211339035      9.88113114765389
  C   0.57965153445471     -1.70310198117051      9.20237464210860
  H   1.33079065642672     -0.07119645482615      8.01255724225643
  H   4.21988988460060     -3.04798019269789      9.21090325051546
  H   2.45146830943988     -4.28382978761361     10.40789338664077
  H   -0.44349835692514     -1.31776333806298      9.20403203343531
  C   2.96599043572090     -1.59410881721357      4.59302245174925
  C   1.82641383609479      0.41000599063178      5.30750844840435
  C   0.85559591878830      0.20913086176665      4.32208619168324
  C   0.93815396342102     -0.89334009330735      3.46676005506267
  C   1.99650425799185     -1.79555508174057      3.60660090088713
  H   3.77998606494292     -2.31544789575456      4.70100167274686
  H   1.75172866862992      1.27614814626010      5.96947831678984
  H   0.02952658734782      0.91856793908355      4.22398720796794
  H   2.06723287516353     -2.66578169750447      2.94857154944010
  H   12.31779981803142      1.35781286378246      8.69404963233987
  H   14.72897232148886     -0.12176040309356      6.24024747523672
  H   14.70356382151601     -0.45973568081176      7.98371322127727
  H   14.49107386986775      1.20477811701927      7.40762531880587
  H   8.71586008969660      1.60433236223797      8.46954680606102
  H   10.18030765737092      2.09650351091253      9.35516432988662
  H   9.31912325168312      0.59803227014722      9.79624175380969
  C   5.49155950882735     -0.34152761986265      9.88591674383932
  H   6.42012393909718      0.18461823215504     10.14770547536886
  H   5.51733114493519     -1.32498664944201     10.37471789167297
  H   4.64946486591198      0.23086170598457     10.30343999727117
  C   5.43075075085467      1.29861229044530      4.98108491255211
  C   4.69803611682934      2.63319152296386      5.16152841718758
  H   5.05666295895607      0.78030928179800      4.08111945072176
  H   6.49326678952814      1.49858010435103      4.78148688911040
  H   3.61746476503570      2.50015991491413      5.32020185717588
  H   4.82047091575897      3.25311156254281      4.25912477212614
  H   5.10308951748555      3.19379858543230      6.01594565395313
  H   0.10229866952044     -3.43428802922214     10.41296244177656
  H   0.17897904276470     -1.05076524347697      2.69611965788538
