68
Coordinates from ORCA-job 4095_0.0
  C   11.41220493619276     -0.69040788191005      7.74337780436631
  C   11.31131131363932     -1.80936046742541      6.89996519330832
  C   10.07938045594394     -2.09718752688540      6.29083913898470
  C   10.31020847708432      0.12899222473390      7.94668161421237
  C   9.06233393673782     -0.14947560718168      7.35224333048649
  C   8.97503165904010     -1.27768183111594      6.53551038932626
  H   9.96222839151210     -2.96029513451366      5.63573199325435
  N   10.52327240504900      1.32192887940006      8.79886996934049
  H   8.01087443165938     -1.52101262543509      6.08571995430788
  O   12.43702123095075     -2.53557309767388      6.74393151366326
  N   7.90498338356166      0.64557108272704      7.57432186598368
  C   7.29499450375192      0.76845336197108      8.83276815898996
  C   7.35530889171436      1.49230784844701      6.59461813822674
  C   6.15387482365117      1.75702274393086      8.69808914408427
  C   6.21783998015900      2.26494879565261      7.24137017237766
  O   7.65389612385569      0.17686906706739      9.82231858663349
  O   7.74728446293348      1.56410410109300      5.45615772578934
  C   4.68711343499721      1.20043193374222      8.86273629930279
  H   6.31410285930527      2.55116912733604      9.44398442834046
  C   4.76850331515221      2.03441994930547      6.65921168038551
  H   6.46490949374683      3.33581657277368      7.16963231677151
  C   4.45527487911492      0.03032061348057      7.88406386025696
  C   4.48205543401179      0.52009588126246      6.60542608385096
  C   4.00915676068899      2.29197919769390      7.98746184717974
  O   3.17349129548239      3.10223633647903      8.26990114667796
  C   4.25608038355688     -1.37713129346897      8.32718266230545
  C   4.27270785869531     -0.22261803768072      5.32663431601423
  C   5.17454389446085     -1.99316074597297      9.20321040935813
  C   3.14103842557530     -2.13247741901928      7.91193366058247
  C   4.99656992142780     -3.31521689767104      9.61930075628517
  C   3.89196416021430     -4.05317469625402      9.18565225102691
  C   2.96219536930647     -3.45240700794731      8.33294340994611
  H   2.38979509264275     -1.67576934927398      7.27019875992834
  H   6.04504701826327     -1.44547702411062      9.56462552829980
  H   5.73028785404338     -3.76740312231742     10.29206049045223
  H   2.08407012579312     -4.01017414109328      7.99631961748166
  C   5.33969790587982     -0.49745552326444      4.44971772910668
  C   2.98226689486170     -0.63297984398479      4.93917657919550
  C   2.76781296064764     -1.31938635916447      3.74136017835003
  C   3.84243490104832     -1.60873573072670      2.89608643125683
  C   5.12645356763539     -1.18988688865149      3.25359122983289
  H   6.34620245213038     -0.15241847914686      4.68832349698131
  H   2.12985674661887     -0.39007657312814      5.57722047497911
  H   1.75431793994494     -1.62418579073794      3.46681038191559
  H   5.97398122455898     -1.39429487101048      2.59378515863462
  H   12.35753793120163     -0.46210222599539      8.23379280031989
  C   4.21701084800997      1.09086126737285     10.31241620046747
  C   4.44523701271531      2.91590089071782      5.45301302716794
  C   2.97185660110121      2.98287480993843      5.03808606907201
  H   5.06936610297336      2.58568698271975      4.60595404965488
  H   4.78977491241731      3.93627061518545      5.69561637386554
  H   2.58872105508699      2.00461954072548      4.71393156746905
  H   2.85192933393016      3.67639830958357      4.19033655845742
  H   2.34269372182316      3.34649128724609      5.86357384454049
  H   3.75179729185995     -5.08560097608693      9.51702403126684
  H   3.67780827202801     -2.14732070066182      1.95904835458340
  C   12.42223887536593     -3.67424893211631      5.90567129003562
  H   13.43744614098264     -4.09136800526075      5.93163557398709
  H   12.16870166440011     -3.40966958572933      4.86355927286365
  H   11.71051102108083     -4.43773486468997      6.26723425775154
  O   11.41422072933187      1.26476351904813      9.62588981093637
  O   9.81606694019584      2.29822068640066      8.59870744560586
  C   2.73859853256972      0.73583953195955     10.50083288942136
  H   4.41275196534379      2.06836153708129     10.78714197661989
  H   4.85651410483018      0.36822457515144     10.84439134721253
  H   2.08795142101477      1.47397991918569     10.00846825714263
  H   2.48516930009075      0.72770744373831     11.57295559684651
  H   2.50084464440417     -0.26014937584428     10.09861352667692
