78
Coordinates from ORCA-job 4099_0.0
  N   -9.90710287000759     -8.01304661359075     11.92711600861274
  C   -11.23617541568495     -8.63091132975374     12.02248277051095
  C   -11.93162249233636     -8.37756803766746     10.66096570318325
  H   -11.81964313927887     -8.18695414561607     12.84621659379625
  H   -11.18289197721779     -9.72079243141780     12.20242998900948
  C   -9.58587796941246     -7.85540164314235     10.51255658543347
  C   -10.93285247163026     -7.43148538822621      9.91560587346560
  H   -9.22022545212724     -8.79414043445450     10.04456477213480
  H   -8.82159872654868     -7.07939057136626     10.35518732854870
  C   -11.04863378966751     -7.36097427843022      8.40909526045103
  H   -11.14513947367153     -6.42864321937615     10.31898855272257
  H   -12.90325363147748     -7.88155465578145     10.78887940744785
  N   -12.22598148512209     -9.61694030971215      9.94789722864121
  C   -11.72061969586462     -6.27337571827126      7.82527034975128
  C   -10.51318221897381     -8.35668282426128      7.57481200177818
  C   -10.66129841966957     -8.24442407993596      6.19407953831527
  C   -11.32475124931757     -7.17633719671404      5.59388147647632
  C   -11.84744866089867     -6.20173794994808      6.43971414959530
  H   -12.14190515866500     -5.47142347346744      8.43522073251019
  H   -9.99033855315306     -9.22654046112403      7.97292327424688
  H   -11.42785825778183     -7.10556330780127      4.51060602297607
  F   -12.48908308151806     -5.15703976963510      5.89920189358507
  F   -10.14570949987928     -9.19899516934283      5.41034109111015
  N   -11.31712809039977    -10.62524172545046      9.87161359514303
  N   -11.78270131607973    -11.58331739352972      9.14980635871660
  C   -13.33709254856503     -9.94427069602554      9.21862927785397
  C   -13.03737262523101    -11.22720894991333      8.70995564056209
  C   -14.56214404198195     -9.31436598247972      8.93667727442185
  C   -15.45806720144588    -10.01692602651993      8.14443954612956
  C   -15.18154688391548    -11.31807136536212      7.61940685828936
  C   -13.95643232302049    -11.92377663959735      7.90800026271466
  H   -13.71161630717291    -12.92416729799221      7.54760621325334
  H   -14.80285059663504     -8.31447525847166      9.30274062505975
  H   -16.40772786094497     -9.54319947443918      7.88634920930617
  C   -16.19210247429781    -12.00852557530900      6.77431763624279
  C   -17.57186783285985    -11.88620918914004      7.03174473699708
  C   -18.51568714551062    -12.53871049935877      6.24351046672059
  C   -18.12526940646807    -13.34149529686536      5.15609353347946
  C   -16.74825987404784    -13.46654330924686      4.89627734440026
  C   -15.80421442286161    -12.81501771275682      5.68696406129159
  H   -17.91229439328851    -11.29016357746228      7.88196732384020
  H   -19.58036598714585    -12.44513528709869      6.46030202872321
  H   -16.39463219716765    -14.07625981034490      4.06302760823186
  H   -14.74483324729025    -12.91544262982133      5.43999185112418
  C   -19.15874593834642    -14.02121536386062      4.32877401957706
  N   -20.43368588332451    -13.89551726845042      4.71921298865570
  C   -21.38107052566860    -14.49779217498613      3.98792541687944
  N   -21.18447947602706    -15.21970796887284      2.87513824081664
  C   -18.84670981342251    -14.77126005951177      3.17678559451303
  C   -19.91480198747282    -15.34598045686471      2.49123865483091
  H   -17.82721764140940    -14.90043628888299      2.81743282005912
  H   -19.73664673066348    -15.93577867519165      1.58371816773435
  N   -22.67422189201495    -14.33337502973771      4.43873558681286
  C   -23.79795321973762    -15.03861356640785      3.98686419630816
  H   -22.73654466357072    -13.88205965789570      5.34499529084968
  C   -24.58917567542144    -15.97490153683045      4.63847049522472
  C   -25.61839424459455    -16.28171647896030      3.71205002748386
  N   -25.45957590031938    -15.58787439826829      2.58444118507824
  N   -24.36968355933055    -14.82342681672149      2.76463422622403
  C   -26.76275018705539    -17.23688456991963      3.86816967666164
  H   -27.37414409806442    -17.23338536445431      2.95444713360046
  H   -27.40826150268061    -16.96211516873231      4.71943079682159
  H   -26.40999934027671    -18.26702425062744      4.04483865900193
  C   -23.90109128189037    -13.96156761622644      1.70114317007252
  H   -24.76524860789601    -13.69550320796113      1.07930487702833
  H   -23.13753539878655    -14.46780396410045      1.09068554151490
  H   -23.45877771972811    -13.05155212195944      2.13171008059794
  H   -24.43018933554211    -16.37957646814607      5.63589526385971
  C   -8.87936397880446     -8.60594485126379     12.78639407710542
  C   -9.31236635860416     -8.55526547702963     14.25697538255024
  H   -9.48864202005223     -7.51224528374040     14.56882775850039
  H   -8.52686468568204     -8.98186646705536     14.90011754413701
  H   -10.23281250443001     -9.12900936589578     14.44362886507151
  C   -7.53370948682027     -7.89339943292772     12.61245494351800
  H   -8.73471515715142     -9.67873708059177     12.51108524624205
  H   -6.79529979687935     -8.30512789958678     13.31779577408423
  H   -7.64004503079389     -6.81461292360108     12.81538815255504
  H   -7.12039589129978     -8.01516603851317     11.60004208922327
