40
Coordinates from ORCA-job 40_0.0
  C   -0.72130475469771      1.90305858687454      0.88805744021891
  C   -1.36637406577087      0.57558525324174      0.30641664621571
  C   -1.14921573740824      0.59264634059134     -1.20752349837583
  C   0.77866923950411      1.62614687074193      0.68473854619451
  C   0.72647488632090      0.19025036119070      0.01863215521954
  C   0.15518656442528      0.35101340576050     -1.38493670092133
  H   -1.90911680461756      0.83843066216790     -1.94944175534554
  H   0.73208586108928      0.35479577800948     -2.31042503005283
  C   -1.00603040995213      3.18184991343009      0.12057281347426
  H   -1.01751055556564      2.02228141470963      1.94081402323216
  N   0.19768541434754      3.62099656479484     -0.43606450378211
  C   1.28455467761036      2.77177697860383     -0.17961578034523
  H   1.35829535045138      1.57876755790042      1.61756485455109
  O   -2.07028181438245      3.73893571190366     -0.02062522299365
  O   2.40306884298592      2.94733699889229     -0.59872511696056
  O   -0.37559860404769     -0.36821052326476      0.73286885536240
  H   1.63427045834171     -0.41099992164878      0.14211134529536
  C   -2.74330642712582      0.28074534815457      0.84340685788764
  O   -3.26792290463943     -0.86127774586564      0.16761410950921
  H   -3.39525999602717      1.15538635452352      0.68033267494964
  H   -2.69703840827350      0.09363544980411      1.92771680390302
  C   -4.42380531621883     -1.37206187571691      0.65220701129074
  C   -4.85182773353962     -2.58313256910726     -0.13862815452276
  H   -4.98478862206265     -2.31386302559298     -1.19804644883987
  H   -5.78995836422182     -2.97677078724741      0.27068682394289
  H   -4.06640314725959     -3.35379342366343     -0.09586442745352
  O   -5.00598009595956     -0.89812328339712      1.59458953166695
  O   0.37761489552345      8.61788266127487      0.36167044213887
  H   -0.42207442706183      9.39331602482496     -2.54187133564295
  C   0.47334970379368      9.46637507762503     -1.90444576126448
  H   0.52400320951189     10.46097271085900     -1.44529988327718
  C   0.41889036037740      8.41397858508561     -0.82486573814619
  H   1.34799777641205      9.30026895615847     -2.55200654194359
  O   0.41681482695743      7.16994814233308     -1.35840488263453
  C   0.29067423246445      4.80656866485424     -1.27263536883584
  C   0.34574128186725      6.08084366962910     -0.43552906024395
  H   -0.58893555945656      4.83963973492585     -1.93274030695287
  H   1.20074430890990      4.71182240040593     -1.88140877623324
  H   1.22794828604992      6.08862343526248      0.22553725159658
  H   -0.55211642865515      6.18074354097041      0.19433610811855
