106
Coordinates from ORCA-job 4101_0.0
  H   10.50390482706688     -8.12656725732991      3.87397971358078
  C   4.67332676831257     -9.38232392357965      3.60821208079659
  H   8.10591509970367     -8.12688406320249      4.61444014495221
  N   3.92594159172483     -9.29562176124847      2.49889768248868
  C   9.83774798603983     -7.31392455106887      3.57271358106252
  N   5.40383187681419     -8.36703264506168      4.09073858662725
  C   8.49882095906035     -7.32084641868509      3.99262448945345
  C   10.32636395176822     -6.27537888915530      2.77061888726412
  H   11.37127972600545     -6.28714785482371      2.44842772651518
  C   3.94450114967494     -8.12215923740548      1.85808165399361
  C   5.34653271058922     -7.22890315162048      3.39901534795544
  C   7.67515460189007     -6.27358162195054      3.59497664150780
  N   4.64752991057146     -7.05780664809678      2.28211854360387
  C   3.14586661460194     -7.97611349680744      0.61480528555433
  C   6.19320119127069     -6.05074469849768      3.92003789713149
  C   9.49375308916464     -5.21932615162870      2.37721537322261
  C   8.16165545557857     -5.21780050141767      2.79772463472019
  H   9.88582076906378     -4.40954709932691      1.75645604638052
  C   5.91503092945025     -4.71551372561170      3.22862297453948
  C   7.07309644849875     -4.25029000723921      2.57708464388683
  C   4.74363456873220     -3.96616455127228      3.18809563568603
  H   3.84796442517073     -4.32182566856345      3.69783148752537
  C   7.06051070260142     -3.04165407172650      1.87666633913940
  H   7.96076331780972     -2.68855872935847      1.36472109259087
  C   4.73965771256120     -2.75060971257411      2.49143958423613
  C   5.88554833799667     -2.27275920072606      1.82902980275901
  H   3.82059315473529     -2.15723555579906      2.45800364750725
  O   6.12731935891939     -5.98474248928959      5.33849267895779
  C   3.15333811419301     -6.75885173134966     -0.09059907032095
  C   2.40221488632895     -6.61861469077657     -1.25814280236503
  C   1.63515667719511     -7.68822825445915     -1.73381339013148
  C   1.62294345963575     -8.90207317053554     -1.03690268824193
  C   2.37402928303147     -9.04713353797051      0.12987711291143
  H   3.75570149678095     -5.93433810957481      0.29370271780334
  H   2.41496613195485     -5.66984908490268     -1.80126410261593
  H   1.04692500994035     -7.57647839838445     -2.64891919839615
  H   1.02449181709813     -9.73920865763794     -1.40613476522096
  H   2.37371185314055     -9.98732509930631      0.68272136713800
  C   4.69699949927296    -10.67440553104176      4.34219048401380
  C   3.94259119463422    -11.76919505963132      3.88365432847854
  C   5.47760045733946    -10.81736447873493      5.50390978964699
  C   5.50388291256917    -12.03356261719191      6.18834135419881
  C   4.75021935403403    -13.11843830135473      5.72591411002279
  C   3.96900878925058    -12.98226740033391      4.57276453369491
  H   3.34028535330184    -11.65068538815373      2.98221823543370
  H   4.77130267895197    -14.06995604469017      6.26442361964422
  H   3.37805716043718    -13.82698798815752      4.20879755858009
  H   6.05440984861122     -9.96206792250373      5.85895789607529
  H   6.11597279646275    -12.13640638150951      7.08842248944874
  C   5.85986212004909     -0.94525793700063      1.10833611769194
  H   4.87103773570439     -0.74234298462191      0.66775414683024
  H   6.60771997504165     -0.90691450332666      0.30115291158253
  H   6.08330267974360     -0.11312025474689      1.79978638607893
  H   6.06694181961348     -0.84569340938331      6.99108344405594
  C   1.11727671693350     -4.49430285790424      6.68279336108556
  H   4.64260243761349     -2.68351344777036      6.05492910762355
  N   0.60958605405163     -4.73604941168870      7.89743452590935
  C   6.13184756615031     -1.85410932510030      7.40807835881405
  N   2.40536781726855     -4.70828807229894      6.35913391074104
  C   5.33082991491855     -2.87846228794150      6.88025289480286
  C   7.01345711498756     -2.11428033765615      8.46450576952121
  H   7.62802305361432     -1.30449005380934      8.86737562959793
  C   1.45606241549537     -5.21898630238451      8.81512209466200
  C   3.16981598469114     -5.20085932072311      7.33233719182732
  C   5.44086102444258     -4.15305423219389      7.42294369330679
  N   2.74962548498784     -5.47078313424256      8.56465463516864
  C   0.94538326321395     -5.50094905714870     10.17978953448909
  C   4.66662100393382     -5.42622519334128      7.04553105308172
  C   7.12098824331080     -3.40075060650640      9.00943682379095
  C   6.33206510021545     -4.42502690117110      8.48018733540949
  H   7.81571504403528     -3.59552822619373      9.83074689084093
  C   5.29785438033735     -6.46258229051713      7.97267736780123
  C   6.24771820315194     -5.85867681326830      8.81514862209431
  C   5.05308584053049     -7.82666839954416      8.04659396771478
  H   4.33104673946084     -8.30308907922078      7.37925158834705
  C   6.94280967215306     -6.62100721069348      9.75594351888408
  H   7.68254272126904     -6.15188918766350     10.41168545950545
  C   5.75619731448467     -8.58767240059413      8.99057377685910
  C   6.69825972281374     -8.00230081192618      9.85604542365674
  H   5.56699200022055     -9.66309373223511      9.05818617801018
  O   4.71855439825438     -5.77335369487184      5.66961356952623
  C   1.80730312449634     -6.02736682804201     11.15913458888860
  C   1.33071059211817     -6.29768159222680     12.44208937728869
  C   -0.00790403487844     -6.04451039122616     12.76284717608538
  C   -0.87073675673985     -5.52003388656476     11.79338040495520
  C   -0.39880217192374     -5.25000430547134     10.50843916419367
  H   2.84780881503948     -6.21924528384848     10.89333626570685
  H   2.00762862321647     -6.70922638241293     13.19546195923233
  H   -0.37977245142141     -6.25657570089173     13.76914664083454
  H   -1.91679933105657     -5.32139649475540     12.04128404661239
  H   -1.06079060260947     -4.84339587689910      9.74286749183782
  C   0.20598134262390     -3.96070865294115      5.63760930048194
  C   -1.14358582661178     -3.70037839153247      5.93774731506795
  C   0.67625772685451     -3.71428921722709      4.33536409274742
  C   -0.18489712216961     -3.21835100550444      3.35585335895444
  C   -1.52538220468981     -2.96062833236254      3.66345758102407
  C   -2.00178401861287     -3.20261951531837      4.95700232891046
  H   -1.50301948753594     -3.89512481982379      6.94865719121836
  H   -2.19935818474612     -2.57284786753371      2.89462323018864
  H   -3.04856217274337     -3.00322827425733      5.20120546343193
  H   1.72102217876032     -3.92102557741146      4.10514323680031
  H   0.19067894156363     -3.03569226443590      2.34562933115170
  C   7.41887701827047     -8.83586461778425     10.88968111506482
  H   6.89481090090219     -8.80592115791482     11.86185710808265
  H   8.44288437647450     -8.46926092862545     11.06341895176714
  H   7.48176115318218     -9.89230962602719     10.58620620672061
