103
Coordinates from ORCA-job 4102_0.0
  C   3.23127593026261     -0.28580180303774      1.49154550104568
  C   3.43077175554122     -1.59753608512519      0.75550845037107
  O   2.16453179704462     -2.30066493391488      0.71068876197746
  C   1.02116673456794     -1.61463383937549      0.44705713161083
  C   0.88291017019405     -0.27081656100326      0.79888554371904
  C   2.03356461805018      0.32435370640917      1.48268704723320
  C   -0.35705444453139      0.37847349142402      0.50930692423954
  C   -1.40861473755877     -0.30831610457337     -0.09822158505742
  C   -1.30197012158480     -1.71283168811653     -0.38242388731032
  C   -0.05313908918312     -2.37323307620447     -0.11273927077755
  C   0.10348684807518     -3.75283720124394     -0.38534879550948
  C   -0.94331943947299     -4.50245115951354     -0.89987497045803
  H   1.91522165201899      1.26325918554823      2.02210755743354
  H   4.08363587196904      0.13764281887126      2.02711930213049
  C   4.37776722107255     -2.48855408329309      1.57587801423498
  C   3.88072444058333     -3.45248764574003      2.46492630275030
  H   2.80408532699506     -3.60852118435544      2.53470982780774
  C   4.74906858747190     -4.20859017480850      3.25239596950390
  H   4.35768973509636     -4.95998029038364      3.93910188994934
  C   6.13843549171510     -4.01429978136811      3.17991032011048
  C   7.06234999319657     -4.81346590060409      4.02398795416450
  C   6.63566235777591     -3.04507256365774      2.29079119953748
  H   7.71353424801600     -2.89247677503736      2.22698140182900
  C   5.76722917093378     -2.29625819019208      1.49976369014073
  H   6.17608119015272     -1.55796272609615      0.80582239249685
  C   3.93759978033025     -1.41633692432819     -0.68726570099352
  C   4.29472557077647     -0.16822182409000     -1.21952320942995
  C   4.75458367695586     -0.04800451563399     -2.52947294425979
  H   5.03305986366854      0.92274163000528     -2.94540235617083
  C   4.85899236835326     -1.18135759727366     -3.35177789083839
  C   4.49676356748684     -2.43749662755172     -2.83490131696501
  H   4.56112189276542     -3.33761955837777     -3.44705120416603
  C   4.04747491767988     -2.54081393287030     -1.51658127630724
  H   3.77176915031079     -3.52411673802166     -1.12743846105095
  C   -2.18806501258462     -3.87161031358137     -1.14990111637669
  C   -2.34858043574735     -2.52043947593278     -0.89771095447662
  H   1.05592399312454     -4.24152356150664     -0.18392273054716
  C   -1.72653759872618     -6.63814952441985     -1.64414467464840
  O   -0.70120509088058     -5.82089569708783     -1.12885579893254
  C   -0.73050612766073      1.84283258871881      0.77999204390061
  C   -2.12948017145215      1.91091212074582      0.16268628867964
  C   -2.51025796457925      0.64295666252816     -0.34476194961985
  C   -2.99805870589052      2.99806830542334      0.05051371374781
  C   -4.24305608757559      2.84027796332498     -0.57510104001873
  C   -4.61285994627013      1.59735544825110     -1.09149508151753
  C   -3.75295034928388      0.49933607261693     -0.98214837414745
  H   -2.72581939672787      3.98035835829044      0.43533341086814
  H   -4.91792192786657      3.69579749317990     -0.66358250044152
  H   -5.57805393102563      1.47690083367563     -1.59099501656176
  H   -4.06694225996054     -0.44774689761690     -1.41672298735170
  H   4.20805584090643      0.72956280278661     -0.60393503581197
  O   5.31113270049529     -0.96962355521932     -4.61354214317265
  C   5.43611077592909     -2.06123308760833     -5.49698004766897
  H   5.80904477661245     -1.65407087627549     -6.44692343143187
  H   4.46561087804649     -2.55833395425762     -5.67818233951520
  H   6.15578103951939     -2.81323609579172     -5.12444374636160
  H   -1.30094121528633     -7.64610557224335     -1.74667469785018
  H   -2.07134713443999     -6.29641434805833     -2.63766885430349
  H   -2.59820728627345     -6.68980291749241     -0.96573461916303
  H   -3.32632789272683     -2.08466556006594     -1.08457426082009
  H   -3.03392395736756     -4.43993688480838     -1.53809406439262
  C   -0.78783083655725      2.11321383195691      2.32134828840986
  C   -0.91792143502788      3.59386285528595      2.70355253507685
  H   0.13029727143026      1.72135002092335      2.78610084047208
  H   -1.61618444590992      1.52605498826959      2.74977221986730
  C   0.16292022189545      4.45069794454962      2.03230344181283
  H   -0.85175537030559      3.68744764564634      3.80115093942971
  H   -1.91688426342926      3.97274892048254      2.43015122471518
  C   0.14139061662750      4.28883777615446      0.50694287568745
  H   1.15598066748478      4.14845345258610      2.41661842639946
  H   0.03771650039305      5.51199002603412      2.30701326511376
  C   0.26956800568542      2.81832639859686      0.08287901778487
  H   0.96611348893560      4.86411093265570      0.05213068418463
  H   -0.78562710560709      4.72709286143667      0.10126654666054
  H   1.29505774992116      2.48767311839358      0.31252329396260
  H   0.15773827305355      2.71908067542507     -1.00918393401452
  N   6.53389902032802     -5.70598091833255      4.87236264519520
  C   7.39995512281614     -6.40377419662600      5.61821086551243
  N   8.72928532480970     -6.25180669968966      5.54945614669743
  C   9.17901156296464     -5.34108148933951      4.67611918016411
  N   8.37951074985042     -4.60140115869072      3.89691260163349
  C   10.64840340043748     -5.14023655706056      4.56607602150095
  C   11.53145879875612     -5.88862988873099      5.36485251584016
  C   12.90992125939185     -5.69945363914488      5.26055310565344
  C   13.42404039500103     -4.76153772690883      4.35792854359787
  C   12.55216512774781     -4.01261002979393      3.55941840229132
  C   11.17323991669420     -4.19970348476953      3.66171116041863
  C   6.85639308452853     -7.40228967953630      6.57668769639228
  C   7.72369447797491     -8.16926331647216      7.37515380618557
  C   5.46814202961751     -7.59177483368225      6.69804511317963
  C   4.95985582367773     -8.52778223283854      7.59941010592925
  C   5.82986967588493     -9.28701018173918      8.39018358441537
  C   7.21276759482732     -9.10505535163247      8.27523203660514
  H   7.89584946648509     -9.69620149692047      8.89112660788367
  H   8.79907713295936     -8.01743474952433      7.27621161255782
  H   5.43006607335357    -10.02029805263772      9.09607930170835
  H   11.11735290225168     -6.61588091142459      6.06403006952095
  H   12.95037940693575     -3.27901411635916      2.85337112534299
  H   10.48271344792817     -3.62311273756653      3.04521144494654
  H   13.58800919173512     -6.28611677226947      5.88615736630697
  H   14.50454502259965     -4.61391596683112      4.27681255986694
  H   3.87897435373083     -8.66684060034258      7.68668916814335
  H   4.80078668908525     -6.99386633357422      6.07648524189127
