78
Coordinates from ORCA-job 4103_0.0
  C   3.20469073775847      0.01127836081839      1.46359390551996
  C   3.48942676972710     -1.33891521381019      0.83364912751628
  O   2.25477598368767     -2.09931125702292      0.76494559074062
  C   1.09150826508835     -1.48311807994770      0.43771074463979
  C   0.87722410063651     -0.13512246555464      0.72990022059146
  C   1.97972308295145      0.55965066626864      1.39579483029715
  C   -0.38820534854392      0.43163720485284      0.40168964566902
  C   -1.39391512605613     -0.32635614858448     -0.20274825293154
  C   -1.19643972894986     -1.72405573815659     -0.46703346000370
  C   0.07617895555219     -2.30954595503107     -0.13866036265209
  C   0.31788515176535     -3.68199995725145     -0.38164568203940
  C   -0.66388966632354     -4.49423462083550     -0.92920471020874
  H   1.80194343805480      1.52731289691109      1.86457939329188
  H   4.02568553955612      0.51509366181395      1.97826930806890
  C   4.42819048902105     -2.12967252488629      1.75800552049602
  C   3.96222597671918     -3.12575464786755      2.59277243997766
  H   2.90453374410885     -3.39217387505250      2.57564045364853
  C   4.83539707773174     -3.81695598540302      3.48111123106171
  C   6.22447159026933     -3.46057246042498      3.51626034102945
  C   6.67764678873673     -2.42482766589193      2.65094749707777
  H   7.73561223331086     -2.14742044855543      2.66719053967475
  C   5.80956799366288     -1.78162751426429      1.79724294274161
  H   6.18539882707928     -1.00087321378726      1.13121063317872
  C   4.06577568589756     -1.24205003523341     -0.59077065319440
  C   4.27030138593757     -0.02271205836798     -1.25388288016870
  C   4.77141789744124      0.01589231543615     -2.55373541707978
  H   4.93173130341682      0.96433696642716     -3.07106917547607
  C   5.07056452790349     -1.17490302740201     -3.23488955693782
  C   4.86538093204596     -2.40467257989021     -2.58523468806787
  H   5.08578396553469     -3.34851662031394     -3.08485055571414
  C   4.37328620587226     -2.42418763503294     -1.27901852306830
  H   4.22286783280244     -3.38755519806510     -0.78527691509007
  C   -1.92622704447880     -3.93369032569192     -1.25036386083683
  C   -2.17137546933088     -2.59067387265353     -1.02447603765320
  H   1.28721942143795     -4.11395721070953     -0.13609864777119
  C   -1.30064590987434     -6.68076430191946     -1.66607522039089
  O   -0.34234102295454     -5.80013154991898     -1.12475741107207
  C   -0.84564534877278      1.87717910530645      0.63057375694815
  C   -2.24081815325493      1.84466999538672      0.02128088413425
  C   -2.55239388508600      0.55368832039435     -0.46169729710227
  C   -3.15054227459857      2.89306445252683     -0.07990694231804
  C   -4.39335969894210      2.67320639147343     -0.68236633227331
  C   -4.70719505261313      1.40128027142202     -1.17794832167851
  C   -3.79792489316563      0.34077269443345     -1.07177934054105
  H   -2.90429054520010      3.88668288372703      0.30442037142518
  H   -5.11793488286609      3.48588279978892     -0.76639864763019
  H   -4.09064090435389     -0.62720785004681     -1.47021680576100
  H   4.03012792963243      0.91582333623753     -0.74995428994927
  O   5.54534641064547     -1.04317255844725     -4.49875154628858
  C   5.85393105335026     -2.19835100237707     -5.24674086121711
  H   6.20750957388163     -1.85123200975513     -6.22731805295626
  H   4.96798390300333     -2.84264496013644     -5.39390072445023
  H   6.65246968208832     -2.79662758140904     -4.77096944988052
  H   -0.81937980511574     -7.66669196367318     -1.72697321855644
  H   -1.61736872565562     -6.37761113868347     -2.68105477107235
  H   -2.19748825940369     -6.76320209793853     -1.02484170348163
  H   -3.15584328787629     -2.20679349045459     -1.27893403055745
  H   -2.71859902401976     -4.54915633792844     -1.67734317842145
  C   -0.95313339208730      2.22281243118177      2.13689470429417
  C   0.03876490460286      2.90611440201712     -0.11095092220642
  C   7.09227907537230     -4.15078980480018      4.40785189555909
  C   4.37120334812340     -4.84999017886930      4.34390695975800
  C   5.23714060060355     -5.49980598072179      5.19965423259178
  C   6.61078187033906     -5.14747752823936      5.23198126920528
  H   3.31176924435075     -5.12073070146285      4.31814136292390
  H   4.86618805731245     -6.29046767798215      5.85741933918010
  H   7.28732996998646     -5.66973731784345      5.91388354281883
  H   8.15120683200781     -3.87698672157956      4.43025952431573
  C   -6.02568847888409      1.19936510766240     -1.88161509859362
  F   -6.35034264756794     -0.10213306902796     -1.99831364226849
  F   -6.00749008859622      1.71012915002719     -3.12997432396890
  F   -7.03754856578035      1.80875441707366     -1.23355550424842
  H   -1.38966914577677      3.22566515683158      2.27016600016200
  H   0.02928881721617      2.22078672139059      2.63125647990011
  H   -1.59698981851693      1.49884420299277      2.65936796643915
  H   0.09497737639503      2.67311258102590     -1.18533054607080
  H   1.06408332357011      2.92174943912504      0.28736271298482
  H   -0.37717168154339      3.92064622635039     -0.00258780601268
