101
Coordinates from ORCA-job 4105-2_0.0
  C   -3.13858303774438      1.16609008759316      1.91784164040975
  C   -2.01116052500374      0.96940194774909      0.88085922012575
  C   -4.07892022498133      1.61923461935327      0.77508122810878
  C   -2.80128322535019      1.98755622426771      3.13086340268056
  H   -3.50194911540452      0.18737048347732      2.27389709813547
  C   -3.09962852714142      0.91137586162538     -0.23950969812617
  C   -4.09352648842561      3.12950446452979      0.56485563124980
  H   -5.07261122568240      1.16394130429772      0.81907404632356
  H   -2.86093677673855      1.50998811180221     -1.12711797645877
  C   -3.61664165092013     -0.48606018918893     -0.61649453370762
  C   -0.98518697063093     -0.12717026767425      1.10032353153159
  H   -1.46612939096652      1.92286102810584      0.78666558664683
  O   -3.84565335189863      2.56401669600983      3.71332952632174
  C   -3.58521381437678      3.32125236280871      4.90149628352332
  H   -2.93624105964746      4.17928309622826      4.67127214493236
  H   -3.09317905658533      2.69546570524769      5.66057709934699
  H   -4.56236862571166      3.66580403218139      5.26126190322881
  O   -1.67231976239186      2.01594426622392      3.59297074782594
  N   -5.03521170782268      3.66153596825612     -0.27869281740632
  O   -3.24590776651083      3.82867356744777      1.11994010381003
  C   -5.02116506707394      5.12309249766760     -0.45094506357670
  C   -5.99395950871865      5.88770274145137      0.43123171676440
  H   -5.21606708894171      5.36123298433989     -1.50530499947470
  H   -3.99520016040097      5.44235670495492     -0.22131159828609
  C   -6.99159655531125      6.69993319539317     -0.12538482383510
  C   -5.90378534107223      5.81556919340269      1.83268251027105
  C   -6.78554839822012      6.52643374234512      2.64494518609452
  C   -7.77985039195640      7.32797702860479      2.06890848951234
  C   -7.88593335365539      7.41676346706968      0.67641206874991
  H   -8.66395551958510      8.03371610118530      0.22266247105880
  H   -7.08343018545984      6.77491599415193     -1.21349225114610
  H   -5.12270519900873      5.20169444722855      2.28704374357691
  H   -6.72113178008849      6.47720093802423      3.73409970944165
  O   -8.66167292301632      7.93797083878667      2.92767035641277
  C   -9.14560017258247      9.20392676552106      2.70906977319199
  C   -8.37335079587761     10.23387275306817      2.15259719291308
  C   -10.44739339092267      9.45528580172840      3.14630469083282
  C   -10.98467129492546     10.74275869893223      3.03121573119245
  C   -10.23712052791604     11.78684141937079      2.46963224977213
  C   -8.93513170021855     11.50617905304611      2.03856480459102
  H   -7.35087258805757     10.04216505795032      1.82368123330775
  H   -11.04118404761687      8.65190815922814      3.58358032443955
  H   -8.33847334588213     12.31482624907606      1.60801340883749
  O   -0.71660819048421     -0.97734725805725      0.28611275970551
  O   -0.36993221904973     -0.05873619952211      2.28339979288990
  O   -4.45624684642968     -1.02109180614657      0.10865783744131
  N   -3.18038874326868     -1.06954778932024     -1.77142615018386
  C   -6.07311500697851      2.84651262247412     -0.95260609570034
  C   -6.26208289001901      3.23874181004313     -2.42370176400083
  H   -6.77425250856983      4.20652027080382     -2.54093072778689
  H   -6.88468354125380      2.47901500518169     -2.92104793970287
  H   -5.29765026479713      3.28649341225263     -2.95372253369251
  C   -7.40532851091054      2.83940838347956     -0.18872531016765
  H   -5.69072795290563      1.81801276330011     -0.96590000572979
  H   -8.11312078052559      2.14394446930825     -0.66815535256308
  H   -7.86583736660357      3.83858921448977     -0.17142324348294
  H   -7.26215769030851      2.51619605756077      0.85410227456459
  C   -3.78727784234981     -2.36798990476381     -2.11780956631210
  C   -2.08821428591642     -0.51862745529481     -2.60559440347062
  C   -1.01487085283862     -1.56188679333420     -2.93981302429332
  H   -0.67623495769117     -2.06687842628858     -2.02439854233525
  H   -0.14741914712299     -1.05088907284483     -3.38660390099818
  H   -1.35896592647745     -2.31006195175983     -3.67167216057379
  C   -2.62084427345800      0.18741890428814     -3.86056341185781
  H   -1.57760456640401      0.22016829442406     -1.97738856574445
  H   -1.79235842943958      0.65751935404160     -4.41511487747752
  H   -3.34827588771755      0.97297844818505     -3.59956215080568
  H   -3.12559677282655     -0.51806194127903     -4.53826030205307
  C   -5.01351611211902     -2.28446228897375     -3.01216568714503
  H   -4.06003864803604     -2.84725658198938     -1.16793548244492
  H   -3.02414027742504     -2.99168436373888     -2.59836249805840
  C   -4.97873942122585     -2.73981701531883     -4.33842147246754
  C   -6.22765488112006     -1.76796474938413     -2.52404254041491
  C   -7.35940756002756     -1.68562629221282     -3.33667465730044
  C   -7.29372219214192     -2.12684237532550     -4.66609851122548
  C   -6.10249184639970     -2.66204862959449     -5.16526935714712
  H   -4.05441659941522     -3.16607137766247     -4.74043602072722
  H   -6.28176161557177     -1.44470236758223     -1.48187364400847
  H   -8.29847358879007     -1.29668823037212     -2.93735613951655
  H   -6.07599547274708     -3.01639640887853     -6.19794191091863
  O   -8.38477329534454     -2.13444945515657     -5.50201352804114
  C   -9.32297313700829     -1.13070880857141     -5.47303944093935
  C   -10.66718834083359     -1.50487050733122     -5.58452611018203
  C   -8.96813402382353      0.22450387167314     -5.41530640687417
  C   -9.96901936953530      1.19875610147010     -5.46022010093659
  C   -11.31539141390071      0.83369433175475     -5.56894643200433
  C   -11.65781153135610     -0.52089874791903     -5.63506500785350
  H   -10.91363220293328     -2.56762879230942     -5.63362246288876
  H   -7.91585576698802      0.50812433626840     -5.34523445773057
  H   -9.69010830370376      2.25542291428195     -5.42019078604130
  H   -12.09258682999452      1.60100574728117     -5.60596273839201
  H   -12.70639835774790     -0.81786114614848     -5.72279235240355
  H   -0.69740959002899      0.71160689321688      2.81011018134437
  H   -14.88290990270261     10.85380475052476      3.57815098667707
  C   -14.38608777257858     11.63844299034249      4.16961852819787
  H   -14.25255399493616     11.24208634155922      5.18851691972929
  O   -12.28258615180050     10.83964479674479      3.50913634691604
  C   -13.04273612555598     11.96891800373835      3.56704501741797
  O   -12.69267746859170     13.05771296058228      3.19713340757808
  H   -15.00635557292437     12.54238628689438      4.19638438340038
  H   -10.65834553789690     12.78350419804346      2.38034824558824
