79
Coordinates from ORCA-job 4106_0.0
  C   -11.77014462587921      8.94829915426785     -0.35736235386298
  C   -12.45254828432003      8.24758825176851     -1.56045695977885
  C   -11.16483930049433      7.57494207993977      0.08280878718176
  C   -12.05419643775819      6.82933261169894     -0.96646221229695
  H   -11.39006916045384      7.30992638950314      1.12551540610952
  C   -9.65654206372764      7.42777814470361     -0.12031559926574
  C   -13.13159069637460      5.87158814736853     -0.48841533037773
  H   -11.44266661506051      6.28820625004268     -1.70655952960658
  C   -12.73231704025562      9.68481448273430      0.61564563660619
  H   -11.00732862994704      9.67461465696041     -0.67724759320041
  O   -13.79108297631572     10.35327007196093     -0.14141424291777
  C   -14.41765759336817      9.70850094365485     -1.14345581323029
  C   -13.84791792395881      8.68716451192008     -1.85635100974124
  H   -11.85886149846957      8.39148350072830     -2.47642540313631
  C   -15.75985123627009     10.16853894220765     -1.44382189071781
  C   -16.46276664929754      9.55736976730753     -2.51961876374106
  N   -15.80673489329216      8.62627852089974     -3.32139781075351
  C   -14.49830363702422      8.18793641501736     -3.05925531735136
  O   -13.94242276567358      7.41730950482370     -3.84489824806804
  C   -16.41267535655793      8.08658393797921     -4.54389344597250
  C   -16.96062868418585      6.67414282824517     -4.40410122434764
  H   -15.62356357676919      8.04841875681729     -5.30794867607822
  H   -17.18776040059571      8.77951200566993     -4.89179564651510
  O   -17.89916486234769      6.62898783982657     -3.32365178929193
  H   -16.14898088392128      5.96282851321416     -4.19347191920556
  H   -17.44752235848889      6.36572772145450     -5.34352217540135
  C   -18.56725519641714      5.46697123866015     -3.15828662912724
  C   -19.29196936401182      5.42532593450063     -1.83764972653056
  H   -18.59481197638854      4.98527174313467     -1.10490103608228
  H   -20.17199402253335      4.77345915729673     -1.91758774283203
  H   -19.57353888878566      6.42953576351434     -1.49298397942853
  O   -18.54375180198353      4.57244208496997     -3.96923599661512
  C   -13.45386398621669      8.80261684270783      1.64192762724255
  H   -14.00472555012975      7.98008774503466      1.16565439010669
  H   -14.17156876437839      9.42275210693005      2.19985496944288
  H   -12.74834445623150      8.36870051331285      2.36513270470903
  C   -12.00133729103501     10.82521530400520      1.32401964309086
  H   -11.60207468933718     11.54112696624826      0.58975294874706
  H   -11.16182008686719     10.42658125631264      1.91442163616272
  H   -12.68101215797658     11.36462459378001      2.00156611235783
  C   -8.78387676027150      8.28608389976734      0.81800101073482
  C   -9.10385742254597      6.01284871936986      0.13537876108114
  H   -9.41358789546088      7.70438812696115     -1.16607179804796
  C   -7.37031969659567      7.65834286838878      0.74672830822851
  H   -9.18403992552341      8.20575103356999      1.84518270623472
  H   -8.78918305360624      9.35602366336373      0.55634071213329
  C   -7.57717260302015      6.20900136917967      0.21506841052449
  H   -6.87431077169420      7.67304264653213      1.73007314444597
  H   -6.72176627330892      8.23139307821310      0.06490089202871
  H   -7.09261617595494      5.45092499079983      0.85021326907050
  H   -7.13319033682158      6.10572833507837     -0.78868089411038
  H   -9.40416009423193      5.27991074210553     -0.62980797146389
  H   -9.49370057302795      5.64613008120582      1.10283980781243
  C   -14.07341692544952      5.38866417120780     -1.41895471656582
  C   -13.22957289557648      5.39367007490592      0.82270238984688
  C   -15.10627989213490      4.53249079022090     -1.05136523014901
  C   -14.25198492131658      4.51357830235659      1.21126801192030
  C   -15.21655107847989      4.09266410042014      0.29088441756049
  H   -14.01486775003912      5.69719491175422     -2.46359011165031
  H   -12.50887529148334      5.70256275396435      1.58165673557934
  H   -14.29385264369544      4.17905264814526      2.24856159343484
  O   -16.05026669403599      4.19233518923729     -1.98384575259198
  O   -16.28047813334896      3.29425813258090      0.58279613038279
  C   -16.44653034798204      2.83414641373330      1.90487539298773
  H   -15.59618313846081      2.20880954102536      2.23373913436305
  H   -17.36048795196175      2.22446871134629      1.91317426786204
  H   -16.56686388835740      3.67014539554264      2.61798678483058
  C   -16.08779897690182      2.83801562440482     -2.42288730910393
  H   -15.12941839618967      2.55237873375674     -2.89350608583110
  H   -16.89230446672421      2.78264599471529     -3.16852049280836
  H   -16.30449269309321      2.14948206124050     -1.59023871978041
  C   -16.39005962027193     11.15965980245717     -0.66398679897214
  C   -17.70013343352298     11.54142973567033     -0.91499085371613
  C   -18.40772721003537     10.91087644037176     -1.95032973018238
  C   -17.80809444222756      9.93309474379259     -2.73586488878414
  H   -15.81816430029460     11.61032242356356      0.14781124237256
  H   -18.17948221216866     12.31025918865256     -0.30448763290284
  H   -19.44997137406622     11.17935179760982     -2.14313424222546
  H   -18.39968335701650      9.43757756166473     -3.50257169083117
