71
Coordinates from ORCA-job 4107_0.0
  C   -13.07655441620870     -3.21189841248453     -5.38920577653355
  C   -14.51308550251274     -2.62517540001687     -5.13020452543556
  C   -12.70055634041342     -1.97641827443941     -6.22405087549960
  H   -13.04368410186462     -4.18630725678197     -5.89178558527136
  H   -12.49269629321877     -3.27849972587382     -4.46140650485999
  C   -13.81526305440200     -1.15586531033964     -5.49955154772123
  H   -12.93878839511662     -2.11187979264247     -7.28700832786250
  H   -11.67364222903680     -1.59743235521007     -6.13031850466928
  C   -14.46885322058059      0.12755575593557     -6.18343732786255
  C   -13.20855224440069     -0.70978685605227     -4.22559211679377
  C   -14.95571288890123     -2.66414436628341     -3.72977893482649
  C   -15.62829941737663     -3.39893033974987     -5.97855054572059
  C   -13.30311198525139      1.18944456331152     -6.23436450426310
  C   -15.61465784453726      0.62468217057396     -5.27405635271377
  C   -15.01762365683451     -0.18924484006234     -7.58161233584917
  C   -13.34607146774524      2.53628505478946     -7.06379874826375
  C   -12.30463456189453      3.48400434788447     -6.31152633319993
  C   -10.82523833418599      3.02968224112124     -6.11795906120152
  C   -10.39537802352744      4.49885986176395     -5.98214335597668
  H   -10.43447548853223      2.57008569711333     -7.03586501524895
  H   -10.62951708286264      2.36071232334297     -5.26911931354369
  C   -11.69084970684649      4.97498485384273     -6.73943520135115
  H   -9.44192297656999      4.78775696217886     -6.44185836956775
  H   -10.39364822319405      4.83495759712207     -4.93641531182287
  C   -11.37200028185126      5.48725758683464     -8.21811549442582
  C   -12.42043181110439      6.06379033055755     -6.07404848468167
  C   -12.85695059123592      3.69418179989561     -4.95465839643997
  C   -10.48184758841162      4.52897069564954     -9.03531477862553
  H   -9.50576286337449      4.36033391789134     -8.55615885922183
  H   -10.27847367297538      4.98700232850690    -10.01634734361569
  H   -10.94368942655208      3.55532768990701     -9.22364047052552
  C   -12.65670096839312      5.82179943891250     -9.00325949031885
  H   -13.29013615324917      6.53224240959927     -8.45099176009950
  H   -13.26197093192702      4.93561124392994     -9.23176093349285
  H   -12.39101160179878      6.29253431583590     -9.96325088117595
  C   -10.57329259233216      6.81073842097120     -8.07155135479036
  H   -9.64270159784762      6.67446319367016     -7.49985763160528
  H   -11.16278512355520      7.59805063978984     -7.58118542630606
  H   -10.29301296577294      7.17415367734379     -9.07265297477469
  H   -14.24782575418710     -0.58763087410047     -8.25912124808530
  H   -15.42858034016681      0.71730243425407     -8.04322262259809
  H   -15.83892933696365     -0.91015958560680     -7.53529497273729
  H   -15.23380360273944      0.98787261029464     -4.30778497365955
  H   -16.33699367029925     -0.17711689759886     -5.06683626757173
  H   -16.16774411577883      1.44810626270262     -5.74448825491551
  C   -15.75402788985985     -4.81520633897499     -5.35234556489167
  C   -17.01743264461996     -2.73730343877831     -5.86934327630244
  C   -12.92986958127178      2.21091009808711     -8.50919554453933
  N   -15.33655777241227     -2.71519508366938     -2.63567644172877
  N   -12.66638700403838     -0.37358579653015     -3.25744137970968
  N   -13.28189138460898      3.82255577636740     -3.88359062885145
  N   -12.99484670662292      6.94618549113982     -5.58787983818435
  H   -13.10980813970010      1.44504854457606     -5.18610149883570
  H   -12.39533763669217      0.66807552174121     -6.57971279804707
  H   -17.30440362773361     -2.57587255689638     -4.81920266780123
  H   -17.77421174304888     -3.39879037029223     -6.32042067417782
  H   -17.07893825374655     -1.77339323060157     -6.38988399240809
  C   -15.25843054002998     -3.61383414123531     -7.46214240151834
  H   -16.07327180459463     -4.17360008901868     -7.94811624277458
  H   -14.34688492091369     -4.21865692227217     -7.57834051473608
  H   -15.12583854134327     -2.68475952006857     -8.02549988934989
  H   -13.61437797058594      1.46824511126690     -8.93630432591828
  H   -11.91894097759362      1.77914993688755     -8.55898296714494
  H   -12.96658617328724      3.08550741823362     -9.16712510891503
  C   -14.70984502148845      3.25849028848402     -7.07784363330332
  H   -15.46170384240509      2.69595378815425     -7.64856193396018
  H   -14.61345628364635      4.24358755568919     -7.55823619119021
  H   -15.10269152155925      3.42744566472983     -6.06634322496290
  H   -16.13069817437252     -4.78000427338329     -4.32058853822161
  H   -14.79452458580927     -5.35455870773309     -5.34674631629767
  H   -16.46244481148312     -5.41091486418682     -5.94886731050276
