38
Coordinates from ORCA-job 4109_0.0
  C   1.63525998747203    -10.87175695368093      7.98105921864255
  C   2.07431996468877    -11.86291068465773      6.88431613259758
  C   0.90401537719304    -11.85205865947516      5.89102534410469
  H   2.29926881129400    -12.86664234650402      7.28196008495501
  H   2.99531372997793    -11.49449465287655      6.39520061248012
  C   0.92074792610084     -9.74337311367958      7.18374335113289
  C   2.74499940134987    -10.45553502551644      8.94529810646739
  H   0.85088194899804    -11.36408807673169      8.58357391112743
  C   0.52921429635828    -10.35837219665923      5.79003106310017
  H   1.16845516606064     -9.90124587250480      5.01783336423632
  C   -0.96470737281411     -9.93157838153702      5.49024734761832
  H   0.07726067165049    -12.44444269525158      6.31255455785075
  H   1.15511359800257    -12.29621661502721      4.91434990239633
  H   3.59255426426456     -9.97936341821273      8.42503566401834
  H   3.14108266480121    -11.33732237649785      9.47547831363795
  H   2.37157993326567     -9.75338201769237      9.70742102186165
  C   -0.43761114646127     -9.30652012733115      7.73276982250822
  C   -1.16911815927767     -8.75456807453959      6.51428501776207
  C   1.71770553956205     -8.42648795260124      6.99104505034885
  C   -0.44481309349440     -7.46286158758547      6.12738108686020
  H   -2.23057462558159     -8.55762853080732      6.72620495062129
  C   0.87943391662423     -7.35370009154171      6.33911800419904
  H   1.39133595576248     -6.42587626142025      6.05805255305922
  H   2.62700574709175     -8.62261063962726      6.39161415905266
  H   2.07668991588829     -8.05517377530355      7.96821195907062
  C   -1.27952134733114     -6.35506894455564      5.54443164846173
  H   -2.04395304290434     -6.02082540630864      6.26862888744790
  H   -1.82596383649381     -6.69269200817696      4.64691115768181
  H   -0.66654392703746     -5.48358575140678      5.26821222846811
  O   -0.84473583623793     -9.41240407649167      8.86388361482187
  C   -1.98958211362822    -11.03316962324527      5.81858361666373
  H   -1.93139810753519    -11.36926496815490      6.86619885927274
  H   -1.85298340042461    -11.91436376933964      5.17225672356458
  H   -3.01227306023129    -10.65627686597949      5.65421364639789
  C   -1.13832307004598     -9.51947294130423      4.02252739217378
  H   -0.45028396845137     -8.70735531982833      3.74172276700918
  H   -2.16900242453629     -9.18600024141058      3.81516651515794
  H   -0.93015028392005    -10.37690995653522      3.36049234316896
