51
Coordinates from ORCA-job 4111_0.0
  C   0.81559277561584    -11.07281347657780      7.05080796533478
  C   -0.07355068933437    -11.91623719801020      6.09427912109501
  C   -0.71799260489827    -10.88682164595541      5.08702843708309
  C   1.35935589568656    -10.10332465756371      6.01087761201327
  C   0.15211958874725     -9.51989779109489      5.28319670083082
  C   -0.09456705751817    -10.30613003321378      8.05488141939559
  C   -0.31939178709577     -8.43816279420751      6.34464366978961
  C   0.56219803141833     -8.79361307875577      3.99425779111767
  C   -0.08301917056454     -8.80689681599799      7.85212892616073
  C   -1.16963561082005     -8.00979463852261      8.60125387941623
  C   -1.74615765339275     -7.84598051017255      6.41049019297663
  O   2.53664159762709     -9.91616408814063      5.81685922928032
  O   -0.74742033233668    -10.89349589598192      8.88027614337331
  C   -0.99874830751831    -12.90170602790982      6.78226033356220
  H   0.64476061489924    -12.55200577036285      5.55519244700632
  C   -2.22071731329556    -10.71062286997666      5.24260095497596
  C   -0.45496751550520    -11.45361291024913      3.67024989266839
  C   -2.47222009538745    -12.50740250364638      6.97920020964959
  C   -2.98698574807214    -11.38797894475771      6.14986755806836
  C   -2.92233101685508     -9.83466682311729      4.23405697531330
  O   -4.32179608704897    -11.14162489680767      6.14654355435043
  O   -0.62072622168134    -13.99215021474452      7.12743674639845
  H   1.03874109452805     -9.46054071761161      3.26467557060304
  H   1.30405222956434     -8.01874053894742      4.23635322909669
  H   -0.29192039803053     -8.30176492268825      3.50654359528007
  O   1.80859870917348    -11.76451089832961      7.72645953899556
  H   2.65480697289681    -11.47679537069579      7.33808197220087
  O   -1.75152904396755     -7.14520394733866      7.63619559680420
  H   -2.52167977254319     -8.62736770968942      6.41514243439565
  H   -1.96064669796144     -7.13266238874001      5.60177495782970
  H   0.33776425760703     -7.58010513566973      6.14259106881751
  H   0.93318610635791     -8.48754694269541      8.14475995436400
  H   -0.77001191183852     -7.39237143830130      9.41796530469978
  H   -1.91752460422111     -8.70532408409316      9.02585940037018
  C   -5.09048688373892    -11.18484690294257      7.35187152834386
  H   -5.40243668937693    -12.20863948658451      7.59450383309812
  H   -5.97190141740939    -10.55389850830474      7.16484290276023
  H   -4.52741103843846    -10.77315414553790      8.20499986225491
  H   -2.28008916148650     -9.03702788468840      3.83888633499530
  H   -3.83275716982396     -9.39242239414754      4.65720662919923
  H   -3.24727931666825    -10.44879296515193      3.37452443456514
  O   -3.18222303354118    -13.18319998939298      7.69270981059806
  O   -1.08811591190839    -12.73231597587574      3.61864166547926
  H   0.62320135810076    -11.57369468957937      3.47911220499730
  H   -0.85698996001022    -10.81224846460921      2.87397255366756
  C   -0.95381947599786    -13.43279889977813      2.46132895838401
  C   -1.64309997553391    -14.76875763723890      2.55532106965726
  O   -0.35468575747078    -13.00002551946440      1.51077764783145
  H   -1.23939259122169    -15.34181765931717      3.40449339986137
  H   -1.49916068520891    -15.32286712394960      1.62016954455657
  H   -2.71807052450033    -14.62339407286915      2.74574523643271
