45
Coordinates from ORCA-job 4115_0.0
  C   3.87313151020765     -0.67437630440592      8.01309556434595
  N   4.82004935232740     -1.55218433763242      7.57716726135709
  C   4.73848258978195     -2.50205200634298      6.53765942444633
  C   2.64948024977123     -0.37469166988008      7.48322458835010
  C   2.12390696610673     -0.89561906938738      6.16605283454741
  C   2.22652768287601     -2.43741777117154      6.04095549151568
  C   3.64737693057567     -2.91678580785800      5.87092721194591
  H   1.06082084115238     -0.62368973491032      6.10719736661336
  O   2.82784860830454     -0.34486565690091      5.05210402362624
  H   3.81999910354686     -3.67418241091700      5.10561263400539
  C   1.30299342833790     -2.92473667556191      4.92004981084853
  H   1.78667215928187     -2.87868782669606      6.95748496171937
  O   1.59526718515542     -4.17599211151680      4.52133980429136
  C   0.75332866123662     -4.74648164136740      3.50351239336845
  C   1.25969226365405     -6.14208417940880      3.20224190817155
  H   0.77841363566231     -4.09551188328601      2.61441818563967
  H   -0.28776856033358     -4.75373738352049      3.86593674378934
  H   2.29606959156581     -6.11625576958113      2.83018574537226
  H   0.62900703692501     -6.61201619010045      2.43100258090491
  H   1.23250255461820     -6.77530604121328      4.10290960817409
  O   0.37623598643735     -2.29648885248434      4.46712643666348
  C   2.12625603989555      0.57760423318658      4.23045703411569
  C   2.07737980030599      1.99522196171566      4.79051342768163
  C   1.77386820861579      0.56203176982530      8.21185758719519
  O   2.29476251432251      1.00152230731668      9.38964537244546
  C   1.49749469911638      1.92695517809676     10.11938779865831
  H   1.32608201828859      2.84816677632623      9.54011174788147
  H   2.05575034966443      2.15730245215191     11.03666633752126
  H   0.51646775602912      1.49430787167228     10.37057189593571
  O   0.68008665033939      0.93215481030198      7.82855519049456
  C   6.17073378558060     -1.52047980788847      8.16919264570123
  H   1.61414876287934      2.67515456450941      4.05516096490671
  H   3.09393440656643      2.36326562420452      5.00626629095728
  H   1.48204489120917      2.04159081003737      5.71503059941138
  H   2.66846860746681      0.57432530110417      3.26905985299342
  H   1.10564819302288      0.20311161739220      4.02984249199914
  H   4.16481325315573     -0.14922676611219      8.92575745144790
  C   6.14379927349779     -3.02096272315068      6.30948631114778
  C   6.81766782090646     -2.81610846819743      7.67423521599359
  H   6.64735916849435     -2.40573017589615      5.54085001893792
  H   6.15355692632437     -4.06246136853941      5.95891547786060
  H   7.91382857957781     -2.74463959205239      7.62110365827768
  H   6.56191987364144     -3.64772345137037      8.35121319764370
  H   6.10598803567608     -1.45086391807900      9.26664403281029
  H   6.72171260823143     -0.63212568241170      7.80791081828527
