66
Coordinates from ORCA-job 4116_0.0
  C   11.40697923546109     -9.10188803315021      5.85775959919320
  C   12.16074631055335     -9.37128228679626      4.58352029174916
  C   11.53600990352318     -8.96077835085840      3.39532712051621
  C   10.79427049392381     -7.69049677443180      5.86786153977247
  H   12.05984316465492     -9.21479955566799      6.73769581979582
  H   10.60197263183807     -9.85056966519076      5.97140216778358
  N   10.18713649450323     -7.27548579307547      4.58676706298523
  H   11.57840565246638     -6.96712071378639      6.14218311907057
  H   10.04310560718759     -7.64892006712902      6.67791940381214
  C   10.18517423590631     -8.28812509538514      3.50014084657934
  C   8.88434826874078     -6.62602063688982      4.71381554936985
  C   8.13138993129190     -6.45055133432592      3.37820015059534
  C   7.43540841741977     -7.58743209243206      2.88974568814248
  C   9.03655774357224     -9.27548258291489      3.66320391310989
  H   10.02062513629609     -7.72837273317042      2.56651256732510
  C   7.74297010132550     -8.94644770207318      3.42022930784358
  C   7.99839327337036     -5.23345345117691      2.66613126022127
  C   7.08363313161295     -5.12827668986347      1.60739093684388
  C   6.33629675201237     -6.22835291477410      1.19401997677024
  C   6.53496874529094     -7.45719266383203      1.81648230031393
  H   6.98955388846071     -4.16098088264231      1.11062951526627
  H   5.62614029716101     -6.13487892417123      0.36856929487954
  H   6.00020197029484     -8.34221269733137      1.46461729806692
  H   9.26903729438135    -10.27433112402440      4.04526393380481
  C   13.41959864871587     -9.97812916253427      4.52625448062421
  C   14.05501081195440    -10.20295036802563      3.30003498547341
  C   13.41026480378451     -9.82051466851003      2.10393745041498
  C   12.16193619200005     -9.19274880576279      2.16674090916651
  H   11.69582242771426     -8.88518732182027      1.22687413162142
  H   13.93938253904439    -10.28897826996099      5.43648661064821
  O   15.28117841682181    -10.81701596167214      3.28440263296602
  C   16.38001988764717    -10.00309997437004      2.89024571242870
  H   17.27530573007042    -10.64058764733195      2.92175477655666
  H   16.51704384069359     -9.15902836577970      3.59071904206050
  H   16.24811120185649     -9.60559675783593      1.87032286106737
  O   14.00382478990990    -10.00930872426057      0.88183914560022
  C   14.10276960253900    -11.35823701224071      0.44101431066256
  H   14.69981829000356    -11.97181361548855      1.13618970484369
  H   14.59467768768115    -11.33641671259254     -0.54208896877367
  H   13.10116194739973    -11.81238839517899      0.32942269085607
  C   8.83188967061280     -5.34370000045579      5.55940292662318
  H   8.20186390764774     -7.28603359502318      5.30320171827077
  O   7.82674789362071     -4.68293106767597      5.66671765400477
  O   9.94839683191855     -5.08295653842878      6.25739861653010
  C   9.87887527995432     -3.97489781789524      7.15666355384265
  H   9.66647875892244     -3.04178542899220      6.61360066568649
  H   10.85974775080711     -3.91781604834764      7.64541411329084
  H   9.08567934172275     -4.12579126961566      7.90478852262986
  C   8.82787234984616     -4.00333276074296      2.88261853242070
  O   10.02010038700702     -4.28878027698578      3.43926139384464
  C   10.92239883757440     -3.20073461042422      3.62217304981939
  H   10.45567575348497     -2.39455361006354      4.20856873887992
  H   11.22863268969749     -2.78583882497139      2.64921314434268
  H   11.78968038554338     -3.61410886154951      4.15122947368443
  O   8.51999996125867     -2.89210673744448      2.52189569784407
  C   6.63891697036028     -9.92937231944141      3.60909142751131
  C   6.81259575720507    -11.29494345534099      3.31104033475019
  C   5.78592538247853    -12.21560341997286      3.53321943100098
  C   5.39250793377406     -9.51654995990974      4.12049767478115
  C   4.36621278481115    -10.43722126411112      4.34371071843197
  C   4.55850390490545    -11.79159729202067      4.05257468382674
  H   7.75747831668650    -11.63361535964140      2.87892981804049
  H   5.94229451310874    -13.26978684438457      3.28821862090396
  H   5.23227171740526     -8.46136663195353      4.35585675194369
  H   3.41095875799008    -10.09378098225529      4.75018902473750
  H   3.75365866257082    -12.51169049389313      4.22268457232964
