49
Coordinates from ORCA-job 4118_0.0
  C   0.10567694655095    -11.26562829537241      7.13214869314295
  C   -0.76744055378336    -11.92857107557854      6.00242458749416
  C   -1.19076334526676    -10.76101270916069      5.04643852859150
  C   0.83598621878381    -10.21952710414818      6.27806971743324
  C   -0.26408986740180     -9.55357569387086      5.43200425137317
  C   -0.69256960898671    -10.41652196512162      8.16030551084680
  C   -0.94408634539511     -8.62897658212486      6.43303048286575
  C   0.26927817143141     -8.93451440969861      4.11738600110986
  C   -1.17928725943506     -9.08444177324119      7.69447500774001
  O   -0.84010450048644    -10.77262567155387      9.31050875529151
  C   1.05055872808049    -12.22365041549293      7.84909841718835
  O   -1.81774760364811     -8.39132921172371      8.66781169249337
  C   -1.90719895068552    -12.86493891207427      6.37156058868081
  C   -0.98989789492310    -10.95975130469261      3.52341109918320
  H   1.64107649245701    -12.79513115159429      7.11659661272193
  H   0.49707268306833    -12.92634090602331      8.48494969826233
  H   1.75173960725695    -11.66571776036229      8.48635360468855
  O   2.01332985371754     -9.97248384129779      6.27489647873884
  H   -2.12338405162309     -7.54473294314431      8.31632576194425
  C   -1.38029583292944     -7.25123381973407      5.97699031475953
  C   -1.72709639677247     -7.29549632107254      4.47914951491978
  C   -0.33412505601469     -6.17188719666915      6.32842200976708
  H   -2.31481344368510     -6.99034383446850      6.51247486679357
  C   -0.53112497050565     -7.69865978086166      3.60849808749454
  H   -2.10762892610446     -6.31161679932857      4.15619219632126
  H   -2.55696377683599     -8.00933102575833      4.33583736168071
  H   0.15449372438133     -6.83993423768893      3.52623108117986
  H   -0.89163453825080     -7.88404897881115      2.58344115168392
  C   0.25240012374057    -10.12683551156144      3.11345322209043
  H   1.31010090689892     -8.62358403998007      4.29728597578426
  H   0.64336131359014     -6.39006964577288      5.87188368178374
  H   -0.17752389257849     -6.11698277583995      7.41721692651783
  H   -0.66299570905247     -5.17927393381723      5.97824305713460
  C   1.54682436939880    -10.95367296239385      3.09178044823751
  H   1.76435318762654    -11.44127340424880      4.05345592855343
  H   2.41582864903670    -10.32171865409060      2.84789713313841
  H   1.48063908789514    -11.74472513133152      2.32653887496201
  H   0.11282458280160     -9.73049565385270      2.09349948019769
  H   -1.87901242513557    -10.58513225459039      2.99023271133914
  H   -0.88215520103300    -12.01874333722748      3.24087898755630
  H   -2.23787775670783    -10.50256022182496      5.26091193301984
  H   -0.04188294976727    -12.54732434566372      5.43975083375466
  C   -2.55207979133050    -13.55519378486735      5.19002079029142
  H   -3.02642842404882    -12.83535741318187      4.50082058887967
  H   -3.32507289092174    -14.26615014302481      5.51666989172004
  H   -1.80562982216799    -14.11226294750984      4.59576138620123
  C   -2.32603771084067    -13.11804768484552      7.62031522541886
  H   -1.88986264798352    -12.65717747280998      8.50613839993992
  H   -3.14919250241467    -13.82012496089549      7.78796244908800
