46
Coordinates from ORCA-job 4121_0.0
  C   10.82516738504641     -7.34546982859869      6.19783047963623
  C   10.84269461920333     -8.05836087580957      4.92679843072778
  C   10.24392677692338     -7.53069630426775      3.83205248367718
  C   10.28107369821930     -6.10399610334489      6.29388629664988
  C   9.67326408367805     -5.44386865998510      5.15975258931922
  C   9.51102738249480     -6.22591529726637      3.86687111387742
  C   9.28511125388813     -4.11716024471544      5.21172958901445
  C   8.56681840058652     -3.48766044970143      4.16693199327989
  C   7.75376058328034     -4.09556829342803      3.22502659821335
  C   7.96963593159590     -6.37039026366781      3.66480253783982
  N   7.29640731843499     -5.36581352456079      3.24343241526947
  H   10.28251333649352     -8.06817954758975      2.88227905101723
  H   10.31345017603370     -5.56168959829918      7.24295235121198
  H   11.29298656869571     -7.83200712024350      7.05539593161680
  H   9.55910059363963     -3.51127442429502      6.08091009879715
  H   9.83948336954226     -5.59184257933327      3.01965348826649
  C   7.30087341979869     -7.66575011785727      4.02930781105175
  C   5.78149131584037     -7.67124856737169      3.89070914855924
  H   7.60436427024421     -7.91445127225651      5.06337775603376
  H   7.75995194276076     -8.46492676984132      3.41532348179324
  H   5.32073097044262     -6.91423956059705      4.54324148826527
  H   5.37558370134866     -8.65738824383262      4.16449159905122
  H   5.47537289220319     -7.44085226907923      2.85945063988934
  C   11.55876115171657     -9.37183545823867      4.89328290742149
  O   11.54987792975541     -9.94438673457964      3.67589086882714
  C   12.21894813339556    -11.20163415698158      3.56510148586359
  H   13.28183362627231    -11.10367814330043      3.83402846933838
  H   12.11751114040540    -11.51059529999218      2.51730826582876
  H   11.76004009887297    -11.94870163117687      4.23085496561716
  O   12.09041602715629     -9.87192536044930      5.85773033264847
  C   8.47586910138605     -2.00930817882180      3.96203253115396
  C   7.15248468172855     -3.03665475257200      2.34499023240614
  N   7.64761154089025     -1.80191990496087      2.83312400817486
  C   7.35348476363674     -0.52720332506052      2.26609657401275
  C   8.35008443635031      0.45935058719484      2.19732301679053
  C   6.06741653907913     -0.25502955539414      1.77348581314638
  C   8.05492461117824      1.70739518584867      1.64505673751219
  C   6.77743864035948      1.97971745033030      1.14686033640530
  C   5.78960969913905      0.99293738639308      1.21140822246276
  H   5.29513918714204     -1.02184852696841      1.81728391004884
  H   9.34597292396109      0.25475873912642      2.58850501071173
  H   8.83604473355782      2.47104356195666      1.60116136424941
  H   6.55285115224761      2.95653184050397      0.71074620752240
  H   4.78665196658836      1.19379739262697      0.82555713136129
  O   9.01507039084164     -1.14706128764768      4.61421142229028
  O   6.40143753394434     -3.18601991189435      1.41434281314792
