40
Coordinates from ORCA-job 41_0.0
  C   -0.78775213982099      1.20488459893419      1.70025618461356
  C   -0.98346017205716     -0.20055170472284      0.99908820248532
  C   -0.64563960615686     -0.03534925502113     -0.48562436688840
  C   0.74669821937529      1.33727262032265      1.66864298110381
  C   1.14281884370081     -0.00751674959657      0.93451532756288
  C   0.69100636381570      0.08698614426555     -0.51686350112011
  H   1.33497086118777      0.29143322477197     -1.37328785093732
  C   -1.30798372705787      2.42188669652290      0.95223034661164
  H   -1.21772614289554      1.17609608110179      2.71171606022022
  N   -0.20893888624088      3.19812973527352      0.57629699847246
  C   1.02895264651948      2.63078963497229      0.92137544806783
  H   1.21955110493547      1.36663775176703      2.66054667802550
  O   -2.45737782121420      2.69598025621279      0.68950396121107
  O   2.10211386719854      3.10351423591708      0.63883321965092
  O   0.16443816873224     -0.88545526722010      1.49477387727083
  H   2.16182727248370     -0.35865767602909      1.13319919122644
  H   -5.02643962500397     -2.11269438495406     -1.29408876388854
  C   -4.42650448643507     -2.27184205171445     -2.20482714246125
  H   -5.09642046810308     -2.39040712631603     -3.06509612109635
  H   -3.83011259958101     -3.18309525546464     -2.04968720827480
  C   -3.52699043328299     -1.08070108889030     -2.42598801426730
  O   -2.54708460072515     -1.03089956612203     -1.49430980316927
  O   -3.64328528237260     -0.25862890994025     -3.29945636094428
  C   -1.64605027073496      0.08712419660067     -1.58313219309754
  H   -1.91106039436832     -0.72746008935725      1.24658915545021
  H   -2.23227433841606      1.01842605482578     -1.49227296798650
  H   -1.15927350278571      0.09977051118951     -2.57077408029883
  O   1.07099805955478      7.40571853336806     -0.02094648042475
  C   -0.04213402744934      7.56941301452744     -0.45156182122244
  O   -1.07628375587976      6.73254023069922     -0.18755423482007
  C   -0.48856697439818      8.70592756574599     -1.33699002705606
  H   0.35570186278136      9.37998819370191     -1.52508600005447
  H   -1.31433887602730      9.25429416712721     -0.85775522145672
  H   -0.87261228406912      8.30819740517174     -2.28943126021714
  C   -0.33650462360881      4.41887071792579     -0.20586018836731
  C   -0.81720996821999      5.59927807854394      0.64592124162063
  H   -1.05887444290409      4.24507262658895     -1.01823245600337
  H   0.65449678712053      4.63769708515428     -0.62719667981754
  H   -0.06434372359009      5.85530235417463      1.40593324196351
  H   -1.77606088400654      5.35650740994170      1.12375062831356
