37
Coordinates from ORCA-job 43_0.0
  C   -0.89251946849009      2.18194337772121     -1.35134390227120
  C   -1.38993410941935      0.95000971211472     -0.47736907294351
  C   -1.10213649337525     -0.29060577282834     -1.33002556875060
  C   0.63986319430815      1.97622372920115     -1.29897562594889
  C   0.74114874093877      0.67920522739769     -0.41360139446658
  C   0.22325083621246     -0.46371011201486     -1.27742929172398
  H   -1.85598963996185     -0.83245065959747     -1.90068126269282
  H   0.84013198935742     -1.18992741399292     -1.80842782767551
  C   -1.12935696612534      3.53270351338293     -0.68312606548303
  H   -1.34491259497496      2.18829286947226     -2.35245516986665
  N   0.10965930843113      4.04521072898608     -0.28345854616817
  C   1.18974619018790      3.20344805904689     -0.58331971357409
  H   1.14278122245685      1.86501471362318     -2.26977460861884
  O   -2.18717166938103      4.08548074651899     -0.50322743531545
  O   2.33782934361875      3.43052948635149     -0.29661198170667
  O   -0.33878729351420      0.89435154864418      0.49399247882990
  H   1.69441936283357      0.55380496865705      0.11390841170658
  C   -2.76211921726723      1.08728906630563      0.15366422949822
  O   -3.11740759175141     -0.07705531762009      0.90615456186852
  H   -3.51047457804467      1.27500182174926     -0.62907626101791
  H   -2.76642085494573      1.92144424511518      0.86596843706395
  C   -3.87721770960645     -1.02038733355109      0.30655990674771
  C   -4.19259767133589     -2.13990222642614      1.26596410797962
  H   -3.25637630398392     -2.59084255154413      1.63018139877470
  H   -4.80705750754860     -2.89614147466900      0.76294569231347
  H   -4.72342744842995     -1.74157610339045      2.14450241722072
  O   -4.24136575307609     -0.95595371474099     -0.84274171694868
  O   0.26005810138886      7.87766487835469      0.99672731451106
  H   -0.36460141180807      8.45504124968550     -1.99774664641280
  C   0.48899698937756      8.57555151700855     -1.31215954052916
  H   0.51085064155446      9.59854660073679     -0.91774599939778
  C   0.36797123291228      7.59810486903753     -0.17058164968958
  H   1.40338310986509      8.37008174990421     -1.88981287394669
  O   0.39087049141045      6.32029983698768     -0.61892155648577
  C   0.25444290582910      5.30679229362506      0.38206662882740
  H   -0.63681456560663      5.50397922068784      0.99269215171726
  H   1.15544518796395      5.27651665005961      1.01066597457526
