42
Coordinates from ORCA-job 45_0.0
  C   -0.96875182254310      1.48117743643101     -1.22268680812867
  C   -0.76456103199953      0.53706101740553      0.01809443207010
  C   -0.30044153808000     -0.80659326894814     -0.53070549639213
  C   0.49136248854547      1.70104069549379     -1.67339070248129
  C   1.27529981075746      0.85326817229374     -0.58283422641304
  C   0.96711703223538     -0.61001605625226     -0.90890784453643
  H   -0.92204915058140     -1.69465530049429     -0.65193305984990
  H   1.65320470818940     -1.29475899954561     -1.40657835267939
  C   -1.47617728476280      2.85634902364967     -0.80826256737049
  H   -1.64649276615196      1.05549821723072     -1.97603400420722
  N   -0.45293954474414      3.78825143728083     -1.05797633438625
  C   0.72628337885743      3.20153070740088     -1.54823689898066
  H   0.73311158833940      1.38137165281892     -2.69635763488321
  O   -2.55338420697910      3.12214879646898     -0.33898619615468
  O   1.73994382788910      3.80346840125137     -1.79958088193514
  O   0.43803278754887      1.08152715869671      0.56037556525450
  H   -1.58308745099709      0.55356013742602      0.74800785003614
  C   2.72132000675875      1.22971494352659     -0.33685708888957
  O   3.35157832840234      0.19934085401813      0.37815870502132
  H   2.75440666771662      2.18821511643037      0.21684295113579
  H   3.22197608433225      1.41079737913112     -1.31044135146484
  C   4.68420444439771      0.48136126970491      0.71600245212427
  H   5.08153768905117     -0.38543824959799      1.26439186988031
  H   4.76722293570766      1.37810955690701      1.36319349046666
  H   5.31415086043246      0.65208056920457     -0.18150162136361
  C   -0.57632099907765      5.18058248554409     -0.79877551281083
  C   -0.48707817957890      6.09846644614021     -1.85041257629163
  C   -0.58811535153700      7.47363073725164     -1.65346542176667
  H   -0.50554031980980      8.14872762305592     -2.50017914010357
  C   -0.80762848924344      7.93785784681363     -0.35075012623183
  C   -0.91699400120891      7.03829141497964      0.71998706213430
  H   -1.09072215941584      7.43177166928676      1.72266454348300
  C   -0.79671658287562      5.67095951918357      0.49377674295018
  H   -0.87573618536761      4.96565295428511      1.32248516164681
  F   -0.30844309223915      5.64250731381373     -3.09384724737468
  O   -0.93520156231221      9.26445132476976      0.01362772858533
  C   -0.88269174126354     10.34236240658329     -0.82367661681220
  C   -1.06320523924165     11.60738166448057     -0.02378786939001
  H   -2.03760791568122     11.59075443792467      0.48929840169327
  H   -1.00504277931471     12.47369300937906     -0.69348155385718
  H   -0.28701532984017     11.67558564058392      0.75428172304611
  O   -0.71983791431496     10.28068283799165     -2.01229154477289
