72
Coordinates from ORCA-job 46_0.0
  C   0.81326696108859      3.64942303427918      0.80504205044670
  C   0.84629498956353      2.12760869451329      1.15589160075142
  C   0.78176635828508      1.32845368575120     -0.12859863271918
  C   2.13426313732533      3.86379466750181      0.02433079919070
  C   2.83980152960714      2.41672566243884      0.05695086935322
  C   1.95157441969990      1.45517892632847     -0.79347559227537
  H   -0.08338714560242      0.74999632147514     -0.45620567058892
  C   -0.30289480297430      4.08911892336688     -0.12356132476578
  H   0.75012556343393      4.24763812457272      1.72775582221725
  N   0.29227030382220      4.55886414248594     -1.29727281429420
  C   1.69070377454310      4.48765684454491     -1.29681196771522
  H   2.81747677195699      4.57667410752137      0.50998493255830
  O   -1.49463076750753      4.05855583649159      0.07400190396115
  O   2.37026147201618      4.91362786477658     -2.20159089350778
  C   2.34421433265380      1.98907110974550      1.47563096970769
  O   -1.30610691272661      9.16833938394200     -2.66538777909763
  H   -3.48213830117071      8.15322727264662     -4.64254945454509
  C   -2.51413969628124      8.67515908743274     -4.70483054062563
  H   -2.67767648643831      9.75722552963906     -4.77499366371722
  C   -1.68824793879436      8.36765293080331     -3.48028604196763
  H   -2.00380535953089      8.30769091203190     -5.60843587155490
  O   -1.41890636697771      7.04413413928171     -3.39475741324267
  C   -0.46931144273414      5.11272245197283     -2.40435911525969
  C   -0.64535353069642      6.62215877955008     -2.26872150027427
  H   -1.45360751981060      4.62329313387403     -2.41330749401387
  H   0.06401640765235      4.88377479972924     -3.33773151359936
  H   0.32805641019468      7.13790680079833     -2.26588028653996
  H   -1.17076712344456      6.87993598001662     -1.33493167016713
  H   0.12944800850433      1.84121626010799      1.93569259463830
  H   2.63193617751167      0.95566955172202      1.71603913477256
  H   2.68934804803922      2.66300465161331      2.27649556688131
  C   1.50637435348367      0.73922681453066     -3.19096335381722
  S   2.25845331768466     -0.20279121020259     -4.44581480115069
  C   2.31092005707601      0.78999083685791     -2.06051623400583
  C   3.65621953748020     -0.56642072124923     -3.45609253856035
  C   3.52554213627334      0.03900491397573     -2.22852383229510
  H   4.26310090837581     -0.07375252688054     -1.43538597016707
  C   0.16455376238353      1.35821354965069     -3.44553286299818
  H   0.10351628190730      1.78739608915910     -4.45874028675467
  H   -0.03378638672044      2.15768917855429     -2.71910873773101
  H   -0.65262699182489      0.62094154692718     -3.35531451177800
  C   4.76158079188767     -1.39491403584005     -3.96157239927996
  C   6.05847771042293     -1.26130437607783     -3.42283219147383
  H   6.24857402600891     -0.51323387704271     -2.64962735644641
  C   7.11008895243007     -2.05256491785246     -3.88675465713451
  H   8.10735305212987     -1.92927733499552     -3.45558408790758
  C   6.89860640499708     -2.98659098195135     -4.90683295388335
  H   7.72513326904690     -3.60168716167846     -5.27198764700836
  C   5.62059398648772     -3.12254366472559     -5.45767523585461
  H   5.44093419573389     -3.84944804893982     -6.25444412251078
  C   4.56439487743797     -2.33970884214776     -4.98875435693346
  H   3.56610442521061     -2.47303975831026     -5.41427030026509
  C   7.68378143968996      1.73282533711030      1.65170086451210
  S   6.81377971078632      2.54675172969000     -0.90342312308132
  C   6.53876420868703      2.06929001832664      0.74341263874188
  C   5.10238149633931      2.71713573105745     -1.23071164100043
  C   5.19776215899870      2.04530755167105      1.00865088107494
  C   4.35379288917214      2.41110453084768     -0.10582137070833
  H   4.82800970318641      1.76735857965380      1.99316846816154
  C   4.73506683691946      3.16914949458251     -2.61434255506811
  H   5.41597490208756      2.72908967577706     -3.35977773147812
  H   4.78443274520961      4.26526865391302     -2.70428705573086
  H   3.71322675117746      2.87729348145838     -2.87733631104625
  O   7.17011561360173      1.52968764469498      2.97110236229328
  H   8.43940184736043      2.53765390771713      1.67057279762671
  H   8.21365386821136      0.82096694541778      1.32319689279485
  C   8.07336830903670      1.19125259433919      3.92021076709090
  C   7.40769621240092      1.01469037129633      5.26266993421407
  H   6.93682915457930      1.96062433530232      5.57348117376042
  H   8.15500008671347      0.70829118847513      6.00441300505948
  H   6.60935933210333      0.25962473930293      5.19423460402355
  O   9.24908279461731      1.06144840664936      3.69129683270881
