71
Coordinates from ORCA-job 47_0.0
  C   -0.70667099881508      1.93678686388861     -1.54418627925863
  C   -1.41338904831198      0.51725242581770     -1.61795394465349
  C   -0.77984181999992     -0.19515976603560     -2.81066653878398
  C   0.70943834238051      1.53879161579467     -1.07570673197865
  C   0.56970525838263     -0.01937535562917     -0.97626910334379
  C   0.45583302077659     -0.55452231456209     -2.41413067535496
  H   -1.24160297263535     -0.29139737230471     -3.79212077959891
  C   -1.25909917478526      2.82422701163188     -0.43126999363053
  H   -0.76873910314483      2.47251571770839     -2.50115072334263
  N   -0.28685402744953      2.92035056019062      0.56811297371253
  C   0.87610905280273      2.18370108804880      0.29566838732687
  H   1.53993278545636      1.84179443282449     -1.72633686252840
  O   -2.34453906454751      3.35021891362150     -0.38771473981059
  O   1.81600640096724      2.08527697751326      1.04152924453308
  O   -0.77331496962799     -0.14701776843145     -0.51607288984279
  H   1.28335976572482     -0.50836647782938     -0.30381677857753
  C   -2.92766933777036      0.53777059483790     -1.49959700371901
  O   -3.54057800809320     -0.70057728136562     -1.87079275235381
  H   -3.32960819189049      1.35243092943284     -2.11615333262840
  H   -3.20244523057335      0.71226708218128     -0.45131627041196
  C   -4.00236908001403     -0.80905969475480     -3.14200279612721
  C   -4.78406422117736     -2.08113331468452     -3.32962154558928
  H   -4.15746528003547     -2.95048607628785     -3.08147882015840
  H   -5.12642761902973     -2.15204718695463     -4.36869202277453
  H   -5.64517301079331     -2.09334836202159     -2.64337524979275
  O   -3.79888808914534      0.02568635514012     -3.99014890572416
  O   -0.58461464440698      5.55666071812835      3.62198396105237
  H   -0.33145856960541      7.64825424072315      1.32821127610708
  C   0.29474421990860      7.27033852607730      2.15173331868841
  H   0.21964090254882      7.93967206674223      3.01712867554937
  C   -0.16000397016288      5.88778876124525      2.54396362997102
  H   1.33218446707173      7.23691964837554      1.78480650079406
  O   -0.04033091679913      5.02209479073432      1.50832840599755
  C   -0.46936679604580      3.68304582000100      1.76906394830552
  H   -1.53251383681694      3.67851905332475      2.04645068992600
  H   0.13951341353607      3.24025868884865      2.56930555223035
  C   1.51341735269715     -1.23513455969307     -3.14771020800537
  C   1.39418810810241     -2.27796176672031     -4.00757542801128
  C   2.75512874385192     -2.74573290060323     -4.47811149130830
  C   2.96529044813198     -0.87451612536369     -2.92892956919737
  C   3.71884416625375     -1.59594393513800     -4.08042507648711
  F   3.41129061330747     -1.32239351355745     -1.72502537870444
  F   3.18418462899831      0.46436689941075     -2.95683204089515
  F   2.80713780844176     -2.99646720559882     -5.80554442063226
  F   3.11844645900959     -3.89221101289887     -3.84233914613924
  F   4.92995637737155     -2.03044363958873     -3.71046539628429
  F   3.85490400298796     -0.74902327477469     -5.12155832288213
  C   0.17542079200193     -3.03563633166809     -4.35664002435652
  C   -0.40528703100608     -3.02091260939864     -5.60995837718149
  C   -0.48522831733237     -3.90893855662181     -3.40888084443257
  S   -1.78431472166128     -4.07234458412102     -5.64513358610496
  C   -1.57268903444210     -4.55129569970423     -3.97119879369661
  C   -0.00840838938493     -2.23737824935572     -6.82638095582769
  H   0.77814923309227     -1.51097848616044     -6.57970050207576
  H   -0.86508292664573     -1.68686254014723     -7.24841730913544
  H   0.38665583798535     -2.89378339797081     -7.61955274611230
  C   0.02050751765171     -4.11282867249820     -2.00533482071405
  H   1.12080462203003     -4.11785415659381     -1.98666501121547
  H   -0.32929026563978     -5.06580258079218     -1.58538181814670
  H   -0.31606758390512     -3.30463123602914     -1.33229543505118
  C   -2.50009710281143     -5.53672657785034     -3.38200259821500
  C   -3.00321127777067     -5.37806605937407     -2.07373813711221
  H   -2.72073047265383     -4.50072536312360     -1.48831634281254
  C   -3.88139047594695     -6.31652143003341     -1.52551298518408
  H   -4.25941948185493     -6.17185344182541     -0.50981327087664
  C   -4.28532317279208     -7.42744114285940     -2.27192798853880
  H   -4.97318203878443     -8.15992296652417     -1.84169896749050
  C   -3.80475498398210     -7.59192347958188     -3.57526414880473
  H   -4.11233581049367     -8.45748768797894     -4.16816438875930
  C   -2.92202200888616     -6.66019261441720     -4.12314700331431
  H   -2.53698126380014     -6.80921301281514     -5.13515929050370
