70
Coordinates from ORCA-job 48_0.0
  C   -1.20033038356312      0.34363539222531     -1.67275499918632
  C   -1.63400556785065      0.42263401575520     -4.44483447780182
  H   1.56316452660679      0.04270307680659     -1.06350199915914
  C   1.34524799039735      0.06035876704236     -2.13141779777109
  C   0.03018152001201      0.21155496692993     -2.58763733024969
  C   -0.20402062683070      0.24477718888799     -3.97739196304280
  C   0.86286591885056      0.14200120806065     -4.87453801110363
  H   0.66732782240879      0.17740775111147     -5.95044067238419
  C   2.17267879710062     -0.00568911507806     -4.40819253993631
  H   3.00178983302872     -0.08385094873781     -5.11643124010035
  C   2.40976170736602     -0.04890321984095     -3.03398126153487
  H   3.42909817356478     -0.16176172854210     -2.65476892977703
  C   -3.38829478283798      3.52386469010956     -2.01961944577390
  C   -2.63597566212787      2.49832139496912     -1.43331879769901
  C   -3.56851365094789      3.56234661340777     -3.40233607206160
  H   -3.83107493330427      4.29595347529132     -1.38459345744233
  C   -2.05206237850379      1.50011385620058     -2.22294402831216
  C   -3.00419627206424      2.55916522486682     -4.19659490466959
  H   -2.52198423542691      2.49521618883442     -0.34845977486034
  C   -2.25851879734733      1.52851719763814     -3.61771083337859
  H   -4.14765792286031      4.36681001512985     -3.86352421409779
  H   -3.14594624202090      2.57728394165523     -5.28145538027935
  H   -0.55339483715811     -3.20212719224591     -0.82868690612389
  H   -4.36668143002082     -0.80213302782005     -0.15988158109023
  C   -0.69511891159948     -3.18398516248963     -1.91355045270806
  H   0.44832273562786     -4.99164810521193     -2.24659317612645
  C   -2.06529768890790     -1.04741341336405     -1.66539625571271
  C   -0.13079358156031     -4.18717268740232     -2.70779467680677
  C   -4.56218407521760     -0.76675782892890     -1.23579176596941
  C   -1.44075980821309     -2.15332417056198     -2.49245335473565
  H   -6.70111476864791     -0.54089957998134     -0.99397306619110
  C   -3.49526723586540     -0.86955193212210     -2.13289945690797
  C   -5.87198129187831     -0.61908009685461     -1.70218344882684
  C   -0.31097211915763     -4.14869537865603     -4.09051955038491
  C   -1.64717242973952     -2.12491196810023     -3.88722855975992
  C   -3.72944946953800     -0.83636177512543     -3.52265723188499
  H   0.13182136745422     -4.92080642516035     -4.72550864333757
  C   -6.10903125972552     -0.57588977873447     -3.07639934124476
  C   -1.06325670929003     -3.12314052681748     -4.67683162023639
  C   -2.49889398687859     -0.96843994082247     -4.43747927129529
  C   -5.04448940127923     -0.68517052627562     -3.97893426774683
  H   -7.12835550208862     -0.46303422850009     -3.45564499257903
  H   -1.17724591528485     -3.12003628014372     -5.76169213573006
  H   -5.26237707367439     -0.66752693430428     -5.04685686027771
  H   -1.61087453795492      0.75176976780039     -5.49391921848139
  C   -0.80964783614134      0.55332167972619     -0.20228190907583
  O   0.02135538231555      1.70091022611489     -0.03253411282667
  H   -0.24912400767240     -0.32593851025401      0.15641044433864
  H   -1.70082918369568      0.65822367399851      0.43093744253161
  C   -0.23801858838255      2.53849687979093      1.00791114483174
  O   -1.17041269099498      2.41242628221911      1.77630447052242
  N   0.69796703338110      3.52286423299932      1.04395575314620
  C   0.66381832958618      4.60499265230274      2.00205504617800
  H   1.39323036589002      3.51761816706795      0.30686812732963
  H   -0.13453519106312      4.39334723377827      2.72562729282365
  H   0.45097384076013      5.57596802671693      1.52052402324312
  H   1.62030783720685      4.68881827907349      2.54528630319245
  C   -2.88944413406083     -1.17829475818268     -5.90793296784537
  O   -2.52920342003392     -3.03678849910398     -7.88704877358493
  O   -3.72023817177410     -2.32608426324911     -6.07743209582431
  C   -3.46161899583857     -3.16288494133041     -7.11869243056698
  N   -4.39729753006081     -4.14756601065712     -7.15448421938107
  H   -3.56471019501808     -5.01795368647344     -8.83618152912388
  C   -4.36268030051497     -5.22995515627037     -8.11229483511055
  H   -5.09205988412269     -4.14295189581941     -6.41692075311113
  H   -5.31930668265830     -5.31460122555954     -8.65514918423730
  H   -4.14899149128655     -6.20065313876628     -7.63056734983546
  H   -2.08854494506824     -1.37646676951206     -0.61628893050014
  H   -3.45003616431184     -0.29917160995298     -6.26687804708496
  H   -1.99821027949215     -1.28317962955764     -6.54107894524878
