60
Coordinates from ORCA-job 49-_0.0
  C   -1.64238475473901      0.27898472596938     -1.63602537858366
  C   -1.56808016429987      0.71267591104651     -4.41800561188976
  H   0.92233745438415     -0.31373498351959     -0.59486481470241
  C   0.92738451516686     -0.10288056081555     -1.66228745074937
  C   -0.26708298889081      0.22738893431497     -2.31357536476263
  C   -0.25385770042739      0.42437447355435     -3.71085700504442
  C   0.95414573181393      0.35327415417855     -4.41241165163955
  H   0.95720631328197      0.52145743692995     -5.49349217831042
  C   2.14873908257478      0.06237941144495     -3.74852816781270
  H   3.08798284471126      0.01378378133710     -4.30603328413632
  C   2.12883966110916     -0.17885036797942     -2.37381578231557
  H   3.05275344437986     -0.42966818940078     -1.84568510429279
  C   -3.76095346194477      3.53757884029127     -2.05713261783209
  C   -3.17629684529519      2.40984740086021     -1.46988585294017
  C   -3.60957572780157      3.78315868138841     -3.42091644838963
  H   -4.33834143176778      4.22546959651815     -1.43376003066038
  C   -2.42098181104932      1.50430821172434     -2.23198221440063
  C   -2.88415742360323      2.87592001970533     -4.19699694901096
  H   -3.33710689270595      2.24336409571200     -0.40612296303103
  C   -2.30284688040610      1.74777798477970     -3.61395216627271
  H   -4.05790877160541      4.66810563259821     -3.88027161979270
  H   -2.76930030083115      3.03993006492520     -5.27252974994206
  H   -0.69815399215343     -3.46502422023829     -1.48431131327042
  H   -4.94827650987114     -1.02044476780426     -0.68561039174484
  C   -0.87337961149345     -3.23723106963500     -2.53433646535820
  H   0.27163544910267     -4.95005155411901     -3.16967574998111
  C   -2.39460190698844     -1.18583027023279     -1.90086909769934
  C   -0.30702834181548     -4.08187413976760     -3.49600522407627
  C   -4.96559991676313     -0.83008658451538     -1.75671283447744
  C   -1.62981861165813     -2.11510994512076     -2.90842527067512
  H   -7.09276368522074     -0.46689050297006     -1.78488804685958
  C   -3.77929102457849     -0.89877765056726     -2.49691442962563
  C   -6.17556617915730     -0.50609104036485     -2.37875116762668
  C   -0.47810258491928     -3.82101331124222     -4.85459228674449
  C   -1.76633388058714     -1.84506532362483     -4.28400316162638
  C   -3.81029304434275     -0.57884032725496     -3.87140214490733
  H   -0.04529374234173     -4.48451912790491     -5.60792846396386
  C   -6.21254095409999     -0.23346586893301     -3.74716451412266
  C   -1.20366360616152     -2.69165526182230     -5.24172888369659
  C   -2.50628843340460     -0.59028117063024     -4.65282910753725
  C   -5.02646636075433     -0.26232196158295     -4.48533279170415
  H   -7.15815896507990      0.01168476183767     -4.23814312297372
  H   -1.33448293853653     -2.45871979143456     -6.30263287622728
  H   -5.04214682995002     -0.02836347115518     -5.55394756258915
  H   -1.34393354503978      1.10821877903668     -5.41839859886474
  H   -2.74517422499512     -0.60046064595705     -5.72530364483356
  C   -1.66276223101370      0.57190734008626     -0.12360740122000
  O   -2.62181323637547      0.34184529670436      0.57885206390327
  O   -0.59818293264075      1.25128116354029      0.30998012512768
  C   -0.61576157365006      1.65477605285185      1.68146738830532
  H   -0.75381244824868      0.78403714281048      2.33907695277990
  H   -1.43254774634694      2.36930951915671      1.86591775883341
  H   0.35461934562664      2.13125066662895      1.86814820340137
  H   -4.34691626414015     -4.15374890394642      0.76230319442030
  C   -3.37678543504567     -3.64206323313483      0.73828341084451
  O   -3.41425793867008     -2.78139552990178     -0.40291119771543
  C   -2.35025762963011     -1.99726523303779     -0.59143843745870
  H   -3.22300559946697     -3.05823778739306      1.65769930854406
  O   -1.37587161979187     -2.03453736274256      0.12645201581078
  H   -2.56147514185070     -4.37582992118255      0.64560617212147
