60
Coordinates from ORCA-job 49_0.0
  C   -1.26005199620326      0.56267931743472     -1.79505093764469
  C   -1.73137223185194      0.31063317289329     -4.54761880172873
  H   1.52268102343152      0.51437818679211     -1.20050321069082
  C   1.29638610570415      0.43772724030881     -2.26576293743592
  C   -0.02835381278074      0.45220105998303     -2.71507498879576
  C   -0.28593867353685      0.32168111342894     -4.09338015872930
  C   0.77704200861168      0.21852727285670     -4.99593875836826
  H   0.56399513211175      0.12808010666406     -6.06491073191816
  C   2.09892155379165      0.22420631627227     -4.54072380897889
  H   2.92448904981265      0.14617857612911     -5.25316851871653
  C   2.35602941279840      0.32546187323339     -3.17243421676522
  H   3.38501840697739      0.32189757088231     -2.80314999221317
  C   -3.76666361177888      3.45567332972412     -2.41057214829704
  C   -2.90170978619290      2.58146675829746     -1.74326955368001
  C   -3.96668293567555      3.32809578552763     -3.78613034450763
  H   -4.27983329682672      4.24112659534149     -1.84937350667274
  C   -2.22699002764841      1.57406639107449     -2.44114346519419
  C   -3.31199757964117      2.31074123308146     -4.48700027622281
  H   -2.76035802317714      2.70197583493360     -0.66753045371527
  C   -2.45377256129070      1.42859028348462     -3.82334087716937
  H   -4.63309790166367      4.01590588164071     -4.31340130796719
  H   -3.47006457335293      2.19463963543753     -5.56299050456265
  H   -0.23814206565467     -2.77142082397076     -0.60063729449635
  H   -4.27219108461753     -0.70479733279288     -0.09878130525869
  C   -0.39620233344717     -2.88751719177575     -1.67662872806429
  H   0.92488736294994     -4.59269135749760     -1.85021624113645
  C   -1.97682032031459     -0.88739760679102     -1.61604175835178
  C   0.25848238564544     -3.90487656315303     -2.37749385532907
  C   -4.48523647878164     -0.79524811468993     -1.16775350860169
  C   -1.25441353398753     -2.00536174962409     -2.34029930953206
  H   -6.63268599574933     -0.72282915307408     -0.91054838392087
  C   -3.42224860442872     -0.89843727895508     -2.07030162009045
  C   -5.80711025829366     -0.80089470725848     -1.62297935642030
  C   0.05847821029557     -4.03245771098553     -3.75305415647330
  C   -1.48116610180713     -2.15083164763457     -3.72249969529588
  C   -3.67982113340147     -1.02898248870666     -3.44860783960801
  H   0.57164900773728     -4.81791964015274     -4.31423957909090
  C   -6.06420627394752     -0.90215384149928     -2.99127119631885
  C   -0.80645486897083     -3.15823970967167     -4.42036882310062
  C   -2.44811394414802     -1.13945851844181     -4.36861145723038
  C   -5.00455979394676     -1.01446711840371     -3.89793091156878
  H   -7.09319289663139     -0.89855745488482     -3.36056196444609
  H   -0.94778946581201     -3.27873674721131     -5.49611385399389
  H   -5.23084622564019     -1.09113907760642     -4.96318757801483
  H   -1.76813409513295      0.50175635450324     -5.62563726430564
  C   -0.83297576525504      1.05213478050080     -0.39556990601723
  O   -0.99786233468990      0.45721877714326      0.64352929112273
  O   -0.23469657525415      2.25030800787491     -0.45207087294729
  C   0.21265130855198      2.80413512989587      0.78611691797315
  H   -0.63108847563740      2.94503333969591      1.47908404597225
  H   0.67034400065195      3.76989360388881      0.53877848762224
  H   0.94930801939559      2.14208056017117      1.26675076039810
  O   -2.70979723548519     -1.03426240946781     -6.80725691030763
  C   -2.87500507487275     -1.62901123404321     -5.76811327951653
  O   -3.47331419888514     -2.82716914457507     -5.71160003479834
  H   -3.07628852375495     -3.52256983782930     -7.64237825733632
  C   -3.92029756904184     -3.38118835193210     -6.94983359356869
  H   -4.65650913184806     -2.71902298842074     -7.43099074339194
  H   -4.37840772228035     -4.34673386872736     -6.70243743627007
  H   -1.94005789512809     -1.07852041931905     -0.53802328831069
