27
Coordinates from ORCA-job 51_0.0
  C   1.30666330708108     -4.90807715380181     -4.33731185764430
  C   0.59672542707393     -3.98381437366202     -3.34723178083960
  H   0.97339823445296     -4.71954459455694     -5.37196650952536
  H   1.10441804056531     -5.96960812119811     -4.11400216800509
  H   2.39878472845671     -4.76477035674854     -4.30941358058135
  C   -0.92900471003734     -4.15190780899284     -3.34999913679500
  H   0.83796575030719     -2.93170337188758     -3.57845138474460
  H   0.98054962356926     -4.16677764541957     -2.32704751218885
  C   -1.61765628092749     -3.26021333952354     -2.33428980643700
  H   -1.18673373164137     -5.20231982046176     -3.11976651934240
  H   -1.31529473773170     -3.95306286906300     -4.36179728324251
  C   -3.08939502116286     -2.85327249942759     -2.40423701764840
  C   -2.00283666565844     -1.83360095765405     -2.62504378839862
  H   -1.24189214719670     -3.40330041858508     -1.31437763780299
  C   -4.04360057199041     -3.29350633264642     -3.49855544238531
  H   -3.57345203747834     -2.75913886823281     -1.42503373831214
  C   -5.28002591481839     -2.39100764198307     -3.60967100865191
  H   -4.36104051218579     -4.33102974807483     -3.28477436535220
  H   -3.52727537736659     -3.32226337290309     -4.47061540102742
  C   -6.26675699969925     -2.85248795197463     -4.68326870305887
  H   -4.94913300162111     -1.35977139124087     -3.82371154740695
  H   -5.78946333212904     -2.34992297638348     -2.62974920849697
  H   -5.79679316865195     -2.86623107158627     -5.68129336609544
  H   -7.14285706309080     -2.18659684329387     -4.73853717981233
  H   -6.63631885845975     -3.87205435009089     -4.47937077178488
  Br  -1.69375810519931     -0.49362705778491     -1.24509527321180
  Cl  -1.74249687445976     -1.16677906282239     -4.25401801120769
