27
Coordinates from ORCA-job 52_0.0
  C   1.28391566468712     -4.94986602226766     -4.32354674845547
  C   0.60171160607172     -3.96502373469097     -3.37270635300739
  H   0.93152665520994     -4.81576287594910     -5.36037732368537
  H   1.07665497274989     -5.99527663560399     -4.03748678790195
  H   2.37766156587223     -4.81638790758279     -4.32498084329930
  C   -0.92543721777043     -4.11671334687121     -3.33923117959226
  H   0.84933038234924     -2.92982096169521     -3.66598469533728
  H   1.00283500910593     -4.09701346109933     -2.35123115653851
  C   -1.59128191502942     -3.15936192376017     -2.37049013226384
  H   -1.18805213717145     -5.15106848501036     -3.05009904717233
  H   -1.32504452836903     -3.96946354641485     -4.35517525908154
  C   -3.07939304283560     -2.76005383993778     -2.44487300313377
  C   -1.99962701208753     -1.76549785926264     -2.72082613296085
  H   -1.20513364927348     -3.22518927565317     -1.34536813462810
  C   -4.04418050957048     -3.27538457201595     -3.49439006102954
  H   -3.53883055487533     -2.59801239510675     -1.46152756887598
  C   -5.28639294551076     -2.38621765539396     -3.64350823140135
  H   -4.35316135367110     -4.30104611684483     -3.22067532437722
  H   -3.53902812392050     -3.35487418525184     -4.47005303083834
  C   -6.28337755755549     -2.91080509559362     -4.67789266384962
  H   -4.96209566579984     -1.36758109401772     -3.91994550156972
  H   -5.78509683784244     -2.29104072361993     -2.66174783167120
  H   -5.82392993585720     -2.98059765067632     -5.67847923697136
  H   -7.16169567838607     -2.25076372928421     -4.76159343093923
  H   -6.64795025694057     -3.91765069041670     -4.41141298010113
  Cl  -1.74426232567270     -1.12180215495761     -4.36106685233632
  F   -1.78833460790663     -0.79361406102130     -1.79726048898100
