27
Coordinates from ORCA-job 53_0.0
  C   1.30128712958272     -4.86289538866336     -4.36407838661759
  C   0.58933820564616     -3.95004790168278     -3.36533746174404
  H   0.93194771406252     -4.70014471820987     -5.39075802748460
  H   1.14201132311811     -5.92749168382639     -4.12185999046655
  H   2.38822770303272     -4.68301711082346     -4.37041369320196
  C   -0.92986261336500     -4.16595928375639     -3.32157064315214
  H   0.78967629640896     -2.89326832787082     -3.61470052399913
  H   1.00827757541904     -4.10678616261219     -2.35467330674093
  C   -1.61720164257795     -3.27923181437409     -2.30071216658090
  H   -1.14714736135970     -5.22211745042479     -3.07754744574342
  H   -1.34869749805240     -3.98972193004797     -4.32491231811740
  C   -3.10226597808072     -2.87139917680362     -2.37088591000436
  C   -2.01673899354389     -1.87988274914556     -2.64139376778216
  H   -1.23986741450193     -3.40084650548426     -1.27925256310000
  C   -4.05193492231099     -3.30868368126652     -3.47011119716999
  H   -3.57697386950097     -2.76041465206193     -1.38957081480648
  C   -5.25370091868404     -2.36667415379707     -3.62593174325777
  H   -4.40952763871569     -4.33036285376895     -3.24507374166142
  H   -3.51907853329139     -3.37466634589578     -4.43183652486785
  C   -6.23609220462382     -2.81508902565637     -4.70854851197977
  H   -4.88196432366122     -1.35220110183724     -3.85366436122328
  H   -5.78009152221215     -2.28496804917612     -2.65757720616341
  H   -5.74911312079452     -2.86632651795513     -5.69710533136004
  H   -7.08683884343343     -2.12028461611908     -4.79414195164439
  H   -6.64541640732316     -3.81647305555916     -4.49156092073813
  Cl  -1.69863501992607     -0.53690992658846     -1.52390523080025
  F   -1.84689712131114     -1.48051581659257     -3.93152625959193
