25
Coordinates from ORCA-job 56_0.0
  C   0.24805733762336     -4.03859931217979     -3.15367246954108
  C   -1.27282475584281     -4.16946667333519     -3.28137250025493
  H   0.57203191346540     -3.00908165259759     -3.37475001214898
  H   0.58899157269083     -4.28547599431036     -2.13438900358695
  C   -2.01226203666362     -3.26766880148760     -2.31037415910040
  H   -1.57917840736965     -5.21359235234315     -3.09017462384969
  H   -1.57441091003601     -3.94210381017385     -4.31506193160743
  C   -3.46316991001345     -2.79881065704507     -2.45793402562594
  C   -2.31495600666429     -1.81322264505776     -2.58082578260507
  H   -1.72862616153276     -3.42407781448792     -1.26221352162232
  C   -4.31641221474723     -3.15678504848243     -3.66735437122615
  C   -5.44380641869203     -2.14854436405323     -3.90795021292759
  H   -4.73596176062198     -4.16587207850020     -3.50402770156671
  H   -3.68153864942102     -3.23439243095567     -4.56044222664753
  H   -5.03307789107433     -1.15439568067405     -4.14414342325633
  H   -6.07687484642557     -2.04490303477351     -3.01406551993508
  Cl  -1.92553152761626     -1.12834172543126     -4.18327368972016
  Cl  -2.05155947097523     -0.62966660004730     -1.28957836811623
  H   0.76549547089564     -4.71427605111984     -3.85344320605857
  H   -6.08095057469544     -2.46316631074225     -4.74965561184336
  O   -4.18885657066796     -2.65729094660552     -1.27452708636102
  C   -4.58028931463901     -3.85715005784388     -0.64526102113093
  H   -5.05741197345403     -3.57958590410129      0.30579306967419
  H   -3.71440231258361     -4.51160594451922     -0.42725720570506
  H   -5.30828458093892     -4.43508410913203     -1.24545539523666
