21
Coordinates from ORCA-job 58_0.0
  C   -0.89773848235382     -4.11704505785533     -3.29870193014925
  C   -1.65679624590625     -3.27785779715063     -2.28721356713600
  C   -3.12723848216085     -2.88505998573937     -2.42652462437158
  C   -2.04482249883554     -1.84311625618883     -2.53258482819227
  H   -1.33580671431449     -3.45513246677079     -1.25370091249323
  C   -4.01037061058741     -3.28420160738467     -3.59444849627770
  H   -3.66909325166667     -2.83090400932590     -1.47472151622122
  Cl  -1.86113072862869     -0.67552608192178     -1.19959986653503
  Cl  -1.69590919951270     -1.09512016069023     -4.11311921728846
  C   -5.22481084447566     -2.36421751088093     -3.74975745052680
  H   -4.34424412818010     -4.32528233631461     -3.43493957057186
  H   -3.42890549577460     -3.28596261015438     -4.52861444078731
  H   -5.84446598474109     -2.35652714055779     -2.83746857175299
  H   -5.86514374485462     -2.68773713890343     -4.58594003518766
  H   -4.90846739143854     -1.32768895120604     -3.94796566626193
  C   0.61864901652369     -3.93065391589009     -3.19194473134530
  H   -1.22718061531405     -3.87390577196524     -4.32004800180968
  H   -1.15947996640938     -5.17751924847719     -3.13244574966038
  H   0.90066490919677     -2.88479257278450     -3.39305008163578
  H   1.15023502094100     -4.56924588421153     -3.91552783185893
  H   0.98631543849301     -4.18856349562668     -2.18469290993658
