41
Coordinates from ORCA-job 59_0.0
  C   -0.77976774256216     -4.03119351011283     -3.44852692080405
  C   -1.69667138171208     -3.78233355386324     -2.26676862101782
  C   -3.20825364091523     -3.53779100898788     -2.35433828238424
  C   -2.27353684075692     -2.43092617117696     -1.94791094441244
  H   -1.38606662991008     -4.32786849653326     -1.36709032670177
  C   -4.01888021217583     -3.50826166798950     -3.63593437070250
  H   -3.77299528174536     -3.94305184458688     -1.50560273082089
  Cl  -2.28157393774828     -1.89438848958269     -0.24720837036737
  Cl  -1.98485410270070     -1.06793079056253     -3.06179104267869
  C   -5.28493649669109     -2.63202482102207     -3.54084526690739
  C   0.68506638220447     -3.55126264795269     -3.20325513904053
  C   -4.55051939817894     -4.90555023776293     -4.08204447804306
  H   -3.39578166904323     -3.09520410862812     -4.44420145656233
  C   -5.99806915276447     -4.67312752684738     -4.58914909663470
  H   -4.53681798651208     -5.61730280637382     -3.24056914212715
  H   -3.90550246846919     -5.33838409765738     -4.86256086403623
  C   -6.17574670266195     -3.14184540138159     -4.68380260153022
  H   -6.72510374317924     -5.07329053118666     -3.86066975644603
  H   -6.20223449951382     -5.17904677488948     -5.54648776102740
  H   -5.05627205182661     -1.55641649488304     -3.60286071150622
  H   -5.79355180194591     -2.80336911217279     -2.57276858101887
  C   -0.63864823451020     -5.52176790851798     -3.83326346975605
  H   -1.17304394226756     -3.49216001288282     -4.32405495050158
  C   0.69517724673089     -5.56929228514244     -4.58429703468560
  H   -1.49316015191856     -5.89649661065990     -4.41844859019232
  H   -0.57285613351114     -6.14092386588478     -2.92006819018086
  C   1.62097096006869     -4.67271984206100     -3.73711057354431
  H   0.86658433084733     -3.35727048716302     -2.13349724981835
  H   0.86644291267075     -2.59631916560165     -3.72213234114679
  C   -7.62535687205109     -2.66433909050320     -4.64137317563203
  H   -5.72370869917277     -2.80138234598017     -5.63531861361030
  H   -8.11535123003159     -2.97362164832753     -3.70162636650304
  H   -8.21225149669879     -3.08276986687032     -5.47599413726613
  H   -7.69120363684077     -1.56572243727965     -4.70626960771256
  H   0.57352237939925     -5.13474774964204     -5.59407043876702
  H   1.09016284626594     -6.59001833334112     -4.71564543844191
  C   2.86475149056032     -4.16613154145621     -4.46577046390746
  H   1.95442323135924     -5.27692508027954     -2.87330087266164
  H   2.58884897321490     -3.55166723732793     -5.34062150087830
  H   3.48876742490428     -5.00064000018799     -4.82730503924907
  H   3.49280795978975     -3.54295439673671     -3.80755548077449
