44
Coordinates from ORCA-job 5_0.0
  C   -5.75245265565731      1.24996325656450     -1.48076952716553
  O   -7.00164951657142      1.17777340707135     -1.01975952810077
  C   -5.14041136942646     -0.15539361792304     -1.58493801053589
  C   -5.20503378031962     -1.09667799623292     -0.33403425421407
  C   -3.54578234747487     -0.23335591845430     -1.51010897168504
  C   -3.73074799867113     -1.48277409582961     -0.57174881913782
  H   -5.95512535302560     -1.89592352688231     -0.38414218425878
  H   -5.33953138666042     -0.50772922058284      0.58064458814957
  H   -3.61973532073515     -2.41434904641212     -1.14267279462979
  H   -3.07226291614644     -1.50403425496846      0.30603068303086
  C   -2.99456283099699      0.95918540552632     -0.70546391306089
  O   -5.18238779960955      2.26209800671834     -1.79120821497368
  O   -3.36941772369096      1.20601099111173      0.41460452026870
  O   -2.06489525065628      1.63526064988786     -1.37235803674200
  C   -7.73352630364112      2.41222762343135     -0.92007056348390
  C   -9.12108705023621      2.05228849985968     -0.42677771596800
  H   -7.76956828595738      2.90098072549589     -1.90594626200881
  H   -7.21872484631638      3.09196832786791     -0.22332922903268
  C   -1.51908041883648      2.81356705297860     -0.75486980051402
  C   -0.36084308716575      2.44111453755473      0.15843795171974
  H   -2.30750683676810      3.33560644077606     -0.19480050324332
  H   -1.17384306569277      3.44453833243060     -1.58452820909726
  O   -9.84347201738120      3.28003606602413     -0.34204703846325
  H   -9.08010614430936      1.56120298179225      0.55893594756895
  H   -9.62131722977933      1.35750276346835     -1.12075880378208
  O   0.18598578582328      3.67413544935616      0.62764781356244
  H   0.40437718426020      1.86651847554371     -0.38932075721118
  H   -0.70249012688668      1.82938949465248      1.00755755381326
  C   -11.12188375165367      3.19531475825459      0.10377518211489
  C   -11.77229765414589      4.55503076989988      0.14118317751959
  H   -11.19263744482639      5.23251474786163      0.78731233701755
  H   -12.79820046476816      4.46124393919023      0.51683126275955
  H   -11.77910466873486      4.99536536336749     -0.86817127817924
  C   1.18579697753859      3.58133993710955      1.53817726253421
  C   1.67650717307705      4.94820235756132      1.94425030692516
  H   2.08593659213799      5.47337661040518      1.06683249958028
  H   2.45150440070449      4.84614355250431      2.71331008443999
  H   0.83961269594416      5.55396227527543      2.32459794888256
  O   -11.63342827615892      2.15196690060916      0.41800766487116
  O   1.60401711897924      2.52724537769009      1.94253545482472
  C   -5.69237100769098     -0.80074437587580     -2.77716549711369
  C   -2.83014066085883     -0.45986640485189     -2.76185408124640
  N   -6.16702771983376     -1.32338171710976     -3.69623367347368
  N   -2.27218461718042     -0.69195490271791     -3.75021457226138
