20
Coordinates from ORCA-job 604_0.0
  C   -3.49247830176916     -1.71885042009163     -0.33374173538847
  C   -2.16252348442696     -2.41528266440816     -0.00414456561185
  C   -0.96715128042792     -1.44774649423184     -0.13765574446838
  H   -3.58232158394386     -1.61959577900574     -1.42759548021181
  H   -3.45257300323063     -0.69685921751293      0.07726226460973
  C   -1.90908966527750     -3.61717562972189     -0.90323271094188
  O   -2.42397314370060     -3.81773732204475     -1.97633632962681
  O   -0.97034466901118     -4.43781214290767     -0.38915132660519
  H   -0.83129027436085     -5.14638613038046     -1.04118898359811
  H   -2.17882243748234     -2.79307171554341      1.03247704413935
  H   -0.90730375039339     -1.03728607423609     -1.15894352122191
  H   -0.01793093229455     -1.95689724923906      0.08554164668318
  H   -1.07855235621496     -0.60463184534870      0.56192191428142
  C   -4.76948524963547     -2.37584634719840      0.23100433545414
  C   -5.12398294061360     -3.71838000511734     -0.37342573316115
  O   -5.91943976456655     -3.90274940185528     -1.25789802467757
  O   -4.43665173415849     -4.73136209847999      0.20855599291454
  H   -4.67915018199983     -5.54132636810134     -0.27362282135975
  H   -5.62481532710633     -1.71361282366834      0.03472268937326
  H   -4.66912991938574     -2.49886027090686      1.32211108941724
