25
Coordinates from ORCA-job 605_0.0
  Si  -3.76315272993470      1.59653654632175      0.27810403338059
  O   -2.10523518978291      1.71852937598686      0.33867887939902
  O   -4.21085586027028      0.47605521776123     -0.88841506100571
  C   -4.41844848611889      3.30609566510754     -0.13075246764235
  C   -4.43818719588408      0.92640864636599      1.88794813095040
  H   -4.02311783599571      3.66664470521943     -1.09551078689843
  H   -4.11359249564996      4.03362621297815      0.63994409079082
  H   -5.51939423274041      3.31175930880658     -0.18923971263078
  H   -4.07052765242653     -0.09646965693692      2.06988552468694
  H   -5.53981369342368      0.89012220377988      1.87048712429861
  H   -4.12933301038854      1.55598473549871      2.73846723852833
  H   -4.01429062391204      0.70569767146062     -1.80436986908187
  Si  -0.64138626455845      0.90241758613702      0.29060703264385
  C   0.70772665146781      2.17267220143036      0.61654917714527
  C   -0.44169143304348      0.13128490462199     -1.41914536489894
  C   -0.62190959010355     -0.43514712884483      1.62005678253240
  H   -0.79767621308272     -0.00195796172514      2.61906186928846
  H   0.35054542733013     -0.95598207851686      1.64675943283012
  H   -1.40192552802702     -1.19351362602699      1.43847650770056
  H   0.68266725065252      2.97796480127443     -0.13623744674340
  H   1.70938045304249      1.71120579758051      0.58649511809098
  H   0.57934942192308      2.63741864915039      1.60835241907691
  H   -0.41081934256644      0.90709178677439     -2.20283963092054
  H   -1.28993691070644     -0.53871902384031     -1.63821932394461
  H   0.48715508420004     -0.45905654036499     -1.49482369757668
