26
Coordinates from ORCA-job 606_0.0
  C   -8.84961125686947      1.94190371654628      0.64899561842168
  C   -7.32031491097533      1.91940369286611      0.60608090981023
  H   -9.26624971831523      2.51176179284028     -0.19918824910899
  H   -9.22308874588431      2.40602499887371      1.57632601404391
  H   -9.26741088720370      0.92190603518050      0.59593012001891
  H   -6.93353444187344      2.95097235979309      0.70196572377202
  C   -6.74998042660210      1.28562433914445     -0.66733935527064
  H   -6.93454631985427      1.37316996710689      1.48683032769917
  H   -7.13571007423656      1.83143957276770     -1.54945739600116
  H   -7.13520469572738      0.25265555132726     -0.76421647453011
  C   -5.21891597939729      1.26075373192852     -0.71798535178172
  H   -4.83463127300741      2.29374469724560     -0.61972313656061
  C   -4.64846749504948      0.62863842011706     -1.99170149528001
  H   -4.83400872427724      0.71439319550182      0.16390976645608
  H   -5.03337132737491      1.17500209616400     -2.87359601958823
  H   -5.03275704386919     -0.40435066667058     -2.08996562068042
  C   -3.11740303848607      0.60376056961217     -2.04234528941635
  H   -2.73217460571353      1.63672740237141     -1.94546605145815
  C   -2.54707002969322     -0.03002040607273     -3.31576532560202
  H   -2.73167730853781      0.05794217158301     -1.16022740283662
  H   -2.93283585024009      0.51621592941846     -4.19651447568464
  H   -2.93385534624651     -1.06158690518914     -3.41165148751080
  C   -1.01777367373464     -0.05252652808309     -3.35867886531656
  H   -0.59997028761815      0.96746937574811     -3.30560871573086
  H   -0.64429754561909     -0.51664536213816     -4.28601108772360
  H   -0.60113899359356     -0.62238974798271     -2.51049668014052
