29
Coordinates from ORCA-job 609_0.0
  C   -21.55924956114906     -7.97845456944925      4.11799417531096
  C   -21.51541380095271     -6.45256950347809      3.94549060709350
  H   -22.59056137506853     -8.33936635267904      4.26551786734096
  H   -20.96845066811951     -8.29449328660861      4.99582484330451
  H   -21.14472475745042     -8.49641714472950      3.23697034629574
  C   -22.10957872927416     -5.73447512529321      5.18476432894597
  H   -22.15242360174393     -6.20522139279547      3.07454710359711
  C   -20.08207881157754     -6.00179360660723      3.62436000413726
  H   -22.72655774003763     -6.45639697994518      5.74790324384068
  C   -22.99467779976240     -4.49718353125715      4.91904307701855
  H   -21.29033984032994     -5.45329190811868      5.87425556868082
  H   -23.82547607577046     -4.83242877590837      4.26614867155418
  C   -22.26126202348365     -3.37340828501790      4.17560050488132
  C   -23.63190242127398     -4.02528064512324      6.24451176121761
  H   -19.39498405269372     -6.27799733786194      4.44339266698574
  H   -20.00564679872538     -4.91310974919412      3.48556939646452
  H   -19.70894640454129     -6.48256919158248      2.70451677170353
  H   -21.86913690236154     -3.71606218815139      3.20579104489533
  H   -21.41096685997460     -2.98961122983010      4.76630677182113
  H   -22.93158620313524     -2.52628812471959      3.96435713805794
  H   -24.11028708859172     -4.90552140562224      6.70780230386567
  C   -24.67354817578569     -2.88863153228007      6.14883150253270
  H   -22.82780975800782     -3.72842375189263      6.94497836533635
  H   -25.16062580130436     -2.91868309840911      5.15655763718331
  C   -24.13533675313949     -1.47970328324116      6.42042959248764
  H   -25.48280060284556     -3.08912299260804      6.87228103250647
  H   -23.34441096915308     -1.18902400517656      5.71153831424687
  H   -23.70571217989977     -1.41049820079725      7.43435567752197
  H   -24.93625424384624     -0.72508280162229      6.34993968117152
