22
Coordinates from ORCA-job C:\Users\AIElement\Documents/60_0.000
  C   1.11705636350637     -5.18811783217771     -4.26843403332541
  C   0.34583974628952     -4.39267810310653     -3.25842505310032
  H   0.71859242257882     -5.05454062477380     -5.28627251955026
  H   1.09418879270840     -6.26681822328625     -4.03071555084999
  H   2.18247754683376     -4.89619222645835     -4.27722651271997
  C   -0.70668003113507     -3.60751697633035     -3.53072295321149
  C   -1.44359681730479     -2.83817162524918     -2.50040495029644
  C   -2.97497479247705     -2.68244716769931     -2.49554829567028
  C   -2.09692768912980     -1.50144617009505     -2.78363570201405
  H   -0.99342425854396     -2.89180640201265     -1.50379570166031
  C   -3.89175493915027     -3.30883729410070     -3.52885591327210
  H   -3.40956813369397     -2.65176739941316     -1.48932285242325
  C   -5.25612994156017     -2.61591141964142     -3.59073830241914
  H   -4.01852782290649     -4.37604947040573     -3.27399666354545
  H   -3.41987731645086     -3.28337212023744     -4.52251510646038
  Cl  -2.04229717916838     -0.82826945550066     -4.43083450439587
  Cl  -1.95933196174854     -0.22891762812250     -1.54431298137701
  H   -5.91557883940969     -3.10075756571247     -4.32821590769755
  H   -5.14642234618215     -1.55825814030686     -3.87913528903076
  H   -5.76738187558930     -2.64538918314837     -2.61405699778673
  H   -1.04839450355684     -3.51296644715657     -4.56665105861843
  H   0.68527357609052     -4.47126852506484     -2.21647315057474
