22
Coordinates from ORCA-job 613_0.0
  C   -9.21405389042168      0.47572037861116      0.64782880836101
  C   -7.69611798697705      0.59356028293374      0.54414303484940
  H   -9.66171683400038      0.21406695930813     -0.32435984572131
  H   -9.66607859080774      1.42186819906960      0.98626253274387
  H   -9.48846398572124     -0.30963593153229      1.37075633394952
  S   -7.24019600269945      1.90227393247975     -0.65747960990587
  H   -7.25339043535820     -0.36114303943806      0.21321066307772
  H   -7.25720512944448      0.84371402778602      1.52483598272460
  C   -5.41303772087532      1.78255475280943     -0.55549915475079
  H   -5.09860376470348      0.76128140288049     -0.82843724747974
  H   -5.09225109746587      1.97151605750372      0.48264579754732
  C   -4.77602659455828      2.79955543772995     -1.49725565240705
  H   -5.09681408806121      2.61059416287931     -2.53540033428545
  S   -2.94886828032371      2.67983444480916     -1.39527728112350
  H   -5.09045979827288      3.82082900448046     -1.22431743928219
  C   -2.49294655891918      3.98853253178993     -2.59691702691252
  H   -2.93187207002258      3.73837326141784     -3.57760290529085
  C   -0.97501078284210      4.10635761949358     -2.70062027034303
  H   -2.93566181152162      4.94324314581341     -2.26598927234648
  H   -0.52299825526241      3.16020237140925     -3.03904947909745
  H   -0.52733489551693      4.36801669718410     -1.72843908699913
  H   -0.70060142622407      4.89170430058126     -3.42355854730804
