26
Coordinates from ORCA-job 614_0.0
  C   -8.62029030861694      1.10405931011661      0.49003796874517
  C   -7.15613374729221      1.07173142981551      0.04625393403201
  Cl  -8.89126147921399      1.94112223596013      2.06989680386474
  H   -8.99679115676840      0.08248362930779      0.63170059583778
  H   -9.25821805318028      1.60518274226095     -0.25229431832216
  H   -6.50636736939592      0.96392158386316      0.93063732248133
  C   -6.67848869479377      2.22451423584960     -0.83485405866203
  H   -7.03229004109462      0.15616400597851     -0.55920706998154
  Cl  -6.91431950670050      3.84189410539236     -0.02186483254764
  H   -7.30218467835570      2.27401243308260     -1.73799625010008
  C   -5.20353802591617      2.13231984492451     -1.24151782754560
  H   -4.96452362697453      3.00682561840675     -1.86786889769663
  C   -4.76821397288418      0.85755642188967     -1.97118876996808
  H   -4.58456747553485      2.21852204922876     -0.33062489208937
  Cl  -5.86570864461239      0.56645444440235     -3.40766515727764
  H   -4.92146124184272     -0.02364860786169     -1.33191180827428
  C   -3.29709643893150      0.92918844296668     -2.41252427012010
  H   -3.23465577991719      1.37411191056458     -3.41858081363191
  C   -2.50031775027540     -0.37420943728125     -2.35954104735584
  H   -2.77715502192112      1.62709272564309     -1.73108069921993
  Cl  -3.21083190285689     -1.64173077736247     -3.46633940894969
  H   -2.58941754394502     -0.81499729186003     -1.35412750898214
  C   -1.03121819690680     -0.17900948073114     -2.70882731190511
  H   -0.92085982180689      0.22425032100218     -3.72760129777936
  H   -0.48742033341459     -1.13315246834707     -2.65613514095677
  H   -0.56264918684734      0.52733257278784     -2.00261724359508
