54
Coordinates from ORCA-job 616_0.0
  C   -9.62898811847773      1.29409310450058      2.10574747589564
  H   -9.16689717573419      0.33349892922416      2.37574969311752
  H   -9.19291107630251      2.08620162215633      2.74106690976928
  C   -11.11425822874648      1.21299189311145      2.27862562148809
  H   -9.35837671386255      1.53945086498584      1.06323777544082
  N   -11.68022365596890      0.15604670836401      2.72205731384813
  C   -13.64677137492503     -1.16399536338132      2.89238567449802
  C   -15.01854980648907     -1.11530271025674      3.55859352968984
  C   -15.70037342895198     -2.46589560734270      3.59860077385111
  H   -15.69714975279465     -0.40831709990492      3.04922163489489
  H   -14.92897229895660     -0.74234623650987      4.59358064489438
  O   -16.95908784632761     -2.36302705154343      4.07573059936366
  O   -15.20595895207051     -3.51316235599984      3.26248919150618
  C   -17.70206767790784     -3.58078886390030      4.19493084043275
  N   -13.01825230085101      0.14454036646052      2.93154389255225
  H   -13.54185178160614      0.88009231154615      2.44411939417908
  H   -19.45328903938204     -6.23281661126310      9.44517845265212
  H   -18.74991786272125     -7.38806340457870      6.87176328585909
  O   -19.29719353663554     -4.91285722610066      7.02544138071301
  O   -19.61405904071704     -8.15476294450748      8.61071241587884
  C   -19.63715041055114     -7.95124914730621      7.21121280694388
  C   -20.19460454958704     -7.02396446776002      9.24938901564109
  H   -21.42991481145376     -4.55874992485415     12.76018385709514
  O   -21.11191688011563     -6.34895913593303     11.32748450535921
  H   -19.63678109127047     -8.93873216128941      6.72502589876090
  C   -19.07255509561625     -3.21896695256918      4.76189348897593
  N   -21.63908311708039     -5.40495551357953     13.27615784337572
  H   -20.35271730487893     -8.27064393075627     11.05385028195170
  H   -21.24445721969105     -4.87653210899445     15.29059821977410
  C   -20.91463982883910     -7.50313880808474     10.50427978589650
  C   -21.50375411117254     -6.58372540649147     12.61113985225872
  C   -19.94373186625408     -5.14145045796028      6.02251593427857
  C   -22.03286000310500     -5.33066535542345     14.66514958410221
  H   -22.95980224630756     -4.74552466467999     14.79466183611086
  C   -21.33302072035744     -6.57610763223247      8.31282193957425
  H   -21.48471934598005     -5.48764783937865      8.28254584639546
  C   -20.92486999887961     -7.14054829922441      6.92763580573053
  N   -19.93349101587440     -4.37587735553932      4.89456596994282
  O   -21.69604764189508     -7.69035392053764     13.06891890813098
  O   -20.78929515782256     -6.18798077187812      5.86610577456402
  C   -22.22416115680556     -8.03326982676373      9.91972969166785
  H   -22.21276310025589     -6.35402560316080     15.02039299474685
  H   -20.48334935267398     -4.69795609384746      4.10686768898925
  O   -22.51692095203603     -7.20136739221944      8.80065170153975
  H   -21.74263532902535     -7.78755368890034      6.58638986548842
  H   -22.08467943473759     -9.08585243165018      9.60901363893875
  H   -23.05763948165770     -7.98713529594785     10.63479741074798
  H   -18.94624529629599     -2.76570825312265      5.75587138378667
  H   -19.56006485326423     -2.47469409973945      4.11207069923138
  H   -17.17424420374384     -4.27984644301163      4.86311472629106
  H   -17.78711800953090     -4.06412369811972      3.20689455402886
  H   -11.71360687540508      2.11136926581265      2.02100954058614
  H   -12.98934139284936     -1.86078493915614      3.43155162837083
  H   -13.74333847555624     -1.56477797076017      1.86259082019838
