53
Coordinates from ORCA-job 618_0.0
  C   -8.99204110218860      1.47091923509969      2.97556826012041
  H   -8.47534788361618      1.69459657244085      3.92295287363914
  H   -9.68163362107661      2.30279856228128      2.76004541389350
  C   -9.73984709712904      0.14488282037535      3.07995667430517
  H   -8.23577029489998      1.44110946075135      2.17483482347557
  H   -9.04273248003743     -0.67932776257064      3.30678556375266
  S   -10.59822662028280     -0.22658303512274      1.50238688080710
  H   -10.48814129631397      0.18140032548625      3.88951057229357
  C   -11.38492541571444     -1.81881897525508      1.94768891562516
  C   -12.19702015330274     -2.33265141724900      0.76417266938902
  H   -12.03719053210217     -1.68125200810407      2.82468440907449
  H   -10.61202433291747     -2.55297327061693      2.22679618588898
  C   -12.89192181900160     -3.64738244663159      1.05407279337080
  H   -11.56370965709193     -2.46983302808438     -0.12873650346656
  H   -12.96955633121207     -1.60248460120335      0.46550307732184
  O   -13.53295911164330     -4.09696937695544     -0.04811204741025
  O   -12.89258406199127     -4.22426679006648      2.11259685834473
  H   -13.58937757791346    -12.58322072712052      0.07431918822591
  C   -13.69001165275468    -11.77936189232084      0.81943954002636
  O   -13.74113484173907    -12.37668707150365      2.10074940478057
  H   -12.82635478514868    -11.09724458838511      0.72766534736841
  H   -15.76548641467004    -11.56032224685746      0.12161825805166
  C   -15.01268080494779    -10.98831494116494      0.67860834940363
  O   -14.89026572944334     -9.77676552324673     -0.07466094702101
  H   -14.62244155848951     -7.86914458127492     -1.34147184145275
  H   -12.75351239101560     -6.28246000325252     -1.16609447625273
  N   -14.09860090466647     -7.74081058310190     -0.48319068216277
  C   -14.12168430955745     -8.76999324428924      0.41199450144106
  H   -16.19895460562224    -13.64219740065042      2.61172593890752
  C   -14.25921443738402     -5.32774038887629      0.04971915342642
  C   -13.35044031394749     -6.52147699437449     -0.26880647755445
  C   -14.42148813098943    -11.49561961558135      2.98670769556491
  H   -14.61222806817094    -13.20240694371445      4.36124611412222
  O   -13.54532372319657     -8.79070643266043      1.47974214393798
  C   -15.52908965441819    -10.84681975830061      2.13352995548706
  C   -16.42314322012865    -12.73211668494408      3.19977190103561
  C   -15.18463028548756    -12.33555762449967      4.00372588989769
  H   -13.73947939871576    -10.76265609890086      3.44672401830949
  O   -16.70355778933950    -11.62442715270556      2.34922256440124
  H   -12.65953291561359     -6.69637192238849      0.56786335159010
  H   -17.29722843035923    -12.93199452813158      3.83522423244498
  H   -15.73685291438093     -9.79934623257089      2.39378299734403
  O   -15.50001414426669    -11.46383710373368      5.09409720837696
  O   -16.12728299631193    -13.25384805824543      6.34883110383156
  C   -15.97174093262083    -12.05722224648147      6.22569645626208
  N   -16.23379634395511    -11.11233239753732      7.16825082270259
  H   -16.03616724347853    -10.14961765290763      6.92285631931281
  C   -16.72389049185784    -11.44076960633955      8.48794655770251
  H   -15.98570006230164    -11.20349876810347      9.27452636562644
  H   -16.92387595299810    -12.52020936283245      8.51476469537686
  H   -17.65976280231593    -10.90244970692593      8.71549185238956
  H   -14.69549317784293     -5.43271547769472      1.05408740885324
  H   -15.06685918342746     -5.24941070295577     -0.69416233218327
