54
	Energy:     -31.2451271
C         -8.72331        3.75233        0.46375
H         -7.62850        3.66626        0.50164
H         -8.99868        4.57913        1.12789
C         -9.37947        2.43020        0.88425
H         -8.98256        4.03214       -0.56348
H         -9.03217        1.64403        0.20635
S        -11.23383        2.53266        0.82485
H         -9.05430        2.19089        1.90171
S        -11.96499        0.63090        1.32550
C        -13.82485        0.87980        1.45728
C        -14.67207       -0.40407        1.73514
H        -14.14741        1.32549        0.51140
H        -13.98243        1.60862        2.25816
C        -16.18379       -0.11834        1.96559
H        -14.29388       -0.88177        2.64695
H        -14.56324       -1.09990        0.89668
O        -16.94682       -1.26283        2.14330
O        -16.64699        1.01156        2.06330
C        -18.12851       -1.20062        3.04128
C        -19.57044       -1.07511        2.43449
O        -21.04900       -2.99257        4.40778
N        -20.49338       -2.24420        2.27017
C        -21.28310       -2.88646        3.21687
H        -26.23264       -5.63816        8.89442
H        -20.95321       -2.27622        1.36959
H        -23.99171       -3.66894        4.96213
H        -23.10673       -5.74794        5.85922
H        -28.02958       -6.28305       10.21777
H        -21.43093       -5.66351        3.58589
N        -26.81937       -6.37952        8.53974
O        -22.38313       -3.41829        2.59890
C        -24.10697       -4.54474        4.32094
C        -23.79450       -5.87404        5.01831
C        -27.85170       -6.94967        9.36953
O        -25.52278       -6.10287        6.74237
C        -22.42473       -5.82699        3.16296
C        -23.22624       -4.54246        3.04773
H        -27.52741       -7.92835        9.73454
C        -26.53322       -6.83745        7.28946
O        -23.15357       -6.70360        4.02675
C        -25.12395       -6.50506        5.41194
O        -25.52290       -4.63083        3.96810
H        -28.77418       -7.06790        8.79374
H        -22.30494       -6.30650        2.18632
H        -23.92067       -4.66342        2.20422
C        -26.05104       -5.92490        4.35674
H        -25.08573       -7.60159        5.36092
O        -27.10549       -7.76981        6.73720
H        -27.08216       -5.79875        4.70435
H        -26.06555       -6.56083        3.46336
H        -17.97643       -0.32186        3.68140
H        -18.06812       -2.07885        3.68872
H        -20.13195       -0.38842        3.07986
H        -19.49739       -0.61863        1.44122
