53
	Energy:     131.8669559
C          1.31832       -0.65859       32.59589
C          1.70185       -0.13810       33.83672
C          0.95452        0.86825       34.45673
C          0.12977       -0.20099       32.02242
C         -0.18296        1.37464       33.83418
C         -0.59799        0.83672       32.61930
H         -0.75472        2.17185       34.30254
H          1.26292        1.25610       35.42385
H         -1.49715        1.21565       32.13890
H         -0.27720       -0.63615       31.11821
H          2.58905       -0.52738       34.33005
O          2.15865       -1.63053       32.09690
C          2.21296       -2.06650       30.81401
C          1.67280       -1.47425       29.65849
C          1.83080       -2.37098       28.63428
C          2.95378       -3.20107       30.44165
N          2.63440       -3.42872       29.08825
C          1.32198       -2.39763       27.29444
C          1.69123       -3.39872       26.47261
C          2.94490       -4.49027       28.22637
C          2.53639       -4.47737       26.94607
H          1.33771       -3.47976       25.45115
H          3.52080       -5.32100       28.60220
H          2.78486       -5.27640       26.25564
H          1.14424       -0.53695       29.56473
O          0.39706       -1.36125       27.01229
C         -0.37301       -1.29147       25.88308
O         -0.31726       -2.01666       24.89858
C         -1.35905       -0.16190       25.99484
H         -1.36189        0.26527       27.00152
H         -2.36402       -0.54407       25.79064
H         -1.10178        0.62047       25.27684
C          3.81406       -3.97111       31.36544
C          5.02667       -4.78093       30.86302
C          5.87050       -5.64759       31.76522
C          6.11939       -5.37671       33.11696
C          7.03805       -6.15618       33.84821
C          7.71927       -7.21420       33.23860
C          7.46764       -7.51460       31.90657
C          6.55249       -6.73314       31.17871
H          6.39761       -6.97231       30.12727
H          5.64783       -4.54078       33.62681
H          7.23707       -5.91530       34.89050
H          7.97470       -8.32630       31.39466
O          3.64845       -3.94501       32.58336
O          5.36729       -4.70870       29.68621
O          8.65986       -7.89589       34.05932
C          9.50756       -8.94366       33.67106
O          9.56208       -9.47089       32.57211
C         10.37703       -9.35731       34.82831
H         10.19628       -8.73322       35.70738
H         11.42842       -9.25333       34.54468
H         10.16130      -10.39696       35.08940
