30
Coordinates from ORCA-job 622_0.0
  C   5.02855996138228     -5.63091447063641     14.66706304910705
  N   3.96503334310483     -4.66824482709693     14.88204996511993
  H   4.80407029042591     -6.29300329045241     13.81411457472391
  H   5.11855045932703     -6.23850425256271     15.57695796949122
  H   5.99433574475298     -5.13167034958638     14.47921981229966
  C   3.30497144881304     -4.54331789073265     16.06494409087434
  C   2.16314590273138     -3.50308845139791     16.07274711796650
  N   2.03359310838312     -3.00773805660706     17.42495416050708
  C   2.17042956366626     -1.68972005293033     17.75900227310686
  C   2.11910243682390     -1.40078228917418     19.24958448428360
  H   2.51426459853072     -2.22722147179351     19.86008684519881
  H   1.07019755207966     -1.22834489864147     19.54276881602330
  H   2.68615346014581     -0.48279651164055     19.45278978216748
  H   3.74290616500111     -4.01574582911920     14.13905333004799
  O   3.53895261566405     -5.22195964054194     17.05352159137320
  O   2.27710021929967     -0.79990239007777     16.92694159586365
  H   2.16039573555278     -3.71675041657484     18.14245474552663
  C   0.87502583008347     -4.19033295031035     15.55209078381066
  H   2.41570757071679     -2.64493267274383     15.43127105684387
  S   -0.35414096093660     -3.20788975724501     14.60018962072647
  H   0.37070069796112     -4.70996243379969     16.38066708946230
  H   1.14215100103680     -4.95806720767371     14.80531789793398
  S   -1.27460519068429     -1.90342373932814     15.94975933660571
  C   -0.54038182687983     -0.26352201733659     15.50172586268305
  C   -1.14546154617931      0.80905753132335     16.40250008636508
  H   -0.77548306829413     -0.07203857829398     14.44377589411040
  H   0.54757777418141     -0.32056054699731     15.63787953819763
  H   -2.24425279825941      0.84821975355196     16.32007418018005
  H   -0.74963722087173      1.79754559118770     16.11713555882216
  H   -0.88364286755892      0.63877211723199     17.45904889057671
