54
Coordinates from ORCA-job 623_0.0
  C   1.33261572746656      6.70851741766753     15.37641329493465
  C   1.00574735044907      7.57062719189433     14.32563491478774
  C   2.00379566304632      8.30499904963774     13.67841058519505
  C   3.33445516554860      8.16732339571102     14.08805355423030
  C   3.66313148617028      7.30481439386319     15.13555874374862
  C   2.66714627503377      6.55985726837503     15.79882769129112
  H   0.54269457113010      6.12808694520708     15.85568279804137
  H   -0.03645479888373      7.66342856136875     14.00771207245313
  H   1.74648858473323      8.97898651396337     12.85680827304500
  H   4.12380458099311      8.73559504476445     13.58804951193083
  H   4.70122280846261      7.20359814680457     15.46034166148376
  C   4.70707901273397      4.17653158937792     15.64226464273693
  C   3.91567577536063      3.74328516714447     14.55897789167315
  C   5.88910964291554      3.08991992196767     13.31610802244979
  C   4.49896266749579      3.20689354565136     13.40947242734758
  C   6.68748109718437      3.51503634416026     14.38228399982973
  C   6.10564431514443      4.05036356014557     15.53448976322871
  H   6.73877822837468      4.41223911311906     16.34418266068113
  H   3.86267771294212      2.87534793994616     12.58428530616132
  H   7.77620375171823      3.43628031548266     14.31582832959596
  H   6.34766500067239      2.66965374800690     12.41681139070811
  H   2.82865729618598      3.82153810933463     14.62920866937252
  C   3.06123026259178      5.65770385504504     16.90760818682451
  C   4.03799632436814      4.70323491594537     16.85863937977651
  C   2.49665439280232      5.70318329758010     18.33800666490871
  C   3.60355211635705      6.26137290174500     19.30158734026286
  C   4.73661393058610      5.16741986631197     19.27764998090857
  C   4.19711800048518      4.09167644669112     18.25896493756343
  C   4.81847745477812      2.71279987905006     18.38370235911912
  H   4.33474590159728      2.00444700215998     17.69488779277259
  H   4.68810585488795      2.32755763518534     19.40715488940445
  H   5.89438592080485      2.72329183443200     18.15323342210058
  C   1.08999144755933      6.22137677726798     18.58161212130577
  H   0.85953548660574      6.19153274203918     19.65877244750050
  H   0.34883473453272      5.58112075140420     18.08020515647669
  H   0.96715844987330      7.25418178590199     18.23070247900284
  C   4.08775877084590      7.69219510710218     19.10746404411404
  H   3.18010977985157      6.27209959558113     20.32221751237678
  O   3.25829668768114      8.43083902048220     18.36104164549275
  C   3.61952419537736      9.80220556470145     18.16867147512454
  H   3.64246137099171     10.33407151047313     19.13199314139681
  H   2.85280370535567     10.22748153948852     17.51017060770402
  H   4.61183303173142      9.87678043282516     17.70048364211618
  C   6.12760082279074      5.68889231544638     18.95930078021295
  H   4.79394824652739      4.69437072287524     20.26761831608340
  O   6.93822241415666      5.58635829967157     20.02107338752306
  C   8.24300846438668      6.15200042614923     19.87884213257247
  H   8.16638964145847      7.22540062647494     19.64979832547144
  H   8.80199059870623      5.65515696965200     19.07121815243639
  H   8.74772318999480      6.00047896128708     20.84111204019496
  O   5.08265606193481      8.13298908763748     19.63238492622789
  O   6.48480170696764      6.12000557252536     17.88705415266941
  C   2.70015282017709      4.19800505401861     18.62524574631625
  O   1.92423629835658      3.36095621925498     18.98951660911205
