62
Coordinates from ORCA-job 624_0.0
  C   1.15171053776016      6.38094520307424     15.37104292879070
  C   0.74133297886714      7.17646058767300     14.29481946505806
  C   1.69450188321894      7.87796320610299     13.54168688651421
  C   3.05409756892861      7.76457929392152     13.88408682764919
  C   3.44854251159232      6.96798256797460     14.95229824556814
  C   2.50490590543853      6.25415179633166     15.72554659846835
  H   0.39133955026330      5.82857480096948     15.92598811866046
  H   -0.32046965013052      7.23337825885722     14.05300068943018
  H   3.78639422638472      8.31606036573629     13.29004937380272
  H   4.50618007957849      6.90135197157821     15.21341180331532
  C   4.53036447764617      3.83534838783248     15.63215153177243
  C   3.71304532694778      3.45388953500366     14.54376685958401
  C   5.63329822463498      2.63737803256274     13.30939919588940
  C   4.24872535808323      2.86542866064718     13.40570606573544
  C   6.46171544211450      3.00718914913216     14.37936947101362
  C   5.91029496869823      3.59308304176267     15.52400060410046
  H   6.56761774583502      3.89373867237824     16.34043750816969
  H   3.61285004896539      2.56451339063909     12.57015321936477
  H   7.53997512269300      2.84929211787203     14.33627530302133
  H   2.63448413873535      3.61296050373040     14.60314951522833
  C   2.95937235883327      5.41643950843054     16.86219475066734
  C   3.91906019480665      4.44085485770131     16.83694858137344
  C   2.49382903299800      5.60254683675719     18.31661095690729
  C   3.70921623471579      6.22838488069532     19.12465711665503
  C   4.73338976621217      5.04816422348552     19.19781730253375
  C   4.13488060573642      3.92982389551508     18.27379916753398
  C   4.69527259465413      2.53408323317461     18.47806793295274
  H   4.15936095037158      1.80548746261573     17.85183422054627
  H   4.56435377464607      2.22744511487964     19.52850158633225
  H   5.76414153116818      2.48343494365484     18.23112906497718
  C   1.13791978306110      6.21460415596968     18.61125947176430
  H   0.97712705280578      6.26287579181635     19.69971812251163
  H   0.33235895054267      5.59277393213997     18.19355957288426
  H   1.04736700160823      7.23240350661878     18.20738077682742
  C   4.21725223945209      7.49530827533632     18.46250984084221
  H   3.35353914785601      6.50279920350609     20.12883484733777
  O   3.40397637759679      8.53178985331875     18.72663969953664
  C   3.72365786406847      9.77296122796380     18.09063607835794
  H   4.74746100004976     10.08734120898516     18.34290864100189
  H   2.99532649114832     10.50295819544450     18.46512113096899
  H   3.64189685010965      9.67854189185959     16.99717887049905
  C   6.20041161132529      5.40085185170728     19.01298959991788
  H   4.68632897436327      4.65872884791506     20.23045020551274
  O   6.57778177188892      6.29232074329568     19.94765214251043
  C   7.92028189200609      6.77123838834895     19.85964009074860
  H   8.06934472171529      7.31025729719725     18.91156224502177
  H   8.63875374294662      5.93939569386037     19.91220051793390
  H   8.05985109497509      7.45070785903989     20.71009320250227
  O   5.19573196652137      7.58423914938207     17.75850072879572
  O   6.96838449279330      4.90519383149223     18.22542233305143
  C   2.66532451987101      4.12133835926858     18.71083104019392
  O   1.87970917354954      3.34635464084377     19.17898804923386
  O   6.06730090844316      2.05930109813987     12.15982256716402
  O   1.40585720654364      8.67794097049486     12.48346278853329
  C   0.06426166124682      8.83221890791476     12.08024721882974
  H   -0.38682559091465      7.87132729652301     11.77121900833105
  H   0.07176935964482      9.51383629561266     11.21849349235801
  H   -0.55909745764211      9.27395057641554     12.87952361531307
  C   7.44192063412257      1.79440423796745     11.99766517911611
  H   8.04731749974733      2.71884660739233     12.03070035099078
  H   7.55730066611731      1.32936524032812     11.00876310859543
  H   7.82123490203844      1.09681036321099     12.76694457119601
