47
Coordinates from ORCA-job 627_0.0
  C   3.65746073763435      6.15600376998508     16.48228256847002
  C   4.73401035590527      4.98159532988120     16.55170737331862
  C   2.60522425268674      6.02359819039056     17.62693246517270
  C   4.51345774979411      4.17164031250905     17.85174275563774
  S   2.69396716527791      4.25125938001534     18.06395740298391
  O   2.08589986603225      3.50124455475125     16.94018491382988
  C   4.79978277009069      4.05201243761111     15.33055567884972
  H   5.72587394290534      5.44903588049926     16.63638176071546
  C   2.95838257078781      6.30938399964802     15.12566420733034
  H   4.19291421081951      7.09788089895927     16.66482080343449
  C   2.14211837876300      7.59294116929416     14.99700244829876
  H   2.31405172646882      5.44005766483103     14.91139263736024
  H   3.69406707156448      6.34815369587986     14.30223888836703
  C   1.20490066689710      7.67654707421000     13.80072630249813
  C   0.57433435995957      9.05030071549698     13.60090255720061
  H   0.42912978370510      6.90195403238171     13.95577777780305
  H   1.75556600507611      7.34246464176896     12.90215755364320
  H   0.02612594107184      9.36428181779183     14.50151358516904
  H   -0.12592705380085      9.04098355792527     12.75161417738402
  H   1.34196733880361      9.81532847225225     13.40639127525018
  C   6.02260263552091      3.13875210006119     15.33067525221357
  H   4.85884920426570      4.62659620754012     14.39046259355415
  H   3.88755391684325      3.43736593668443     15.25066106156005
  C   6.08725290662332      2.09948155449917     14.21960712796038
  C   7.39725277712352      1.31973736060185     14.17663674151035
  H   5.88452147080510      2.60788778113731     13.25892267268575
  H   5.22417168045164      1.42207970205431     14.36449022836590
  H   8.25253051420832      1.99000348377319     13.99974496161216
  H   7.37833900061417      0.56520906994747     13.37526189566059
  H   7.58099877062192      0.80750243073117     15.13279640517837
  O   6.89900325719485      3.23501789353109     16.16525995980808
  O   2.23996419795007      8.49904863367125     15.79831352207549
  O   2.26108557787872      3.96957077853306     19.44250195664563
  C   5.28686676989780      4.66501230953034     19.07950337404090
  H   4.71815502313099      3.10164743286846     17.70720867480121
  C   2.76818623170332      6.96918302350460     18.83062953749956
  H   1.58669696272287      6.13290502577298     17.22873901615542
  C   3.83207068588078      6.65835230857546     19.90516887313089
  H   1.79396690931089      7.03538590663197     19.34080026569996
  H   2.94756937474166      7.96505726348598     18.39260294603013
  C   5.20849741022846      6.16037042143356     19.43266560533496
  H   6.33978563227196      4.39898514466874     18.88566378317303
  H   4.96326421255028      4.07093056413554     19.95055021350084
  H   5.58139736916780      6.77826372315036     18.59559729191981
  H   5.92802205053518      6.32574599332212     20.25231587608195
  H   3.42191935214724      5.91829438575502     20.60999710390399
  H   3.97388826516637      7.58671596831691     20.48363592717930
