52
Coordinates from ORCA-job 628-_0.0
  C   1.51527137210189      6.84302299749374     15.01764061470381
  C   0.81542022112869      7.25508634214242     13.88076151548766
  C   1.50566393001765      7.71564411082753     12.75491188784185
  C   2.90323166642966      7.75724898242716     12.77166196907502
  C   3.60495254016843      7.33865446068771     13.90467808750878
  C   2.92283432935011      6.87327329308422     15.04506966030694
  H   0.96960108461968      6.48061983309264     15.89077328348863
  H   -0.27739730840656      7.21432988782538     13.87414555379885
  H   0.95571367317091      8.04042765799299     11.86750133710730
  H   3.45232821576513      8.11721019448601     11.89731566407498
  H   4.69714587157580      7.36947242003787     13.91134153849087
  C   5.08585477395381      4.54116725230018     15.26648070826650
  C   4.15278454322801      3.92039109162079     14.41212374169340
  C   5.93054516405305      2.75825403470141     13.24397762005558
  C   4.57074442612087      3.03925160227760     13.41375448367809
  C   6.86812012270654      3.36003075724299     14.08880369404483
  C   6.45066467645333      4.23621534342186     15.09316283969124
  H   7.19471651177943      4.69175903572201     15.74942166929553
  H   3.82791323686475      2.56478913774417     12.76664855185873
  H   7.93324095015503      3.14395596511810     13.96804237465520
  H   6.25699837893124      2.06819455531276     12.46122272432621
  H   3.08865581662860      4.12275256192603     14.54543657039978
  C   3.68209166519201      6.43840831888759     16.24166556813746
  C   4.64376554988417      5.47699967454928     16.32077734841293
  C   3.59075324567810      7.15187605013089     17.60306985441554
  C   4.93639954216058      7.98734196391545     17.76798672454186
  C   6.05692867864209      6.87567189778586     17.87611930738001
  C   5.24886218685160      5.51285460124681     17.73421511759927
  C   3.95363039883894      5.93054723086302     18.48989096708945
  O   3.42234290225921      5.46812130532422     19.45091996035116
  C   5.89753326797983      4.30826921950262     18.22086736925189
  C   4.87904585589844      8.98518395166773     18.92571314691747
  H   5.08033012787985      8.55338026211099     16.83523771895750
  H   4.66372011261981      8.49728575002126     19.88876906457312
  H   4.08736400320019      9.72741560327887     18.74811312861545
  H   5.83141823565780      9.52797083683934     19.02544745100549
  C   6.91865250124986      6.91868954682275     19.13969982861319
  H   6.72325697402154      6.95589532364394     17.00395186409666
  H   6.32498736626975      6.77892413272612     20.05636052434473
  H   7.45221086390948      7.87774189265301     19.22339958811639
  H   7.67055655968614      6.11654405417476     19.11105133341547
  C   2.36056069237909      7.84939129704462     17.92819094824002
  C   1.33675213484347      8.42929302615354     18.22475603581112
  C   0.10571199139357      9.12674415729150     18.58286082356764
  H   -0.75214053155110      8.74791442686995     18.00214718995342
  H   0.18621232905122     10.20950626627969     18.38917612666194
  H   -0.13088135419631      8.99396105912600     19.65197473480020
  C   6.40980867206790      3.29540055389219     18.64917815956565
  C   7.01423464888487      2.06981443075052     19.16110086951400
  H   6.65868217719955      1.84656935555988     20.18103471120945
  H   8.11382011957228      2.14641983648316     19.19959968525968
  H   6.76199488567972      1.20640245691851     18.52296875973135
