52
Coordinates from ORCA-job 628_0.0
  C   2.35390628290070      7.83915587991545     15.81360423683120
  C   2.04368024495485      8.66213808489468     14.72784732261821
  C   1.93116660148657      8.12424436347369     13.44220903485163
  C   2.13328000419081      6.75362089400425     13.25033381429988
  C   2.44681123268332      5.93054985962357     14.33337664760805
  C   2.56716360327661      6.45780744956329     15.63527292119244
  H   2.45534444398471      8.27155419300139     16.81046696544147
  H   1.88909343190907      9.73277402477430     14.88876705606870
  H   1.68332136636204      8.76874546162252     12.59446989827937
  H   2.04062614902946      6.31996464377262     12.25085346364627
  H   2.59114114677684      4.85987902874292     14.17653338796794
  C   4.88513354927660      4.31321695269554     15.81009366821397
  C   5.03200249166714      3.04954563117192     15.20678642873204
  C   6.90340056628763      3.84764129308986     13.88768922836791
  C   6.02922037868802      2.82048923365668     14.25430915845135
  C   6.76992510373510      5.10830611302452     14.47916024159616
  C   5.77330897036110      5.33859064140112     15.42978478157831
  H   5.67811917299825      6.32081429713253     15.89687589225250
  H   6.11896469849432      1.83313783671239     13.79301300986107
  H   7.44771459333305      5.91944512067625     14.19864129549488
  H   7.68367426605095      3.66734257972550     13.14331973058122
  H   4.34512896654769      2.24211188241882     15.46688643081784
  C   2.88137724285998      5.56467514789516     16.77460034376023
  C   3.83303265742764      4.58469002673930     16.82098584175693
  C   2.08874789853164      5.53474954007566     18.08730409286675
  C   3.03987830105462      5.97978251630051     19.27487226790664
  C   4.16050153768199      4.84965957833553     19.30306631143618
  C   3.70662443758860      3.84767881144852     18.16217668844694
  C   4.25823857799010      2.44304116081886     18.30929623699537
  H   3.76614204345708      1.74689119459743     17.61425485611343
  H   4.06780101015427      2.07114115609728     19.32835243475168
  H   5.34284414541223      2.41304968610704     18.12842433002695
  C   0.68966648146311      6.11990336286320     18.12550783845026
  H   0.16397512374702      5.77118427514438     19.02846852769397
  H   0.10345880568091      5.79533078373674     17.25272241959224
  H   0.70350411976431      7.21929085784088     18.13836189385611
  C   3.51116461035374      7.35805496960785     19.21231251399291
  H   2.45006626436086      5.87354753491327     20.20265528309314
  C   3.88401346845512      8.51308892770700     19.20310978037343
  C   4.34960398026336      9.89669797852581     19.17968810390405
  H   3.67557114672054     10.55992069119266     19.74756302760572
  H   4.40862670483542     10.28327026211266     18.14814273555330
  H   5.35508509552889      9.98453289173989     19.62448709656843
  C   5.54572498225800      5.29000613116789     19.18482619286566
  H   4.05674659151933      4.31153004693532     20.26180785883599
  C   6.71174314125512      5.61325745314324     19.09576689738742
  C   8.11101332862819      6.00900374110680     18.96985315996372
  H   8.26105109898073      7.05599864412495     19.28304525939340
  H   8.45503128723920      5.91944866229834     17.92557217107122
  H   8.76675263650004      5.37787157777622     19.59305147516899
  C   2.18343836132686      4.00973916791888     18.30249322743695
  O   1.32520765396583      3.19763775663405     18.50699651837653
