73
Coordinates from ORCA-job 631_0.0
  C   1.52765478047767      6.60901421542740     15.21549564824674
  C   1.28206971676580      7.44754156810842     14.12559951135215
  C   2.26986456226215      8.33141729244450     13.67912188296463
  C   3.50948282318661      8.36329488336396     14.32449794324399
  C   3.75750475583206      7.52215097106933     15.41269719464576
  C   2.76958024211498      6.63579944003677     15.87866529297789
  H   0.76176297943048      5.90049093846266     15.53779532218569
  H   0.31480915334194      7.40414285675866     13.61763345297683
  H   2.07586876603014      8.98839825230506     12.82713921844563
  H   4.29125465563300      9.04511517996021     13.97929491484104
  H   4.73291086576522      7.54677223696291     15.90478944086275
  C   4.77082196031958      4.26709428622892     15.92328368072002
  C   4.14661163892661      3.93108430027589     14.70678416060578
  C   6.28722969118151      3.36230610471764     13.72227795607017
  C   4.89793401864862      3.48350647113854     13.61802596979875
  C   6.91914133064989      3.68142752623314     14.92774609405545
  C   6.16738730616776      4.12264277249023     16.01962433645570
  H   6.68011454979150      4.35827591280444     16.95425549333953
  H   4.39302081468031      3.22342823278466     12.68381443881051
  H   8.00350681141244      3.58386306210076     15.02503928760425
  H   6.87474050015154      3.01327651711876     12.86891313959402
  H   3.06092098705029      4.00932979243939     14.62661287093704
  C   3.03569734587971      5.74370571992611     17.03979870103680
  C   3.95259227749741      4.73258721776925     17.07420993618226
  C   2.25405817629921      5.84267306060654     18.34049440926148
  C   3.25274008047747      6.15902323003351     19.50683834045282
  C   4.28091775037374      4.95143484343410     19.57388778955570
  C   3.92035886871071      3.98616768831268     18.39640111414054
  C   4.45360093029853      2.56562394093048     18.44744643364295
  H   3.97507875668555      1.95937217532632     17.66342760001332
  H   4.22409843309786      2.11377792626968     19.42526607486054
  H   5.54039818218410      2.52502427143127     18.30088214742729
  C   0.92296208884453      6.57205863754342     18.37389338560620
  H   0.53064741266667      6.59153590299902     19.40150411570965
  H   0.18454677950398      6.06337962434098     17.73709571615273
  H   1.02450914580260      7.60768956442964     18.02427727101270
  C   3.89996485608445      7.53834213987905     19.38436016179541
  H   2.67614303141111      6.15652007462533     20.44436431870339
  C   5.74889435621818      5.36866807863300     19.61948244972777
  H   4.08167660700844      4.40353824588999     20.50720823993419
  S   2.03577487339391      3.99340275286998     18.64791369065946
  O   1.30256225364508      3.32334366152125     17.56201629529339
  O   2.89533067221063      8.54538191063373     19.59318160424476
  H   4.37443834541618      7.69885063154037     18.40464267005135
  H   4.67678915791103      7.68433827802240     20.14796906386072
  O   6.54240398862811      4.20835976018520     19.91899478874755
  H   5.92881993110500      6.11237675613425     20.40805715157643
  H   6.09742255258509      5.80990015283462     18.67193013597266
  C   3.34286329216843      9.81335759655564     19.63232667729581
  C   2.24465872056793     10.82193703353304     19.99560290178963
  C   2.71755779100534     12.24293041444900     19.72365776755765
  H   1.97608341218147     12.96889535858010     20.08602647181932
  H   2.84296292349761     12.38021132148181     18.63619221986986
  H   3.68562006986099     12.43943680634945     20.20116439470306
  C   0.89685383905786     10.50897853133135     19.35542962657134
  H   0.14356818172018     11.24057558399850     19.68205482264628
  H   0.54898261618038      9.50178309975513     19.61506785328933
  H   0.99001417100577     10.57664520383567     18.25733406644327
  Br  2.04298813758509     10.60747648347668     21.99633332637452
  O   4.48719312422770     10.11796789303235     19.40653934901212
  C   7.83137834646056      4.42568276772431     20.23460825361776
  C   8.58557599623176      3.12580447214031     20.54836338479632
  C   9.95161443882134      3.43352890433025     21.14500860925672
  H   10.51963348784006      4.12499095767005     20.50995676200861
  H   10.52647670186352      2.50674550588136     21.28223013577697
  H   9.81617300495352      3.91336996203199     22.12885524789086
  C   7.76762707880808      2.15783004177145     21.39771643258055
  H   7.56734774536280      2.61962412010535     22.38045223881613
  H   8.33108147255240      1.22818968592037     21.56418561999882
  H   6.80679680130936      1.91442839817986     20.92778503258056
  Br  8.88291154688789      2.26793022582059     18.74048465729731
  O   8.32765340824519      5.52259547671695     20.28582040177362
  O   1.66936392784429      3.70381509597243     20.04655288987279
