34
Coordinates from ORCA-job 64_0.0
  C   2.20110264615795      0.26586614485553      0.17621497019039
  C   1.76552273380766     -1.06209569084583      0.07097629694706
  C   0.41336323584719     -1.37518530531514      0.25873576777984
  C   -0.52037617627299     -0.37854638485431      0.55779650836743
  C   1.26323631094554      1.26865748057923      0.48078789774671
  C   -0.07567706205778      0.95125332660740      0.67355190997456
  H   2.46375480603009     -1.86662891585269     -0.16207574198235
  H   0.08835460158558     -2.41515838982543      0.17566820325526
  H   1.61501479171014      2.29938354083624      0.56369485364030
  H   -0.79249723156116      1.73833424961627      0.92204636470043
  O   3.48787948837139      0.67718709308047      0.00540757373608
  C   4.47505556691828     -0.27716788378966     -0.30393678601528
  H   5.42351005168799      0.26962955320052     -0.39949402091774
  H   4.26536178276791     -0.79577325101463     -1.25812824301338
  H   4.58109036435555     -1.03703621460659      0.49295827846885
  N   -1.86934607646620     -0.69587580550654      0.84430294425570
  C   -3.01927920129509     -0.19367745959547      0.12125479839566
  C   -2.63436152236077     -1.65371300178808      0.09297706045507
  C   -2.83331323949528      0.57036837043526     -1.16272522668609
  H   -3.85819538480580      0.12513374550845      0.74747579307640
  C   -3.45232384098008     -2.64040038229403      0.88449781711969
  H   -2.21565750378436     -2.02080875812561     -0.85121372929659
  O   -2.05891807676925      0.28078807939775     -2.04145742635852
  O   -3.64249232882620      1.64220318330168     -1.19319137756936
  O   -4.07514853097400     -2.38698530476861      1.88375891826368
  O   -3.40694964763033     -3.85543385269302      0.30931245767440
  C   -3.56215029071281      2.45995335684631     -2.36338759247532
  H   -4.28625359057508      3.27135854779399     -2.21964443906163
  H   -3.81215228628918      1.87761117546874     -3.26348597003256
  H   -2.54690931602697      2.86769693041683     -2.48357205050166
  C   -4.15624202071621     -4.88691855105872      0.95509094535963
  H   -4.00885601066837     -5.79397050833953      0.35582303329800
  H   -5.22462493928702     -4.62473998559812      0.99703525314347
  H   -3.79700210263030     -5.04433913207264      1.98360495806186
