23
Coordinates from ORCA-job C:\Users\AIElement\Documents/67_0.000
  C   -2.79933057043594      3.13492179463951      0.04304656190705
  C   -1.43908921719078      3.56278093301789      0.45336044984696
  O   -1.64900317346544      2.30694748277622     -0.18161267239018
  C   -3.83457602529684      2.63431829615168      0.97579557645342
  H   -3.20191569061165      3.59749673213151     -0.87098823347948
  C   -0.92363050806191      3.57979861020853      1.87527399141946
  H   -0.95472917173588      4.30874089513615     -0.19969591442478
  C   0.59305640131523      3.34930733069784      1.98089965752000
  H   -1.45551745590125      2.82559507085812      2.47736466347283
  H   -1.17408176702375      4.56506472357042      2.30927682375558
  C   1.04749269698184      1.94217094170723      1.58327421859683
  H   0.90700058018187      3.55761553747608      3.01900140402774
  H   1.11455924968462      4.09830477463242      1.35622612067868
  H   0.57735641732564      1.17705640373752      2.22400215258186
  H   2.13988400500723      1.83543569643552      1.68443110705297
  H   0.77572050673604      1.70400668721303      0.54360464527704
  C   -5.14839807359023      2.83201068606605      0.79736814708427
  C   -6.23359497886293      2.36279660904455      1.71876619908926
  H   -6.94295491704592      1.69862292154685      1.19354690853333
  H   -6.82956099537463      3.21173240063328      2.09904165737550
  H   -5.82875746005162      1.81538575419907      2.58404302209956
  H   -3.48041243504989      2.07218532961440      1.84697337011109
  H   -5.47468741753376      3.38365438850606     -0.09527985658901
