104
Coordinates from ORCA-job 703_0.0
  C   -2.64991867962416     -3.08953013725407     -0.17694980253463
  C   -2.69415142030999     -2.10798370328996      0.83536130526999
  C   -1.52169894549309     -1.38883776243189      1.16142097229809
  C   -0.33378889232378     -1.64785323288872      0.46907283824063
  H   0.58291937666632     -1.10686078358323      0.70400013369171
  C   -0.32198940774341     -2.61608032128986     -0.53176718544487
  C   -1.46886616800513     -3.34236908676793     -0.86323855118706
  H   -1.43448781430437     -4.09893781254868     -1.64589098539374
  H   -5.41798477000491     -1.98621491894867      6.41088638650143
  C   -5.80611449593309     -1.17722093920169      5.78951178901858
  C   -6.74327203415712     -0.27618407251563      6.31728463242423
  H   -7.08626992551148     -0.38655054130876      7.34749383756067
  C   -7.23483580877943      0.76822518836782      5.53620944425059
  C   -6.81171196228248      0.94085611046732      4.20905038268469
  H   -7.21450867217338      1.77044481527654      3.62349187815635
  C   -5.88367867226018      0.05392533157008      3.68380287081049
  C   -5.38859516669816     -1.00791275227650      4.46576067198105
  C   -1.62579293271202     -0.41751924591271      2.24138499443979
  C   -2.79299336927412     -0.22351667016910      2.87396795514427
  C   -4.05316650548521     -0.99439077918091      2.56214786018017
  O   -3.86602680707513     -1.90823083483050      1.46261836453177
  C   -5.30716687997140     -0.05791733854908      2.27882002035824
  N   -4.48091390278411     -1.76821964044321      3.73231052144705
  C   -6.32980513321332     -0.78843125563567      1.37957767782844
  H   -6.56936970836325     -1.78493812012625      1.77840368184362
  H   -5.94800556133134     -0.90359375072315      0.35544166554762
  H   -7.26008810304173     -0.20066244946855      1.34715780505820
  C   -4.92851450460752      1.28050720428289      1.63261726374781
  H   -4.28786942812036      1.89846806747322      2.27816743000127
  H   -5.83906597097815      1.86046420949382      1.41358747094794
  H   -4.40484171250445      1.11733161990419      0.67729561977235
  N   0.92869958599217     -2.88943513106608     -1.25635097929739
  O   1.91435158907418     -2.23510118036013     -0.95007139553524
  O   0.90562548786979     -3.75399474260874     -2.11927389305835
  O   -8.10722903209250      1.71926676702447      6.06655947748449
  C   -9.36896445092503      1.35536991459804      6.44582424119243
  C   -11.60681420788547      2.10609017169056      7.22888302039649
  O   -9.78523304228156      0.23288857408262      6.34229758447925
  O   -3.76033710962394     -3.86226720975206     -0.45402370830135
  C   -4.80586150563609     -3.30378777807359     -1.14955167647870
  C   -5.91807835523204     -4.33222576956961     -1.40072030263090
  O   -4.78260474406063     -2.16254695330835     -1.52302469295366
  C   -3.61366728312232     -2.74596976268180      4.34771442317112
  H   -3.05327703309110     -3.28129512927467      3.56836337060242
  H   -4.22052507626086     -3.49289094485377      4.88386635102846
  H   -2.89056520445129     -2.30960709066766      5.06542772966399
  H   -0.73012410187053      0.14096173500289      2.52748238736420
  H   -2.87863757273449      0.49271525342567      3.69483266080784
  C   -12.55179367839486      3.10500402597458      7.95462985952758
  C   -12.71098103364865      2.76840871079188      9.45196133805708
  H   -13.34726326861655      3.51092728892690      9.95939604603440
  H   -11.73892126414305      2.74405991288767      9.96790980117242
  H   -13.18345424196050      1.78075104640136      9.58174114354150
  C   -10.13501265295654      2.55604436973660      7.02956234474753
  H   -12.00839750991389      1.88115923358292      6.22869615793800
  H   -11.60462183963374      1.14193148172193      7.76081975578317
  C   -10.05100831074787      3.73922963938069      6.04046822120997
  H   -10.47662187909465      3.47047027576349      5.06003666426048
  H   -9.00982118594226      4.05636613078671      5.88856882883897
  H   -10.61673171815018      4.60192874369247      6.42513467631319
  C   -9.43789262645735      2.93753012607395      8.35571502440248
  H   -9.47702013128418      2.11098317565758      9.08354384559436
  H   -9.92105889048561      3.81608941806818      8.81036950554848
  H   -8.38173547458539      3.18915626128985      8.17915939526023
  C   -6.27584508357111     -5.03285125211830     -0.07222508687381
  H   -5.40142278599488     -5.54328691133937      0.35458582442442
  H   -7.05915426014959     -5.78802043911918     -0.23813850925941
  H   -6.64909602012793     -4.31262604145703      0.67346991033296
  C   -5.34607544957769     -5.36845979984210     -2.39877643784911
  H   -4.43533259932969     -5.83282068950324     -1.99194133154087
  H   -5.10013762780718     -4.90304270346921     -3.36577234505094
  H   -6.07955666046233     -6.16342796641401     -2.59091899551571
  C   -7.13093600992178     -3.54552174424570     -1.96595684302553
  C   -8.39869016025899     -4.33366914874040     -2.37225363621156
  H   -6.78795801293315     -2.93395243115416     -2.81449856388766
  H   -7.42472602705719     -2.81635502813474     -1.19284457516071
  C   -9.61114765325417     -3.37869082459440     -2.40368265412757
  H   -10.52932285631742     -3.91408471974362     -2.69153695589574
  H   -9.45664689888753     -2.56517325267714     -3.13187644407406
  C   -13.92339820069054      3.19626446247248      7.29364619558526
  C   -14.67585886960109      2.04292076416544      7.00883373247459
  H   -14.26457934715668      1.05590938365298      7.23928273441006
  C   -15.94417141030981      2.13474029444509      6.42959064189876
  H   -16.50901005826469      1.22322502897637      6.21453229819433
  C   -16.49082419135756      3.38561388620960      6.12316551046692
  H   -17.48229882004813      3.45778996183172      5.66802092687293
  C   -15.75655378893589      4.54117970069721      6.40187221652254
  H   -16.17096621188940      5.52533529610401      6.16553999978679
  C   -14.48689815507458      4.44334419591168      6.98135257963618
  H   -13.92020108360292      5.35548865308218      7.19397854147276
  H   -12.11363741175172      4.11536056953126      7.89266923505498
  C   -8.29705225356530     -5.08169573983418     -3.69913843645067
  C   -8.66747234864632     -6.43360844884360     -3.78526645018744
  H   -8.99252664469918     -6.95771494074792     -2.88082275042217
  C   -8.62484612175964     -7.12289119239916     -5.00176288982824
  H   -8.91425399615447     -8.17684356964375     -5.03914581243935
  C   -8.21319591152700     -6.46710318697747     -6.16508453804321
  H   -8.17673291896977     -7.00236943355411     -7.11763846800053
  C   -7.85008763821240     -5.11797551991304     -6.09890198021474
  H   -7.52959867941770     -4.59244521571275     -7.00286734975345
  C   -7.89394522842144     -4.43490931812331     -4.88028147796199
  H   -7.60759855866434     -3.37981768788052     -4.85307233857585
  H   -8.60853869353356     -5.08630077348458     -1.59368950717974
  H   -9.77683361134744     -2.91820117924864     -1.41582212494534
