86
Coordinates from ORCA-job 704_0.0
  C   -2.51262119786637     -2.72231667987740     -0.21150276044700
  C   -2.56573711373412     -1.79557280892000      0.85068463431690
  C   -1.40034447542650     -1.08427267113282      1.21654973721313
  C   -0.21004474116316     -1.29489146405417      0.51187428345059
  H   0.70184981453993     -0.75854571978458      0.77512239099132
  C   -0.18871506494538     -2.21052003380771     -0.53721292060655
  C   -1.32847509185935     -2.92956276681348     -0.90733877556555
  H   -1.28578457003221     -3.64612934718486     -1.72636156804453
  H   -5.29363471420154     -2.14493148924814      6.39583884873861
  C   -5.70947455802378     -1.30597191681734      5.83517317516905
  C   -6.70249022660791     -0.50198708898786      6.41474638985955
  H   -7.05988600633383     -0.72057563414128      7.42151759448606
  C   -7.23567821210163      0.57553212120260      5.70814832107808
  C   -6.79254936730927      0.88087658227315      4.41129344476578
  H   -7.22853892824933      1.73347382217338      3.88564226263411
  C   -5.80820880660365      0.09060168478571      3.83675507314548
  C   -5.27741683897234     -1.00840828718343      4.53904819516429
  C   -1.51390534181853     -0.17706368098144      2.35004774570648
  C   -2.68083654623594     -0.03616564896714      2.99751340458133
  C   -3.93130940798480     -0.80658384764220      2.64814030741507
  O   -3.74008201792908     -1.63878806642212      1.48476422426848
  C   -5.20766765486990      0.12236469753272      2.43761674017270
  N   -4.32885266280609     -1.66849447504927      3.76406472005702
  C   -6.19964759453965     -0.54250210756973      1.45736975184141
  H   -6.43168188227251     -1.57280976502353      1.76387186108364
  H   -5.79504344100029     -0.56470784502214      0.43564193669462
  H   -7.13820958590719      0.03301714714195      1.45517149995593
  C   -4.85587632540746      1.52541937149561      1.92590351441378
  H   -4.23381996756593      2.09304020998600      2.63273399780759
  H   -5.77835501317614      2.10342338356381      1.75679272611624
  H   -4.32351207346482      1.46903311229346      0.96308490108294
  N   1.06562714446225     -2.43665969863697     -1.27165998055435
  O   2.03927815866935     -1.77385719364845     -0.94592554191722
  O   1.05730339619225     -3.27411073014718     -2.16115818525503
  O   -8.17837891719143      1.43684068635845      6.27080298675806
  C   -9.35841786260582      0.95922409655970      6.76520792731259
  C   -11.55129519500016      1.47786983511319      7.82048107572777
  O   -9.64642366780831     -0.20715904321784      6.77413529045098
  O   -3.61705190639871     -3.48867066212820     -0.52680558289562
  C   -4.66552212733098     -2.90623100846409     -1.19805175784656
  C   -5.77705528887467     -3.92590224701239     -1.47931003970551
  O   -4.64733431407307     -1.75098510227598     -1.52655306494488
  C   -3.43505787159825     -2.66465325223003      4.30763607319297
  H   -2.84380633063684     -3.10948061639860      3.49507137189824
  H   -4.02051691717236     -3.47690404425272      4.76731626940301
  H   -2.73887184915839     -2.26655832454856      5.07239586122334
  H   -0.62474001719572      0.37586522623149      2.66571042372421
  H   -2.77147062430332      0.62766716517370      3.86069765049481
  C   -12.68140236238763      2.43361270292841      8.24476546415755
  C   -13.70045267258921      1.72691609025655      9.13238360856200
  H   -14.53038337229656      2.41036032938141      9.36752855744500
  H   -13.24276791329052      1.38722351242341     10.07437193190880
  H   -14.11805876829985      0.85109535208991      8.60940087067903
  C   -10.22946889131590      2.10685466769901      7.30906328425560
  H   -11.96280968298421      0.81321154526861      7.04415149005676
  H   -11.29642470546401      0.82174270079230      8.66873831062204
  C   -10.45308035776374      3.13727261859629      6.17879204132916
  H   -11.04863804065432      2.71339700826261      5.35395811183518
  H   -9.49324134454075      3.47858788633262      5.76649970336686
  H   -10.96841968603175      4.03086171360091      6.56931908660506
  C   -9.45335004981185      2.77920604347350      8.46621833136917
  H   -9.22424564165466      2.05489618935541      9.26452665136456
  H   -10.05322691479983      3.58939806702920      8.90955744463516
  H   -8.50629142323666      3.21066319603673      8.11112790293999
  C   -6.21040313954776     -4.58814452615910     -0.15335433789725
  H   -5.34678629293561     -5.02717245958410      0.36501858585873
  H   -6.93282973538233     -5.39393042887842     -0.35116145680713
  H   -6.68236655305386     -3.85989075311584      0.52603393397330
  C   -5.18413161195311     -4.99937701457870     -2.42647643781782
  H   -4.34033785072945     -5.52014739472567     -1.95052666958371
  H   -4.82112746578691     -4.54369860998694     -3.36299977954275
  H   -5.96380943025268     -5.72892655793909     -2.68032985271110
  C   -6.94641043524414     -3.15017192978474     -2.14046688284660
  C   -8.28707380203686     -3.88001118377805     -2.31560666002035
  H   -6.61185845468295     -2.77327626178264     -3.12422867283034
  H   -7.14013981018932     -2.24636960900469     -1.54040856144287
  C   -9.35737591941857     -2.94148679353483     -2.87810602482686
  H   -10.30467279070701     -3.48608867729824     -3.00980483741560
  H   -9.05063000819065     -2.54180919450498     -3.86123816897324
  O   -13.41326466504976      2.93146174890365      7.12903091796029
  H   -12.25589120153656      3.28117193435904      8.82266176085068
  O   -8.19040730446824     -5.06057906887928     -3.10687337013506
  H   -8.63208171537324     -4.24001702276879     -1.33218124757411
  H   -9.53646672284908     -2.08295667795148     -2.21128546909423
  H   -12.82107986177157      3.45222943015298      6.57578265915630
  H   -7.92839959782542     -4.79909444698019     -4.00132865402582
