83
Coordinates from ORCA-job spiro2-PS_0.0
  C   -4.08224215599989     -2.24113013362765     -1.01802549295804
  C   -3.75885232331523     -1.80687038616717      0.28882697245206
  C   -2.54769179038310     -1.12420287410773      0.56028814037937
  C   -1.66160773404353     -0.85008118559165     -0.48446277134160
  H   -0.72126304978185     -0.32735754677707     -0.30762670954675
  C   -1.99302273342339     -1.25582883660947     -1.77562392784847
  C   -3.18065648830008     -1.94205259388703     -2.04349091290562
  H   -3.39326223025332     -2.23177994312107     -3.07346286245854
  H   -6.76269883364840     -4.56906153231087      4.49885860969333
  C   -7.17071037498269     -3.62259803767826      4.13958528084390
  C   -8.55778476114683     -3.39996216328167      4.14760143029718
  H   -9.21921703835240     -4.18748105393555      4.51934322585492
  C   -9.10255403116316     -2.19971520357903      3.68591383016533
  C   -8.25620302495999     -1.18389246848307      3.20491004380946
  H   -8.68098029001567     -0.24311310203050      2.84285875350716
  C   -6.88402623107604     -1.39131451378748      3.19291229937705
  C   -6.34307827701755     -2.60546215230843      3.65568862369763
  C   -2.27484994635380     -0.77741920788884      1.94868500495202
  C   -3.18359007417627     -0.98814858738557      2.91537597145748
  C   -4.56063162533026     -1.52615279864586      2.63861150284366
  O   -4.63111600653628     -2.08731893885362      1.27519857878906
  C   -5.74006897636381     -0.47033121171429      2.79394478570044
  N   -4.94937355092455     -2.58857168561241      3.53450736337720
  C   -5.98689598900469      0.33256647201193      1.51186484800949
  H   -6.31108845417878     -0.30793685257315      0.68108780732907
  H   -5.07888683731996      0.87575688954423      1.20323918214920
  H   -6.77227534090598      1.08494553682114      1.68658307064786
  C   -5.44634678350286      0.49984980588907      3.96160725493737
  N   -1.07348040648303     -0.95150847759999     -2.88080928170420
  O   -0.04854085356400     -0.33978025557695     -2.61424360291381
  O   -1.38637213579313     -1.32698589346645     -4.00144212814175
  C   -2.91584491355851     -5.29553030661686      5.37773562352088
  C   -4.12882731240665     -3.77392033753528      3.72818926360126
  H   -1.29627285983523     -0.35373287702687      2.19227133161402
  H   -2.96344773737577     -0.74665769223852      3.95613727630049
  C   -2.60312067975942     -5.66675425316112      6.84659479207271
  C   -1.75667351639950     -4.60071630661153      7.56573995657049
  H   -1.53917874375975     -4.90706135301123      8.60096239919865
  H   -2.27704344233048     -3.63084709356889      7.60793465195407
  H   -0.79142409682470     -4.44014263445013      7.05675456044120
  C   -5.35908226546696     -2.99890506391449     -1.30819080849456
  C   -5.16499945596616     -4.52463981601440     -1.54346973392974
  C   -4.53406203509019     -5.23334239670944     -0.33433778743506
  H   -5.16473893074726     -5.13935127779853      0.56392717921949
  H   -3.54764539884198     -4.80458430673031     -0.09604269119607
  H   -4.39571010939880     -6.30611684074601     -0.54117978363209
  H   -6.06855585393327     -2.84946916130590     -0.48184476752317
  H   -5.82352969674753     -2.57435996867779     -2.21302637658135
  H   -10.18470755582036     -2.04918487794598      3.69644947656808
  C   -3.75515393295774     -4.02670797076383      5.19569950993259
  H   -3.44641130723216     -6.14601826668400      4.91368725597264
  H   -1.96809193644777     -5.19358470149350      4.81692397816911
  H   -3.21128704115959     -3.65302379422169      3.13107826393860
  H   -4.64791910591823     -4.65936462868019      3.31418435782266
  H   -3.21597535160879     -3.14225951951645      5.57377888470979
  H   -4.67736321650818     -4.10184411606710      5.79894097398792
  H   -4.60706944269037      1.17292625065602      3.72436175712798
  H   -5.21300573805679     -0.04164504216278      4.89103418187871
  H   -6.33558670708442      1.11989960687149      4.15141749984191
  C   -1.96415996629031     -7.04770424551330      6.93935605013502
  C   -2.63587230559978     -8.10586679051006      7.57188842126160
  H   -3.62499534357950     -7.92829255972195      8.00567030044193
  C   -2.06437253013419     -9.37975432555979      7.65885290353810
  H   -2.60880412420028    -10.18626568106211      8.15794917913544
  C   -0.80187793115506     -9.62040891163163      7.11059621050866
  H   -0.35167185538845    -10.61456071427709      7.17599054374876
  C   -0.11852475221028     -8.57685672054374      6.47751972946170
  H   0.87057090150807     -8.75330062325592      6.04548307898886
  C   -0.69397652058275     -7.30616373242284      6.39434310852151
  H   -0.14107915787085     -6.50435551526318      5.89652779890006
  C   -6.47965097399417     -5.16771206731478     -1.96704876291102
  C   -7.56585502898213     -5.26410437247559     -1.07928725414915
  H   -7.47350108376239     -4.88121834918314     -0.05874829840999
  C   -8.77234211202814     -5.84500843008615     -1.47906765548982
  H   -9.60337825335866     -5.90882561188203     -0.77098116558397
  C   -8.91867069916558     -6.34361299988694     -2.77797649792645
  H   -9.86216098238173     -6.79910988589877     -3.09071068789650
  C   -7.84848272679660     -6.25435821366645     -3.67187079187830
  H   -7.94989882752823     -6.64010392062390     -4.69012316153750
  C   -6.64292251562626     -5.67123710742104     -3.26723575372888
  H   -5.81084533624542     -5.60631929205928     -3.97534119873962
  H   -4.46661390498515     -4.63355580127784     -2.39193310607416
  H   -3.57174723741452     -5.72869645000229      7.37485089358077
