69
Coordinates from ORCA-job 708_0.0
  C   -3.66339074097618     -3.28126424558288     -0.82803035660406
  C   -3.65589618146329     -2.39664597230041      0.28273796780890
  C   -2.52351406221948     -1.59255496915197      0.57275868975197
  C   -1.39323952999714     -1.66218680682769     -0.24576667297411
  H   -0.51143421483163     -1.05222701560878     -0.04768128434309
  C   -1.39306055707000     -2.54938126943423     -1.31797295232802
  C   -2.50134590542057     -3.35495657271957     -1.59986545577185
  H   -2.42181969032730     -4.05304657536375     -2.43107164590882
  H   -5.82380118297237     -5.29968620651993      4.44100198927713
  C   -6.52085256796689     -4.55455928933350      4.05280708074071
  C   -7.90418525987235     -4.79787512187806      4.07821465393097
  H   -8.26756937238739     -5.74482904247333      4.48705385900935
  C   -8.81590340795413     -3.85935846709742      3.58922652768203
  C   -8.35483954771664     -2.63721686518397      3.06619245770104
  H   -9.06691473684174     -1.89908422830596      2.68609637537705
  C   -6.99081133914968     -2.38329807415976      3.03653362900768
  C   -6.07917828188266     -3.33931144141762      3.52145612131298
  C   -2.58755784721951     -0.75040792446889      1.75757141290330
  C   -3.61748901159114     -0.82769376985303      2.61776004920953
  C   -4.76903492955513     -1.77183457387587      2.42151755729828
  O   -4.74856778621790     -2.33571889718473      1.05734786990917
  C   -6.21271147055748     -1.14454691657821      2.61163147557609
  N   -4.76690112149357     -2.87307806589069      3.36381911782398
  C   -6.73376963106883     -0.44610374107171      1.35299768696579
  H   -6.77978665041177     -1.11736820235099      0.48813771731264
  H   -6.08557670090695      0.40425009746551      1.08358959754381
  H   -7.74080602989593     -0.04159277065505      1.54534681861551
  C   -6.22227352915270     -0.14818491926562      3.79580124808188
  N   -0.19570097665718     -2.66038853503811     -2.15968118670848
  O   0.75629274381374     -1.93971653076419     -1.89357425208678
  O   -0.21721667655711     -3.46765361957132     -3.07905438043627
  C   -2.02668717928233     -4.85821124743606      5.20030259416698
  C   -3.61417443245032     -3.73998859333865      3.54998624199304
  H   -1.75488375097509     -0.06793004171920      1.95140250340966
  H   -3.62953027308993     -0.22556726299779      3.52624871924326
  C   -1.64889323170446     -5.12623113044448      6.66266092425115
  C   -0.33154533132691     -5.91681765607315      6.79286704402718
  H   -0.07297345302662     -6.09045779738416      7.84767683482065
  H   0.49378762215068     -5.36038464574435      6.32200384122271
  H   -0.40940695895502     -6.89519264839321      6.29083958436056
  C   -2.75840977004454     -5.87437308777648      7.39039852870282
  O   -2.58808550877048     -5.84707189353266      8.72869095264722
  O   -3.68102624807333     -6.45651094417230      6.87190647106992
  C   -4.86086873390269     -4.17006975452716     -1.10823286941845
  C   -5.61579640534981     -3.98662020123635     -2.44755462311831
  C   -4.82620926037333     -4.35067420577236     -3.71914360567371
  H   -4.35802155209303     -5.34131165383379     -3.60845770507384
  H   -4.03405976180420     -3.61945118690519     -3.93836363960618
  H   -5.49603217469023     -4.38325866464204     -4.58977016730167
  C   -6.25352975971621     -2.61071866293344     -2.56759980199313
  O   -6.92513090173312     -2.46391489127647     -3.72902680755208
  O   -6.21011902732199     -1.73207683544707     -1.74151071961502
  H   -4.52653193639760     -5.22180538018846     -1.07941165249611
  H   -5.58036466464796     -4.04783167670111     -0.28871324200798
  H   -9.88747316244858     -4.07255773673735      3.61338513111178
  C   -3.18158454213208     -3.86929099776579      5.01618251417834
  H   -2.28938708024320     -5.82141534072602      4.72978550285587
  H   -1.13179218353334     -4.48367703481335      4.67244718002385
  H   -2.77920336997600     -3.33677597282984      2.95736027495079
  H   -3.83338057424211     -4.74432291834820      3.13885366793703
  H   -2.89320451427493     -2.87128196500195      5.39148885001882
  H   -4.04564865388199     -4.19373091708299      5.61648507178881
  H   -5.68138829234324      0.78004553553553      3.55097005153452
  H   -5.78170287735137     -0.58809250392898      4.70365969459792
  H   -7.26311303074754      0.12338575326471      4.02765851235772
  H   -1.51873389491368     -4.16784724581990      7.19672358275790
  H   -3.31307792771836     -6.36905950678889      9.11467478885585
  H   -6.47537264150067     -4.68212473436396     -2.40335341451855
  H   -7.30762136459297     -1.56927881965509     -3.71819253018778
