65
Coordinates from ORCA-job 710_0.0
  C   1.66676281858375      0.92890738959572      0.27818768515131
  C   0.52550438480659      0.51833029732844     -0.41606047520976
  H   -0.36948838352920      0.19878250871964      0.11652386499744
  C   0.51810635437082      0.53604039650640     -1.81742295836476
  C   1.63339907614402      0.98840836032722     -2.52668994827978
  H   1.62056748301686      1.00053883058765     -3.61964727363393
  C   2.76008395589751      1.45005703199331     -1.83580601904204
  H   3.62101956133159      1.84538667208979     -2.38177025781934
  C   2.77483515039970      1.42183241433051     -0.44062188597758
  H   4.90675079825686     -1.63577177016203      4.29404615920836
  C   4.72886599357350     -0.92630304068265      3.48160977311808
  C   3.42536668313532     -0.47282731871330      3.23333107031720
  H   2.60619147288189     -0.81098945359945      3.86753819502066
  C   3.19338540539127      0.42233592924357      2.18758632605165
  C   4.27723888567206      0.90867682505567      1.43262767160002
  C   5.57385834444726      0.46105254604021      1.68337828817714
  H   6.40997283879780      0.84475381099802      1.09164796805884
  C   5.79705767423082     -0.47241690219288      2.70418132206616
  C   3.87652994287833      1.97651984271036      0.43843970796889
  C   1.83887391625942      1.03883158735885      1.80317682426144
  C   2.01213229567445      2.58105055831317      2.07951771903848
  C   3.23391798718992      3.12100377632908      1.30178394231126
  H   -0.37280860964917      0.20070320851420     -2.35480018324338
  H   6.81025773559464     -0.83258745276351      2.90116219661962
  C   0.83159042981644      3.42958654122151      1.59294825062612
  H   2.10034665094131      2.70234711707962      3.16919108214161
  C   2.69104709556984      4.25760797575084      0.44088924606608
  H   4.00794586439294      3.53233365425120      1.96694372522397
  N   1.32281969370808      4.35787327284735      0.66931044180026
  O   -0.32709244728167      3.35459589988235      1.92237720298213
  O   3.32089124205380      4.95107972447724     -0.32416424702557
  O   0.75761159630956      0.60730249841251      2.58633224755111
  C   0.46717467700977      5.32568173927788     -0.00645226654766
  C   0.25833566662514      6.61382091682846      0.79659290984044
  H   -0.49936079642465      4.83128030488289     -0.18796082600480
  H   0.94108398469166      5.54754330382034     -0.97438211021373
  C   -0.65312800124182      7.61126782006478      0.07449279365072
  H   1.24072194903982      7.07930749171553      0.99159679372579
  H   -0.17659091264101      6.35642237305684      1.77803062634051
  C   -0.88742622777792      8.89925495401871      0.86578774668840
  H   4.72280197490593      2.36736616426584     -0.14156027174372
  H   -0.21673122643308      7.85617785113668     -0.91129802244683
  H   -1.62445817801769      7.12769839948227     -0.13750919935110
  H   0.06102281543653      9.42604304479048      1.06542390683903
  H   -1.36003095999471      8.68976034183417      1.84021007767104
  H   -1.54533024751511      9.59394671467412      0.31931407037541
  O   -1.37365416566386     -2.53612481143752      4.65348798499641
  C   -1.88204395066157     -2.77302435311254      3.58561267624469
  C   -2.64858869031136     -4.06556935602771      3.27053285311368
  O   -1.83219696518942     -1.94607365261031      2.52955070432526
  C   0.28545652015657     -0.72889964567409      2.52007798001695
  C   -1.22693491253343     -0.65790101009127      2.71350133980210
  H   0.72240898251877     -1.34230823917954      3.32499612215637
  H   0.52654343861332     -1.21268644679459      1.55989456385196
  H   -1.68136070496280      0.00081025970002      1.96135551055675
  H   -1.45969571536635     -0.27119163851159      3.71574790761672
  C   -2.45219421787480     -5.08914770753635      4.37965006057140
  H   -1.39516108197275     -5.40449376485246      4.39870808883080
  H   -3.07956136694825     -5.97360620054282      4.19956500612627
  H   -2.69376484225348     -4.66383772356925      5.36185229557816
  C   -2.33002095266824     -4.61800383179537      1.88423223121471
  H   -2.51991564078642     -3.87442026689948      1.10042353548705
  H   -2.93448631014320     -5.51467980326788      1.68374479341590
  H   -1.26443089640303     -4.90484376996645      1.84332691923442
  Br  -4.58831493607893     -3.50187218953046      3.28334553627503
