66
Coordinates from ORCA-job 711_0.0
  C   1.42975309394206      1.07701628195467      0.11327814931167
  C   0.41418880583988      0.73041236652242     -0.78058765982744
  H   -0.57512522616011      0.45559197039497     -0.41443351800020
  C   0.66219563790309      0.74716809363352     -2.16031280046455
  C   1.91351927252753      1.13011337776583     -2.64966855371262
  H   2.10109152623239      1.14169366559706     -3.72662354678894
  C   2.92491539827728      1.51445037881011     -1.76021566215073
  H   3.89779786540333      1.84278582188241     -2.13668130385130
  C   2.68215895023599      1.48650839351140     -0.38643707610915
  H   3.65740827058471     -1.90167769440105      4.48020898075772
  C   3.69166435384546     -1.13724251190033      3.69973629211537
  C   2.49278013283645     -0.56084719465135      3.25525270097379
  H   1.55717749622278     -0.88724190524000      3.70676778928335
  C   2.51922670656431      0.40184546402345      2.24289150981530
  C   3.75937631531276      0.80922151838332      1.70979004905634
  C   4.95080837172558      0.24185232898526      2.16072310555482
  H   5.90604913586804      0.57087655824384      1.74121849645225
  C   4.91556937620115     -0.74450753100164      3.15457202056894
  C   3.64948685002912      1.92593872527091      0.69245538386542
  C   1.30906254973951      1.15280868530757      1.65161444481111
  C   1.59872263778772      2.66913651800974      2.00255042626386
  C   2.97337345833763      3.11270505009804      1.46114319354804
  H   -0.13288849390440      0.46341033368904     -2.85504685627541
  H   5.84567249889397     -1.19959275487076      3.50535209242651
  C   0.60098920464567      3.62794549988921      1.35665981535721
  H   1.51195435045612      2.76291008303856      3.09530724237142
  C   2.68232113113761      4.31360140515021      0.56700391160792
  H   3.65224446694812      3.44189519966711      2.26244327012039
  N   1.30297347241660      4.54118932574971      0.58195075645029
  O   -0.60796518592633      3.61159360705122      1.47284080847209
  O   3.47740173336075      4.96744163893782     -0.06480857512048
  N   0.03490772920604      0.79779405046318      2.24340959797788
  C   0.66301988748210      5.60718822115570     -0.18066445021791
  C   0.50852515066702      6.90642592136237      0.61692438187118
  H   -0.32131958061517      5.23158677012992     -0.49852149408481
  H   1.28468900935508      5.77716959702626     -1.07255159794655
  C   -0.15801232345319      8.01955764285275     -0.19747544804248
  H   1.50568383677211      7.23935621860135      0.95507526804699
  H   -0.08673591300419      6.70198876956552      1.52435772583831
  C   -0.32078054047048      9.32410038086669      0.58454129035485
  H   4.62230492899447      2.23584342517250      0.28826923174181
  H   0.43565150636235      8.20815151413312     -1.11080760102317
  H   -1.14770788267024      7.67244226421711     -0.54711857913623
  H   0.65481831407590      9.71529674017758      0.91917121654025
  H   -0.94359856482343      9.17746077721374      1.48310958470503
  H   -0.79960862034019     10.10433953993352     -0.02858172238157
  O   -0.00582083481291     -3.07818706002320      4.11553581433049
  C   -1.14286621815319     -3.20113692259784      3.72728038704662
  C   -1.87792487146505     -4.54785738361847      3.66445649057748
  O   -1.90375774269791     -2.18758352870499      3.29207918130843
  C   -0.53449909792964     -0.53191206906085      2.10023386968783
  C   -1.34319465739262     -0.86477023689689      3.35668099612018
  H   0.27091468511535     -1.27015202354621      1.98438376684167
  H   -1.19576695786855     -0.65364687292941      1.21953397948450
  H   -2.20647877306664     -0.19014844601048      3.45408351631082
  H   -0.71432614874120     -0.76927890830107      4.25237700794377
  C   -0.90299289337128     -5.69966445315648      3.86284919077099
  H   -0.20915317289522     -5.73752938168091      3.00592864720450
  H   -1.44435288659552     -6.65466447161848      3.91946565007445
  H   -0.30602509722030     -5.56318860468756      4.77321160686341
  C   -2.73401499234702     -4.69725463701710      2.41068549514113
  H   -3.45832868103128     -3.87875526199985      2.31740817192857
  H   -3.27332061759504     -5.65555172236790      2.43003355035555
  H   -2.08017208372535     -4.68705022545026      1.52088536914138
  Br  -3.11844608722593     -4.50448082236734      5.25980061669969
  H   -0.64652396580371      1.53851849966161      2.08401440104184
