55
Coordinates from ORCA-job 714_0.0
  C   1.45494881419479      1.08143687513501      0.38751556177795
  C   0.28749726453366      0.72260973651524     -0.29107803085653
  H   -0.62823795037606      0.50592456148818      0.26044088428188
  C   0.28269316003718      0.66209502951701     -1.69131085417660
  C   1.43279752966607      0.98293439282008     -2.41738365700258
  H   1.42319184203904      0.93474739449515     -3.50947293091095
  C   2.59265301443294      1.38859433798900     -1.74586824464030
  H   3.48473694167873      1.67946528197981     -2.30755267419448
  C   2.60027102509277      1.43725229998468     -0.35090053800954
  H   4.44100449658287     -1.48710377852483      4.60064347760981
  C   4.32548790713115     -0.82187480565536      3.74068718116102
  C   3.06538161081510     -0.27944188050025      3.45144726105158
  H   2.21699470712844     -0.49891534097419      4.09856019164421
  C   2.90760866141535      0.55820346540459      2.34556161092653
  C   4.03316646349760      0.90230392399334      1.57154054671823
  C   5.28784568083378      0.36753422860580      1.86344317380950
  H   6.15499334157041      0.64362673630031      1.25635182092237
  C   5.43077705385951     -0.51173328498279      2.94467812670707
  C   3.73965735081391      1.94036945278524      0.50927555538370
  C   1.60655391559110      1.25700212982933      1.91763449794950
  C   1.93728596966310      2.79366131576891      2.10073025610142
  C   3.19683284945550      3.18547518830928      1.29818524251517
  H   -0.63050125593156      0.36906537883424     -2.21627041296985
  H   6.41011057414837     -0.94021852415807      3.17390842473494
  C   0.83631751305457      3.70202034327338      1.56117581648022
  H   2.03732738626910      2.97357927569995      3.18158312628958
  C   2.74764759927056      4.31817451294517      0.38014668416338
  H   4.00235354501673      3.56722745480675      1.94353752583957
  N   1.38822669004641      4.54845810738946      0.60772906141813
  O   -0.33460150781476      3.69832026515174      1.88171268442222
  O   3.42044388430441      4.92158844157443     -0.42150363343933
  N   0.46256160644722      0.92089648824621      2.73800175171706
  C   0.61408963653008      5.54554345444515     -0.12277111792464
  C   0.61219301099582      6.92076668501908      0.55267950633269
  H   -0.41198310898802      5.15665104399358     -0.20537995133679
  H   1.05069402812443      5.61483059523739     -1.13060708561709
  C   -0.22111188473098      7.95010709687736     -0.21714780958515
  H   1.65347364362091      7.27686054582425      0.64320005240495
  H   0.21825931846860      6.81618469789424      1.57908092131797
  C   -0.22884422098885      9.33234592893169      0.43808849338877
  H   4.62498500394476      2.21664363769519     -0.07864713438470
  H   0.16529100232333      8.03291640317686     -1.24962976143486
  H   -1.25862768978080      7.58031513783090     -0.31196393492611
  H   0.79090861140529      9.74615878606190      0.51285232891097
  H   -0.64351411543002      9.28927366435916      1.45938287754961
  H   -0.83720026332118     10.04781560356343     -0.13810630045726
  O   -2.12790138738666     -1.70619735299728      3.14857991407796
  C   -0.08502293930964     -0.43213919600722      2.72715732383883
  C   -1.59282608024707     -0.41310839731350      2.98492638565992
  H   0.36608653230911     -1.06035166138744      3.51410217492381
  H   0.10667680120197     -0.96255024309667      1.77217497165411
  H   -2.01057269122077     -2.18967275451845      2.31995232917968
  H   -1.78924608254704      0.13004667651576      3.92441850849439
  H   -2.10927522953935      0.15126521094178      2.17852870990383
  H   -0.25945957990197      1.63218543290593      2.62810911060420
