44
Coordinates from ORCA-job 715_0.0
  C   17.28858811618609    -14.61679367759225      0.92196938607516
  O   16.42281371546367    -13.71660236963006      0.22622743482233
  H   17.39557872650507    -14.31978192167803      1.97638782893615
  H   18.25766104350924    -14.56656767680968      0.40994719323661
  H   16.89074012269970    -15.64252013794292      0.88902063135202
  C   15.16942580680803    -13.60702947470788      0.70230099478765
  O   14.76957110506511    -14.21878554538049      1.66161024982416
  C   14.35079245659887    -12.58469407483837     -0.07576626309441
  C   14.59946740216253    -12.54342167702458     -1.61672290013890
  C   13.18724408601934    -12.88127481746472     -2.14726422300119
  H   15.32446797084563    -13.30829532879439     -1.92215342774008
  H   14.97126521421736    -11.56861916253207     -1.96542745565720
  C   12.26960128422839    -11.64052177914507     -1.97731156532931
  C   12.03279930868654    -11.66344377260499     -0.43386632869787
  C   12.83934161488332    -12.92047723928088     -0.02818390068326
  H   14.56449695167345    -11.61017941264828      0.39534110345605
  O   12.67911215907830    -13.77547245737109     -1.16075272327646
  H   13.15397769854695    -13.35393432614301     -3.13848606980504
  H   12.50225312224704    -13.41802213573456      0.88737070453223
  N   10.57506891394720    -11.85038425019742     -0.27586295213102
  H   12.34248953723285    -10.76571543994237      0.12189357425868
  N   10.03081380716544    -11.94681196151808     -1.39507577726630
  N   10.90062093928061    -11.84599790596981     -2.42649800916002
  H   12.70195299206684    -10.71483418064080     -2.39182478072963
  C   10.41371154286911    -11.78117113792701     -3.78326632572083
  C   10.42336716173361    -10.38751391209361     -4.39588991276602
  H   9.38120065338039    -12.16454335599165     -3.74851803141313
  H   10.99016393796148    -12.47183756461031     -4.42329861539822
  C   9.85054864654931     -9.30579820294115     -3.70484040655768
  C   10.97529799920957    -10.16270773078746     -5.66484719063448
  C   10.95102745230932     -8.89136513294020     -6.24268362769881
  C   10.37294271567164     -7.81763387503422     -5.55000062841308
  C   9.82460770894423     -8.03541855893856     -4.27469421719219
  H   11.42879938001968    -10.99524942434145     -6.21151192866286
  H   11.38093363140595     -8.72354981546584     -7.23118261598721
  H   9.41728015392425     -9.46868806990374     -2.71418327295977
  H   9.37595530920790     -7.18994425072970     -3.74902315301690
  C   10.31039687650546     -6.43618018004097     -6.11417440849690
  O   9.81658390995864     -5.48813685568120     -5.54763499562294
  O   10.86724012995393     -6.35040791996616     -7.33906187692456
  C   10.84873090638115     -5.06060693487267     -7.94880786408280
  H   11.39269550212157     -4.32799184669899     -7.33270755035744
  H   9.81559031656578     -4.70330794523817     -8.07960415790462
  H   11.33764197020876     -5.17546656020451     -8.92452194475972
