44
Coordinates from ORCA-job 716_0.0
  C   13.47309445029894    -16.63087310749783      1.48536450337626
  O   13.81488339435012    -15.41283650402835      0.81839381249019
  H   13.53676125781379    -16.50808116660157      2.57740457412798
  H   14.19682076512465    -17.38055293287909      1.14212904946128
  H   12.44862573557384    -16.94046174270720      1.22904217576855
  C   13.03752124933520    -14.34958209435284      1.08349580413127
  O   12.10055819002658    -14.38503492279523      1.84307730794160
  C   13.50808758409127    -13.09286891803321      0.36432035344593
  C   14.19827784478491    -13.29456464055211     -1.01919284412566
  C   13.31941821475782    -12.39692894308206     -1.91493998396957
  H   14.13355840945796    -14.34125617871723     -1.34195935220735
  H   15.25855632990802    -13.00357979950324     -1.01918438693576
  C   13.61177940205903    -10.90927659743097     -1.59498837082920
  C   12.84824411614581    -10.73970254749671     -0.24308834287620
  C   12.31384565650501    -12.18062899472306     -0.02631621215502
  H   14.17473536830914    -12.58072279024862      1.07981726082961
  O   12.01614608995962    -12.59352082081596     -1.35782503315648
  H   13.31683068821483    -12.63170991552933     -2.98663466359479
  H   11.43535668373033    -12.28253686036959      0.62036261034253
  H   10.65325038600487     -8.13860825424408     -0.34375798389852
  N   11.99967223814213     -9.40127644816952     -1.95682701053065
  N   12.94662440430788     -9.97858216040577     -2.52905862226466
  C   10.87928402936508     -9.09183510567003      0.16386105794825
  H   9.15815769834111     -8.78660249354473      2.25301574929282
  C   8.79492671654211     -9.52478850365383      1.53090263734224
  N   11.85149668115129     -9.76462858820470     -0.66147733067086
  C   9.57471901192969     -9.83989842236153      0.40697210858513
  C   7.55969160315950    -10.13724790434125      1.73982219702328
  H   11.34285360548820     -8.83105052087050      1.13260931362139
  H   6.95831664491240     -9.88661986628168      2.61479057189739
  C   9.09932208222450    -10.79647034509694     -0.50268112747522
  C   7.08350157371657    -11.08744357060986      0.82221688345281
  O   5.11080672685790    -11.37650008844395      2.09521563404116
  C   7.86617465578853    -11.41402584099685     -0.29561581907705
  H   3.15166922486058    -11.77819839018862      1.49037214777318
  H   9.70606596976907    -11.06881675158963     -1.36867823845666
  H   3.45447955948263    -11.54335715171077      3.25329827743494
  C   3.84077215003736    -11.98246185189787      2.32458657256149
  C   5.76824411561259    -11.77413260375718      0.98579011661558
  H   7.48842277575933    -12.16021090984534     -0.99764984786145
  O   5.32254054607849    -12.59591595839298      0.21786295763489
  H   3.93979245665760    -13.07397114200455      2.43079464384394
  H   14.68993186880086    -10.69026846040273     -1.57838348422545
  H   13.43971184456225    -10.36784918995025      0.61145033332682
