56
Coordinates from ORCA-job 718_0.0
  C   12.87676202403996    -11.65233590690719     -2.20884261757204
  C   12.98744551888248    -11.73776967461014     -0.83078835238951
  N   10.86199116910458    -11.44165336963620     -1.45556002997635
  N   11.57099643286650    -11.47371800364036     -2.53929802034456
  N   11.69451327436511    -11.60522712290880     -0.40766745967265
  H   5.85883845028611    -10.55502872290259      3.94936475352697
  H   9.27123807513245    -10.61517203400556      0.51636652845919
  H   8.30763664710908    -12.77131241449407      5.92184366540350
  H   8.36872377060843    -10.19931480318367      5.91740280910702
  H   6.16799952842401    -10.54273760250457      6.47851466130022
  C   8.48754094855768    -10.22676719498976      4.82344492115485
  C   7.79379379284974    -11.47589431208487      4.23439914675239
  C   9.66721040256258    -11.51601708408647      1.00585478935310
  C   8.42746076953055    -12.75371193377767      4.82777768045698
  C   8.02399399097533    -11.48149399729872      2.71405009847197
  C   5.80093194640701    -11.42471043169752      5.92922927481797
  C   6.26272746341836    -11.43887622883287      4.46989844030397
  C   11.18922236409213    -11.56868230782291      0.95795128293634
  O   9.34271153305025    -11.51433365954953      2.40062413002137
  O   7.16617233027176    -11.45827684724870      1.86801141962069
  H   4.70051832173112    -11.39768712582772      5.97488745497439
  H   7.95244511378889    -13.66149443220043      4.42082220684814
  H   8.05622710015147     -9.29921077655558      4.41245761505248
  H   9.56433700262962    -10.23242863429095      4.60087377604758
  H   5.81640565701163    -12.30427075337097      3.95291225023045
  H   9.50331757165733    -12.80154858149285      4.60562899568577
  H   9.21096323912504    -12.38177390687165      0.50397150345986
  H   6.12445087900770    -12.32119823156581      6.48244501476118
  H   11.53748132747847    -12.46324238500394      1.49819495246042
  H   11.60165801710984    -10.68856296088221      1.47968548181105
  H   16.68335624028728    -12.69293495051559      3.70931465609139
  C   17.46355767946811    -13.22814696456741      3.14518678714737
  H   18.37415138543307    -13.25215067603311      3.76321335548127
  H   17.68560027647841    -12.64078307239170      2.24303260302459
  C   14.16188784618277    -11.95048099469841      0.07272463553056
  H   13.47984813130188    -13.83363599165898      0.97748271826359
  H   15.83849789459143    -14.96182377389917      4.57919491816622
  O   15.49229408780236    -13.47046860337006      1.34149663358836
  C   14.36125858955190    -13.41494667894879      0.46524123230334
  H   18.21960276206372    -14.78346978791718      5.45659495262038
  C   17.02239502655392    -14.65733340525541      2.78899216283953
  C   16.66583181547909    -15.47953624922888      4.06068070537035
  C   17.80222941321307    -15.72131492092837      5.05605063849489
  C   15.76747093728493    -14.67008767211695      1.90060849198600
  H   17.43109646883693    -16.30353482496917      5.91476428190806
  H   14.54400211718010    -14.04580252221819     -0.41988657366330
  C   18.12644785865633    -15.35998383010318      1.96234982190069
  O   15.09552354579603    -15.64914737120576      1.68300381084545
  H   16.25287356116052    -16.44480552044757      3.72847182632678
  H   19.07463787857853    -15.38269093657513      2.52079105890847
  H   18.31173584185146    -14.82317479957096      1.01766377193247
  H   18.63134778262092    -16.29532737988287      4.61241238694596
  H   17.83862694481403    -16.39420216462798      1.71886932519979
  H   13.66103551968391    -11.70616111954418     -2.96224163330664
  H   14.06019492077761    -11.34842863013659      0.99136582977284
  H   15.07051081212597    -11.59296571894336     -0.43571477074127
