32
Coordinates from ORCA-job 71_0.0
  H   1.51924873216309     -2.50177202265862      3.14590594233622
  C   1.05557961097006     -1.63784192914303      2.66091057904809
  C   -0.34513195957146     -1.53860750626401      2.64342917713398
  H   -0.93800794245410     -2.32706461697074      3.11617709576022
  C   -0.99960885306191     -0.45372588571112      2.03255935828393
  H   -2.09139440792588     -0.39241246374648      2.02643406836573
  C   -0.17948466277776      0.51090483642109      1.45811323841887
  C   1.21294952593517      0.41677583003283      1.47735685560480
  C   1.87198577133296     -0.65629826731685      2.07045785789517
  H   2.96099294494540     -0.75377416889926      2.08900445148938
  C   -0.18138704783872      1.82843174071430      0.68240552843445
  C   1.41425405361231      1.72525292980550      0.71729460840132
  C   2.20481549068124      2.84541915931847      1.39343931368134
  H   1.82112249290522      1.56117593883090     -0.29748157676558
  C   3.71537780735841      2.58601449176321      1.44624009108658
  H   1.82335939309561      3.00204950009967      2.41843164704603
  H   2.02317245059653      3.79111306041138      0.84939770975129
  C   4.50046658600497      3.71315254036900      2.11993583337311
  H   4.09331835157587      2.43336419747703      0.41854139198029
  H   3.90508877393411      1.63773400613688      1.97969846098248
  H   4.34893379985801      4.67457525675681      1.60013258989145
  H   5.58275466701157      3.50536849137405      2.12542549736947
  H   4.18295803145355      3.85248755145166      3.16719246638763
  C   -0.85645809543626      3.03730616978731      1.28609684005007
  H   -0.54804341158202      1.68842961058034     -0.35209280911198
  C   -2.13805366905501      3.09002480789338      1.67090440388780
  C   -2.82065979573905      4.29365165608005      2.25214532342999
  H   -3.21112621154329      4.08364641413615      3.26429977419208
  H   -3.69053208477264      4.59687619315948      1.64190982373907
  H   -2.13796272415649      5.15528316699045      2.32322406745127
  H   -0.24576403323950      3.94216735517327      1.39513290932604
  H   -2.76013358428004      2.19044195594688      1.56377748107935
