44
Coordinates from ORCA-job 721_0.0
  C   -27.42938526873271      2.28899662772426     19.72013281698935
  C   -27.35274740433767      3.71391954398442     19.18116897064755
  C   -26.08732463646759      2.11716206619581     19.73935899996685
  C   -25.78235604037412      3.51472228060909     19.23896507686560
  C   -27.23164932489275      3.93628455333907     17.62277953703348
  C   -25.66736917672366      3.75652904376768     17.68990940920421
  C   -28.59645810302877      1.44603409318020     20.13556439840479
  C   -25.17881477579375      0.98665716210472     20.10988332187490
  C   -27.97738684105122      4.86278779093503     19.92909152287651
  C   -28.08372033014830      3.06650150089638     16.73302661511389
  H   -27.49556917637149      4.98131303443225     17.42003430156949
  O   -29.19953871964410      3.72670894000713     16.35079798666820
  C   -30.10346461568563      3.01649766740864     15.50493441826336
  H   -29.59603372676943      2.66997616262665     14.59156923682531
  H   -30.90402930269394      3.72329222333995     15.25189439434336
  H   -30.52212018639422      2.13970413193520     16.02271877363625
  O   -27.85626354071497      1.92795100538587     16.39398135156274
  C   -25.02382011336417      2.62737023470208     16.88643225494782
  H   -25.51121091028086      1.66107279705360     17.06370274269417
  H   -23.95407428822335      2.54805483801404     17.14633848175471
  H   -25.08973053279614      2.82867201538401     15.80447957895499
  C   -24.96881521097910      5.08920556808528     17.39642328076684
  H   -25.40022771803028      5.91133701892731     17.98981494679414
  H   -25.06280263715306      5.35742849529432     16.33055284574835
  H   -23.89360971482455      5.02370664486074     17.63555316348793
  O   -28.27506670773297      4.53028609183536     21.20154831538310
  C   -28.79902134495993      5.57557548077052     22.02087052999276
  H   -28.08343009260489      6.40876342094463     22.09942743951277
  H   -28.97560145250144      5.13122190809397     23.00860923710764
  H   -29.73957196726340      5.96715714838612     21.60360352249799
  O   -28.16090519422375      5.97222742723805     19.48255386912756
  H   -25.16651640803575      4.16890952219070     19.87647067810879
  C   -24.25356106625080      1.30771285180663     21.29479788307187
  H   -24.56022339331648      0.71987570976705     19.23364352637732
  H   -25.78532056527157      0.09451052175214     20.34048973725278
  H   -23.61219722856576      2.17803172365211     21.07893500771646
  H   -23.59259591623456      0.45573438758942     21.52175469681035
  H   -24.83414106772892      1.53942851965355     22.20236978744655
  C   -29.69637177399332      1.26347999236800     19.08036613433132
  H   -29.03958521463167      1.91269482195648     21.03459368814911
  H   -28.22019060223622      0.45929955985933     20.45549138636378
  H   -30.09474912777312      2.23581523437127     18.74525612704091
  H   -30.53918587865567      0.68828109176971     19.49659226519320
  H   -29.31683270254256      0.73537914580106     18.19363774151999
