39
Coordinates from ORCA-job 723_0.0
  C   3.06270973291445     -2.40298251715580     35.53054492806053
  C   3.91916360615542     -3.16745340205893     34.73998439248830
  C   4.53653517982157     -2.59165565698176     33.62513606491812
  C   4.28178356403223     -1.25748929954989     33.30174496388468
  C   2.78973693641766     -1.06115127636425     35.20712949480195
  C   3.41005855730099     -0.48008682455424     34.07908575934881
  H   2.60554673765204     -2.82982601449815     36.42512101353179
  H   4.11483813295726     -4.21090044644267     35.00144126472872
  H   5.21726227641312     -3.18129731030482     33.00527281928250
  H   4.75152544141710     -0.80595961708816     32.42609311633414
  C   2.01089663063601     -0.24967489707868     36.15953633308972
  C   1.08052548283119      0.79540211960193     36.02646772702685
  C   3.11054452763265      0.95184101556204     33.69234165951428
  N   1.81641399519485      1.05009553051842     32.98477422888655
  H   3.88665676526729      1.33385945939005     33.01659622711308
  H   3.06694542183262      1.60803877753604     34.57115039113650
  C   0.66405808081036      1.59860851546024     33.58448877146323
  C   0.25998108770695      1.37570188440031     34.93815258487457
  C   -1.05198068250059      1.77947719358252     35.28213145736709
  C   -0.15564159569917      2.40283217670063     32.76414170277264
  C   -1.89186752508198      2.47941955550663     34.42069913692268
  C   -1.41675622849723      2.83717388843677     33.15887110149811
  H   -2.89793658743544      2.75651082164189     34.74394251879578
  H   -1.43518709300465      1.50633702556659     36.26425830796824
  H   -2.02232112228309      3.44223021009741     32.47947542604974
  H   0.22272225844229      2.68198610254450     31.78040293082458
  C   1.82539965836643      0.53859754820640     31.67876997362815
  C   0.52177214278034      0.10285087674957     31.02592542084039
  H   -0.31010562400046     -0.04114141405617     31.72604461666878
  H   0.74676873627284     -0.84261256238416     30.51159790746302
  H   0.21369848241699      0.82342507743880     30.25302149231962
  O   2.88273261276946      0.35621930443351     31.10328831785796
  N   2.28137967462415     -0.41035614235419     37.49039324202216
  N   1.64143695273392      0.47197421286496     38.17839740904861
  N   0.91638928427146      1.21973136078082     37.33587462072639
  C   0.25951806429262      2.39035957713805     37.90115059742681
  H   0.83874273351590      2.68207634635940     38.78630470265939
  H   -0.77359523252016      2.17360533399971     38.21227001399186
  H   0.25129893354255      3.21100346635463     37.17299736266166
