34
Coordinates from ORCA-job 727_0.0
  C   1.40687646834908     -8.94724850134783     37.58899448016318
  C   0.41391412368580     -8.07518281210307     36.83962928874968
  C   2.10385125566635     -8.47342127548823     38.83556103521835
  C   1.16163003964719     -8.15361318159727     40.00699299936905
  H   2.68735851543612     -7.56422623980803     38.59258678489143
  H   2.83780855674137     -9.23432284803470     39.15021818185610
  H   0.44718654265973     -7.35475196519161     39.74979149336942
  H   1.73025831249682     -7.81619927233319     40.88873409297483
  H   0.57764600843533     -9.04142421180952     40.30028001082005
  C   1.56815139584757    -10.13811538391700     36.98788898294129
  C   0.75450680971800    -10.28553360765928     35.73263092785795
  C   -0.01221665001629     -8.92078350788380     35.61312726024359
  H   0.87394759128945     -7.10991054247093     36.55540810486404
  H   -0.45070661601977     -7.81796227740071     37.47721004042546
  H   2.23487529526301    -10.92343963691755     37.35892190197055
  C   0.39938529603714     -8.40127487954130     34.17864797845991
  H   -1.09924138361621     -9.08911422836912     35.62174304019452
  C   1.89773464572958     -8.10144045164938     34.24030016976198
  C   1.52253276893386    -10.37493584665970     34.35540806873016
  H   0.06568094720064    -11.14770335380533     35.79321965798123
  C   2.55875327447561     -9.26483701292310     34.33798041940822
  C   0.44979535429767     -9.76229864796661     33.42645976512463
  H   1.88454659376038    -11.38365416469870     34.10932682191149
  H   0.79082679336712     -9.65740092684374     32.38413380842448
  H   -0.50719590202111    -10.31040598117584     33.44564716661918
  H   -2.04093258082746     -8.43875909291770     32.63254519750481
  H   -2.45430253654827     -6.73446142395893     32.91207036360824
  C   -1.92805934356337     -7.60222545655913     33.34161932599334
  C   -0.45430793614074     -7.27178750155429     33.59532492000388
  H   -2.45829985072547     -7.87854380063408     34.26750339191032
  H   2.32408126593720     -7.09607654842320     34.28611677045708
  H   3.63207929964985     -9.40155784723961     34.48649195288262
  H   -0.38620209271508     -6.39841133755964     34.27050268055856
  H   0.00888773756888     -6.94776623355776     32.64575291474976
