40
Coordinates from ORCA-job 728_0.0
  C   1.72081122256060      5.39598258290346     35.04736776278813
  C   2.44082496396959      4.33271393790300     34.22128361722407
  C   2.79139008490906      4.88167439796955     33.04010674875214
  C   2.30263451385717      6.33568065697249     33.07253069937550
  C   0.35187021901487      5.54503959432310     34.31685806859461
  C   0.75874655792192      6.20898411417966     32.96416058720471
  C   2.47489753583919      6.66242421655278     34.57200445110109
  H   2.74957384721819      7.02079231687395     32.33885487565108
  H   1.63859592537800      5.22274520061509     36.12704952439363
  H   2.01646506182036      7.61749419600266     34.86889685170284
  H   3.52877759628430      6.65476095501932     34.88492424726000
  H   2.55197518960137      3.28875305060696     34.51980979916874
  N   -0.46461504344482      6.75564200557524     34.58475090487118
  H   -0.24304070118807      4.62204650161607     34.30427204123419
  N   -0.03436139381414      7.39589488333231     33.37152792034185
  H   0.40622275515981      5.77330656067372     32.02017590216571
  C   -0.51116056559922      7.37953555480776     35.81695636038928
  O   -0.59140377124024      8.71496830359269     35.70788851586920
  C   -0.73611467486844      9.42599359915125     36.93505808615991
  H   -1.65829047048279      9.12638260352682     37.45666517546890
  H   -0.78083055703531     10.48913075794869     36.66648335341231
  H   0.11797731884683      9.23778996995281     37.60374486875062
  C   -0.92847119228351      7.97887284279082     32.48453104882254
  O   -2.01654413125451      8.45371499958805     33.10133995935153
  C   -2.95963485149968      9.15373824237585     32.27374453674379
  O   -0.51078508290096      6.76317634780711     36.86061387772791
  O   -0.69696373276302      8.06495258903319     31.29831505334795
  C   3.43129843154740      4.25634566882353     31.83720265650250
  C   3.77926909411549      2.77517141808053     31.98025269981222
  H   4.34112036639443      4.83500509062635     31.58545294748484
  H   2.76235144543277      4.40407057642384     30.96702933327038
  H   4.47403883251619      2.60673542622281     32.81920103441945
  H   4.25902493181224      2.39251644125653     31.06582116614674
  H   2.87904558904247      2.16695742177361     32.16608793373106
  C   -4.09683004144532      9.62016276349894     33.15884972105205
  H   -3.30898780088023      8.47842368546498     31.47527274565076
  H   -2.44734388342295      9.99638647867104     31.78077920701012
  H   -4.59617055862947      8.76565208338406     33.64166917824574
  H   -4.84297835726403     10.16310607883547     32.55736850241889
  H   -3.72958467322554     10.29477588524383     33.94782803638130
