47
Coordinates from ORCA-job 729_0.0
  C   1.12889117890516      4.57333047667037     34.69557803546094
  C   2.25170389052698      4.00758370999238     33.85905886666665
  C   2.71280838927634      4.65444969691390     32.77527602794822
  C   2.08888304782900      6.01250851737529     32.43673035961974
  C   0.00713411577675      5.07894104853496     33.75101502438934
  C   0.54007564046443      5.95349150003658     32.59222206276779
  H   2.68979260462947      3.06176611113597     34.18441959659211
  C   3.85371211770514      4.14028489099775     31.92462917734060
  C   4.46661465856564      2.80563137370810     32.34486774761204
  H   4.64744559021317      4.91063214376776     31.90067359742073
  H   3.51098473492081      4.06725707082351     30.87646711569780
  H   4.89096566730140      2.85303523768332     33.36073544007743
  H   5.27968980377480      2.52299751441833     31.65775842013932
  H   3.72184683319881      1.99340571229697     32.33161572331067
  C   -0.09245767533936      7.32920498841265     32.82956094956432
  H   0.12851995987938      5.58680146422741     31.63578167747954
  C   -1.02020569945006      5.95360897142078     34.46524904853101
  H   -0.52607994984206      4.19521082943180     33.36344473099884
  N   -0.98168792438915      7.22364389808754     33.89736808299990
  C   -1.80389255838893      8.33144298775337     34.37032291066525
  C   -3.17155522939007      8.40607036725037     33.68238811274738
  H   -1.23275207195277      9.25505912078669     34.19115667294901
  H   -1.93078166892597      8.19725302475267     35.45545048057735
  C   -4.01901941790809      9.56472293294426     34.20947045784294
  H   -3.70035382518443      7.45069987272352     33.84045985683380
  H   -3.01867726297944      8.51418859629740     32.59478314348609
  H   -4.20534106472557      9.46654716566733     35.29221848502296
  H   -4.99791402102057      9.60170287331958     33.70618553717939
  H   -3.52283108742228     10.53584860128053     34.04359706919093
  O   -1.74790272360466      5.63757119243645     35.37986860243430
  O   0.10932966449497      8.35461755072087     32.21878859511875
  C   2.46991472354396      6.59119658179603     31.06707121797720
  H   2.45860558142162      6.71965924955292     33.20583262148427
  H   2.15138917464625      5.92430303828023     30.24837476646610
  H   3.55571143105322      6.74243336398347     30.97647521815656
  H   1.97720986665956      7.56207104220528     30.92251044816081
  C   0.58290852699284      3.56764747288077     35.71588495219348
  H   1.50391141980856      5.44318361467862     35.26843838541946
  O   1.62676004895675      3.01167475757096     36.53325919807920
  H   0.13987459628190      2.70151100668124     35.20097079280839
  H   -0.17797973259420      4.04106442842761     36.34956407914247
  C   2.04892496340714      3.74146084898787     37.58982932453544
  O   1.62282153261092      4.83760620072766     37.85665966075819
  C   3.09970454832705      2.99370063369937     38.37479227052110
  H   2.65714694854834      2.08469936893174     38.81253288968238
  H   3.48996374474257      3.63698333669256     39.17273635901781
  H   3.91534690865463      2.67045561303499     37.71024620693041
