28
Coordinates from ORCA-job C:\Users\AIElement\Documents/72_0.000
  C   -1.31963089070189     -0.72094603145817      0.30517987641434
  C   -1.93634532756860     -1.96755961536395      0.25351746662052
  H   -1.51361948817852     -4.09107617444244      0.26120497429137
  C   -1.57070137240012      0.78467239325859      0.29074192863823
  C   0.06904579316593     -0.58113939411533      0.37986123293562
  C   -1.08351354772351     -3.08580046365814      0.29341203193168
  C   0.31146946675414     -2.94516586994670      0.36810876923027
  C   0.61824939272954      1.70260385188420      1.56201754326773
  H   -3.01984873628264     -2.09733165732478      0.18230005411490
  C   0.92375005874485     -1.67907980662354      0.40688538653168
  H   2.01268541248038     -1.58919659045688      0.45143799772556
  H   0.93383284342540     -3.84443870737657      0.39221168692378
  C   0.01638256931150      0.94418923274461      0.37584165003371
  H   -4.51754629503540      1.56635168965484      2.03739097213839
  C   -2.43266933822576      1.39549390573671      1.39882006608261
  H   0.42033453775339      1.37375835144253     -0.55990378059173
  H   -4.30828533125014      1.47113584354812      0.27281355689168
  C   2.14907193998195      1.69626804486379      1.56851687119033
  H   -1.95054854307609      1.13585129441535     -0.68688257549846
  C   -3.92494112061763      1.09509981900606      1.23656512955564
  H   -2.08921764153369      1.03029212470319      2.38151084840805
  H   -2.27918592830658      2.48954204997099      1.40521226526264
  H   -4.12510121679539      0.01164277287411      1.27276692586462
  H   0.25748418025863      2.74648146586757      1.53494420985032
  H   0.24622124861254      1.27246292303339      2.50733650070964
  H   2.55724459505765      2.13796561554972      0.64356689778007
  H   2.54788489641971      2.27464422696646      2.41762677180720
  H   2.54835784300039      0.67207870524626      1.65150474188960
