41
Coordinates from ORCA-job 730_0.0
  C   1.17261737421862      5.91809654346532     35.13287338172086
  C   1.89167120800349      4.89181242479918     34.27319792226091
  C   2.27007205831953      5.49879079230809     33.13132352047068
  C   1.79828862160419      6.94744025468080     33.23479686671367
  C   -0.21286893365263      6.20769840307066     34.42715408566323
  C   0.22246337006603      6.90804264744927     33.10415644123576
  C   1.95256134634145      7.19567526744292     34.75018648814350
  H   2.25916540673896      7.65882233166863     32.53700179896379
  H   1.05629267844560      5.67882968054237     36.19725770818121
  H   1.48375658106909      8.13103751546202     35.10128740297387
  H   3.00107204901738      7.16878527523318     35.08183696958881
  H   1.97655633108384      3.83120517700005     34.51784780315536
  C   2.90986041325872      4.93485520129392     31.89851725514468
  C   3.22546457292309      3.44033919536785     31.95383484417726
  H   3.83440197711298      5.50765921273508     31.69093234448178
  H   2.25335236532001      5.14917546825963     31.03254772854469
  H   3.90922939693850      3.20665428082444     32.78620443512136
  H   3.70527621305318      3.10315328475514     31.02156862219276
  H   2.31117055704972      2.84154088065878     32.09654542122059
  C   -1.16136094482153      6.95558364220189     35.35607175787375
  H   -0.71970392043043      5.25110352365697     34.22397870786153
  C   -0.34031529256856      8.29067877063550     32.79943916437698
  H   -0.04913830739923      6.30303301155281     32.22418899644919
  C   -1.72777227001888      8.26862390153495     34.92569374043088
  C   -1.34347770339978      8.89956619404821     33.72680785173237
  C   -2.66576384369831      8.90532628013786     35.75819663915294
  C   -3.20693312237680     10.13243337202919     35.39921634839820
  C   -2.83118870342726     10.78063801278527     34.20128983028444
  C   -1.89497369979729     10.14597270723994     33.38179523342142
  H   -2.94993287549110      8.40652599194009     36.68705729618094
  H   -3.93871843726989     10.61166852084591     36.05736662714617
  H   -1.55671928273187     10.59370496602212     32.44667704854481
  C   -3.45050335296073     12.12369111318298     33.86279994142337
  C   -2.99726369516783     12.77714926780751     32.55858060661999
  H   -3.25341294792223     12.81030816278778     34.70659042797750
  H   -4.54887254502759     11.99790256463073     33.84979884974458
  H   -1.91271986299019     12.97170330527289     32.55402162085667
  H   -3.50820948927310     13.74209433575207     32.41629330085577
  H   -3.22720700718848     12.14779086840411     31.68390706048109
  O   -1.45643555254975      6.47147696766294     36.43426465663341
  O   0.02383926959909      8.88061068285077     31.79789325359853
