108
Coordinates from ORCA-job 735_0.0
  C   -3.25245690786103     -2.81158509978744      1.61880588498132
  C   -2.38742763348721     -2.14874799393775      2.48980728120298
  C   -1.00877133536535     -2.03315282985913      2.18295326719302
  C   -0.54634268411839     -2.58246182322148      0.98824571562487
  H   0.50682693211542     -2.51434308765903      0.71592230791155
  C   -1.40929455089511     -3.23783168311136      0.10820156395710
  C   -2.79802628451716     -3.37318980694800      0.40274326070994
  H   -4.11587991952773     -2.28470411562699      8.03096191349527
  C   -4.35151521975847     -1.35643237086261      7.50686543554309
  C   -5.46844581675963     -0.60198241577541      7.88321471954508
  H   -6.09658422023656     -0.94726436378574      8.70739370872758
  C   -5.81739558692522      0.59344042352064      7.21915463586713
  C   -4.99985095799312      1.03367451343659      6.14268488566551
  H   -5.26130440552660      1.95825884751210      5.62231827266348
  C   -3.89117838932903      0.29486624787728      5.77205996989533
  C   -3.56379820696505     -0.89501357485175      6.44833847070909
  C   -0.15843862715703     -1.37451513938339      3.15843238585435
  C   -0.67143038477673     -0.85135838216049      4.28572007329035
  C   -2.14000331826152     -0.86601288718463      4.61362911612223
  O   -2.90389213649470     -1.63979210570422      3.62272237315302
  C   -2.82068348930959      0.57005322355492      4.72477433299585
  N   -2.40791538296054     -1.45839592880165      5.90723698489621
  C   -3.36317493277012      1.06202547333920      3.37806978295339
  H   -4.15313761559167      0.40505768878594      2.99157123636870
  H   -2.55837101885324      1.12155997970864      2.62703898663962
  H   -3.78248268695681      2.07429867562016      3.49144839403731
  C   -1.82542758661156      1.60762229081146      5.29336794744719
  H   -1.37650153930296      1.26429866078007      6.23789820218584
  H   -2.35972894956123      2.54681778407660      5.50218140022995
  H   -1.01851295229532      1.82770485701249      4.57636022634963
  N   -0.81219546699463     -3.77978220770210     -1.11861082506445
  O   0.37717320897292     -3.55502016365126     -1.31668385418850
  O   -1.51973414298612     -4.42685273658148     -1.87508878827437
  C   -2.01501187867506     -2.81881123656003      6.20398828114899
  H   0.91709226909569     -1.32738126444450      2.96451167635827
  H   -0.02630332057262     -0.38713009787271      5.03228299816579
  H   -4.30763157408708     -2.88774680180432      1.88292974339664
  H   -1.05893368607643     -3.04040847484753      5.70877605966500
  H   -2.76395025194155     -3.56134404578040      5.86774948295685
  H   -1.86756115018223     -2.94256233398917      7.28882564200329
  C   -3.74629124163395     -4.01194740004028     -0.43610341659317
  C   -4.62074735850485     -4.53616642959316     -1.11109740888293
  C   -5.52745561475821     -5.16489753856048     -2.00538959227515
  C   -5.08347812682023     -5.59957088251346     -3.27128703736679
  H   -4.03574643276830     -5.45935625721462     -3.54600790915335
  C   -5.95908247863150     -6.20712006413606     -4.15699273817258
  H   -5.56198217100694     -6.53898648466165     -5.11395281528511
  C   -7.32931348486223     -6.41215029650676     -3.84138737817058
  C   -7.78810860795746     -5.99488646068275     -2.54854950379597
  C   -6.88318195852372     -5.38565950061477     -1.68090445393381
  H   -7.22764244039501     -5.06296079166112     -0.69682032699442
  C   -9.23548635400163     -6.23603227788328     -2.08482090626241
  C   -10.11100823811772     -6.54577880225869     -3.31500171856375
  C   -9.45549585686667     -7.52488377923651     -4.27736355961539
  H   -10.31338031359878     -5.61014483512458     -3.86418241324489
  H   -11.08551910555798     -6.94545324595993     -2.98752943806222
  N   -8.19107516082587     -6.99176028193877     -4.76430367708858
  H   -10.12698250046737     -7.68848650040146     -5.12904905218530
  H   -9.31344962234742     -8.51518653518084     -3.79438351331438
  C   -7.65919286934143     -7.47230577263061     -6.03854182134514
  C   -8.70608852992950     -7.81349455021945     -7.09631096742713
  H   -6.99693191827534     -8.35113142369608     -5.88325697722996
  H   -7.01901952404576     -6.67887577955360     -6.45369944084362
  H   -9.30273641194213     -8.70360748265825     -6.84514279548958
  H   -8.19018528579507     -8.02732806586192     -8.04549280840974
  H   -9.39407739658115     -6.97080171685218     -7.27252297899861
  C   -9.26867701150765     -7.42666902924913     -1.09726432353591
  H   -8.89916242098781     -8.35511498587279     -1.55961340285247
  H   -10.29742436944017     -7.60661136183116     -0.74041809859809
  H   -8.63411048551353     -7.22615702900996     -0.21993361757681
  C   -9.82680311070063     -4.99477433098125     -1.38411863960983
  H   -9.74452806981083     -4.10010723595597     -2.02142503838095
  H   -9.32925229225098     -4.77582072805347     -0.42722308655225
  H   -10.89447218833028     -5.16037850416506     -1.16313490116178
  C   -6.96069809775218      1.34848604801050      7.61794415982335
  C   -7.93245273707200      2.00544481246563      7.96075122243228
  C   -9.05905895802372      2.77957148998631      8.36661487869809
  C   -9.74889863295844      2.49759207721455      9.56652691094448
  C   -10.84077324275823      3.24021004004403     10.01205361427938
  C   -11.30168263043997      4.33894379001958      9.22022232427291
  C   -10.62441696003478      4.60854600330373      8.00437541953724
  C   -9.53097910469853      3.85753142601187      7.59323397301311
  H   -9.38978630621255      1.66399524830475     10.17126167679815
  H   -10.96345067547683      5.41749070588810      7.35800404091417
  H   -9.03498964770084      4.10068367128549      6.65070969448784
  C   -11.52005750928196      2.93293560002901     11.35316436051177
  C   -13.00225786003528      3.34320330613209     11.22245706455777
  C   -13.17239095868105      4.79230864424052     10.79603068823742
  H   -13.52661423295943      3.18925497586362     12.18051100136012
  H   -13.48653447736303      2.68402794949988     10.48128895845171
  N   -12.37090385614751      5.12286142591485      9.62724235867920
  H   -12.92309387768251      5.47264881686473     11.63657475891595
  H   -14.23632377498286      4.97831757109430     10.56242097624555
  C   -12.73996162558005      6.35241271038829      8.94284293320060
  C   -13.76574741831246      6.16969706462644      7.81794713349606
  H   -11.83284101924177      6.84345965830028      8.55580767481475
  H   -13.14847313133872      7.04279012772093      9.70177615805682
  H   -13.37602035471930      5.51714999796761      7.02121463950776
  H   -14.02661533200204      7.14201338827386      7.36812114773809
  H   -14.69488133646303      5.71458586218086      8.19816014703736
  C   -10.82672736564893      3.74029587694958     12.47667061841503
  H   -10.80626122919898      4.81908797783490     12.25953967812680
  H   -9.78135651357626      3.41391911345326     12.59297336205921
  H   -11.34083102352249      3.59317357586120     13.44255451922078
  C   -11.46965242225463      1.43732523142015     11.71578997122037
  H   -11.89138829529774      0.81372977950488     10.91157710098436
  H   -12.05398651191298      1.25356188755596     12.63253833802262
  H   -10.44443212704742      1.08966481247801     11.91307110054925
