28
Coordinates from ORCA-job 737_0.0
  C   -29.44387680285293     -0.61465022240039     18.21518976910405
  C   -28.17292159016423     -0.79238922119240     16.58297907730419
  C   -28.19170948604740     -1.46444198584743     17.97581769949358
  O   -29.38001216506552     -0.06689090033704     16.87831197700736
  C   -30.74118447078799     -1.39352392365457     18.40903464149821
  O   -31.76804213006611     -0.56293930760077     18.60909999413256
  C   -33.07893050852651     -1.15232944330197     18.70768994201916
  C   -34.08215490391822     -0.03360827281376     18.89477767912616
  H   -33.08497044413039     -1.86180655041197     19.55144277111252
  H   -33.27339824828412     -1.73647090299635     17.79323552698874
  H   -33.87124341147097      0.53627395108041     19.81314466902714
  H   -35.09879353548795     -0.45040866653946     18.97210934717755
  H   -34.05723499741764      0.66374547503440     18.04300589679336
  O   -30.83766754710803     -2.59651808280145     18.35021564800682
  C   -27.01953811304294     -1.22729291324976     18.89677265352444
  O   -25.88744866509671     -1.70931473411895     18.35707225188833
  C   -24.68180547649057     -1.56920041365779     19.13316063621470
  C   -23.54477049116648     -2.19192053779223     18.35003641000941
  H   -24.82959574801029     -2.05963901844597     20.10926049456480
  H   -24.51020017277098     -0.49890984961998     19.33426827029131
  H   -23.73350548556650     -3.26041795577802     18.16195189359935
  H   -22.60473419489572     -2.10177556997610     18.91686311974430
  H   -23.41119660184525     -1.68956041796492     17.37912356865034
  O   -27.07608613104584     -0.68620561378948     19.97427962852122
  H   -29.34535511929876      0.16182401411816     18.99270734471294
  H   -28.41415978364862     -2.54182722181415     17.94025840018469
  H   -27.31696891271513     -0.11978095479994     16.39772806877215
  H   -28.28938486307725     -1.47214075932811     15.72208262053012
