32
Coordinates from ORCA-job 741_0.0
  C   0.98921448345668      6.03359244486370     34.70726552583761
  C   1.91706431594841      4.89357835745981     34.31586853716472
  C   2.37373997360422      5.13241443100043     33.07112570806068
  C   1.73649163623403      6.45204296486442     32.63237268470751
  C   -0.31942811047751      5.88937214238961     33.86589910986480
  C   0.16833162096584      6.14927456891428     32.39592914593403
  C   1.66869118913467      7.20990498077688     33.97305423499819
  H   2.21058759201817      6.95205883911043     31.77569705746441
  H   0.80205037890198      6.15569541123908     35.78335099696588
  H   1.06120782264027      8.12554756101942     33.94258907932923
  H   2.67239035071514      7.43492643348908     34.36249960549606
  H   2.09417746974821      4.00072477590045     34.91817076382712
  C   3.24948437414249      4.30392564010730     32.17920068801499
  C   3.75536443360390      3.00362098414786     32.80197359200251
  H   4.10697000424493      4.92675493768250     31.85747869011176
  H   2.69372616224304      4.07910892396407     31.25022698066426
  H   4.33474388276846      3.19513098971280     33.72012000307724
  H   4.40787892834910      2.46092950003259     32.10035243550674
  H   2.91902460135570      2.33594887862594     33.06454950963295
  H   -0.78520637967335      4.90063765238661     33.97340641487281
  H   -1.05160178306955      6.66099729301876     34.14046983815662
  C   -0.48130675372389      7.41501433937317     31.75827838686370
  C   -0.50520377745046      7.51072501130975     30.24306912945482
  C   -0.91958523576144      8.88410113401324     29.72559607918307
  H   -1.19232395448856      6.72376672608302     29.88170763574358
  H   0.48347186657424      7.20516860652533     29.85572132982519
  H   -1.91595289120963      9.16149849328711     30.10024281424312
  H   -0.94661051542645      8.89153761916589     28.62532426752351
  H   -0.21844101727365      9.66469733072661     30.05934531929590
  O   -0.90238271388956      8.30287133616048     32.46386578287002
  C   -0.02660647213172      4.98307767368412     31.53128013091527
  N   -0.18452148207373      4.06114401896505     30.84459852239114
