80
	Energy:     175.4134839
C         -5.63437       -2.49537        0.17585
C         -5.30154       -1.76002        1.33103
C         -3.97476       -1.32375        1.49222
C         -3.01205       -1.58017        0.50704
H         -1.98183       -1.25712        0.63838
C         -3.36555       -2.24315       -0.66046
C         -4.67555       -2.67974       -0.83451
H         -6.79604       -1.52531        7.40879
C         -7.03689       -0.59664        6.90410
C         -7.53833        0.47872        7.64240
H         -7.67677        0.37507        8.71509
C         -7.87740        1.68125        7.00533
C         -7.69403        1.84355        5.63322
H         -7.93841        2.77344        5.13299
C         -7.18563        0.76162        4.91318
C         -6.85724       -0.45282        5.53720
C         -3.56168       -0.61641        2.68958
C         -4.50370       -0.31668        3.58205
C         -5.97463       -0.66834        3.40906
O         -6.27658       -1.50175        2.26114
C         -6.90081        0.64298        3.42279
N         -6.37661       -1.40507        4.63524
C         -8.23005        0.42568        2.67742
H         -8.75692       -0.46691        3.03296
H         -8.06345        0.31479        1.60025
H         -8.90641        1.27758        2.81866
C         -6.21960        1.90060        2.85651
H         -5.35746        2.21464        3.45602
H         -6.90857        2.75368        2.84118
H         -5.88091        1.73435        1.82813
C         -5.62839       -2.55844        5.08918
H         -2.52307       -0.34603        2.83941
H         -4.22352        0.21686        4.48621
H         -5.33068       -3.18753        4.24400
H         -6.24008       -3.18166        5.74985
H         -4.72319       -2.26423        5.63272
O         -8.36737        2.68611        7.87392
C         -9.26853        3.67091        7.49374
O         -9.69946        3.88381        6.37287
C         -9.71023        4.43359        8.70063
C         -9.16002        4.23239        9.97230
C         -9.64534        4.95389       11.06980
C        -10.67885        5.88257       10.91944
C        -11.22270        6.09298        9.65302
C        -10.74025        5.37324        8.55033
H         -8.35825        3.51719       10.13613
H         -9.21631        4.78649       12.05577
H        -12.02574        6.80360        9.48585
H        -11.18376        5.54527        7.57060
O        -11.05955        6.50493       12.07587
C        -12.11860        7.45772       11.98861
C        -12.37539        8.00632       13.38169
H        -13.03304        6.97884       11.61988
H        -11.83220        8.28314       11.32691
H        -12.65824        7.20098       14.06779
H        -13.17510        8.75242       13.36605
H        -11.46956        8.46799       13.78853
H         -2.62204       -2.43336       -1.43007
O         -6.95360       -3.01482        0.02084
C         -7.09817       -4.22981       -0.63942
C         -8.50885       -4.59729       -0.85715
O         -6.22121       -4.97097       -1.06502
C         -9.25836       -5.13762        0.18722
C         -8.98314       -4.67692       -2.17388
C        -10.46413       -5.79225       -0.09964
C        -10.92026       -5.92016       -1.41834
C        -10.19527       -5.32329       -2.45078
H         -8.88101       -5.12140        1.20619
H        -11.02685       -6.25804        0.70676
H        -10.52394       -5.38074       -3.48380
H         -8.38504       -4.29076       -2.99642
O        -12.05896       -6.66690       -1.57130
C        -12.36975       -7.10481       -2.89686
C        -13.45205       -8.16946       -2.81782
H        -11.49011       -7.54281       -3.38408
H        -12.73957       -6.25763       -3.48489
H        -13.09264       -9.04378       -2.26455
H        -13.75371       -8.49243       -3.81909
H        -14.33268       -7.79424       -2.28699
H         -4.92011       -3.18721       -1.76333
