66
Coordinates from ORCA-job 745_0.0
  C   3.10476070746453      0.60303015391425      1.05031948090588
  C   3.52731921117564     -0.74433426238712      0.48802507108221
  O   2.36834848679757     -1.63434250819870      0.48571152177605
  C   1.13565382837478     -1.15523772998835      0.17610739983833
  C   0.79229910861242      0.17768704606635      0.39154808916110
  C   1.82745115873419      1.01775057359298      0.98253232552407
  C   -0.53805756317088      0.62136220209345      0.08280769655814
  C   -1.48359303824312     -0.33456682487938     -0.41981599296343
  C   -1.08230262724057     -1.68875232961716     -0.59815322930115
  C   0.19835211502852     -2.11107730963602     -0.31095546262465
  C   -0.96849522933251      1.96783491090425      0.24837796459686
  C   -2.26036560775932      2.34826574324512     -0.05993017447902
  C   -3.19132557289984      1.40303086701785     -0.55425231512203
  C   -2.80500706435708      0.09012034681315     -0.72990936977585
  H   -1.80535660614060     -2.41071367313417     -0.98063401868818
  H   -0.26748272954364      2.71846849194230      0.61784042974971
  H   -2.56581489835831      3.38930051103455      0.07609952957738
  H   -4.21017877620358      1.71609342260480     -0.79664723743021
  H   -3.51418335266572     -0.64926076373715     -1.11336656767392
  O   -0.40157177785642     -4.32527686217197     -1.01669328199181
  C   -0.14310828451049     -5.63651386360139     -1.21251439896036
  C   -1.35274557790800     -6.34879498453231     -1.76857915802997
  H   -2.20205006884280     -6.24611587692306     -1.07511574663751
  H   -1.11725970320175     -7.40920500425031     -1.91936765532992
  H   -1.65423467708130     -5.88975842341246     -2.72308622103124
  O   0.92215619900214     -6.14405372956259     -0.96661865428170
  H   1.55452884726212      1.98660218714078      1.40630451378336
  H   3.86986189840721      1.21709280543685      1.52738348609018
  C   4.55745320692961     -1.38634629939366      1.44322343248161
  C   4.18917704786586     -2.47768997014746      2.21040721534399
  H   3.18478952799711     -2.88315842194620      2.10141811065845
  C   5.07830682732936     -3.07727226318135      3.13520406347215
  H   4.74330786117407     -3.94205696044237      3.71389505939493
  C   6.34469548116966     -2.57111693792289      3.30588589124973
  H   7.03688206272001     -3.02165046462963      4.02281240506426
  C   6.77552424902170     -1.44510399471583      2.55085256135728
  C   5.88263503236545     -0.83659812230366      1.59756132728776
  C   4.01953459342911     -0.69335558692852     -0.97066758263100
  C   3.76205788103677      0.39901382481899     -1.81533515809628
  H   3.25209486514152      1.28011073987765     -1.42093597752773
  C   4.15192309686632      0.38315636821879     -3.15216218358055
  H   3.95619700192287      1.23363710650552     -3.80888727012262
  C   4.80454151463234     -0.73862578530179     -3.69049612071524
  C   5.05873415954135     -1.84386635217231     -2.85990924615982
  H   5.56237254163733     -2.73182305351895     -3.24259416430043
  C   4.66658425029166     -1.80870036616195     -1.51949738207690
  H   4.87445005848397     -2.67533244299590     -0.88702717105711
  O   5.14669157270858     -0.66473054521814     -4.99978748490400
  C   5.80321747322903     -1.75832997466161     -5.62395390266980
  C   6.04879260363414     -1.39276093488825     -7.07569792711572
  H   5.09756774492049     -1.19249651740190     -7.59273759951120
  H   6.56142108944133     -2.21771253262164     -7.59489707996176
  H   6.67605461058756     -0.49079664453552     -7.14874700556488
  C   0.66595676584845     -3.53128287519294     -0.49328876707126
  H   1.01344803839890     -3.96285528577075      0.46084160364399
  H   1.53262359291045     -3.57492928029029     -1.17405442016789
  H   6.75799314843838     -1.97184582671053     -5.10637020411056
  H   5.17728943926405     -2.66795011885924     -5.54891078286753
  C   6.37553584855958      0.28581611490263      0.86499464173715
  C   7.64952399855103      0.77903856540831      1.06488672781893
  C   8.51729319622358      0.17825666677540      2.00744179876577
  C   8.08392023305407     -0.91229965612649      2.72937882210645
  H   5.74583092041228      0.76238514333959      0.11617953444270
  H   7.99171250087120      1.63903084097427      0.48290442785744
  H   9.52446811542992      0.57646961286166      2.15602770470133
  H   8.74357944241760     -1.39135288541758      3.45869407850606
