62
Coordinates from ORCA-job 746_0.0
  C   3.15261152488229      0.62596865324199      0.96966163476725
  C   3.56825282632045     -0.72847003494558      0.41577554255465
  O   2.41153344328649     -1.61668495394409      0.44078006552617
  C   1.18644102666188     -1.13839558632620      0.09633513060130
  C   0.84726346346379      0.19916253965618      0.28533137685476
  C   1.87755419301117      1.04346648141207      0.87969196266622
  C   -0.47463361790775      0.64465077944713     -0.05511789090391
  C   -1.41346861477405     -0.31393242797247     -0.56567585794458
  C   -1.01375698528926     -1.67133613639268     -0.72273780655501
  C   0.25879964523817     -2.09569016696981     -0.40352010303323
  C   -0.90271964847600      1.99459126979608      0.08592370102555
  C   -2.18671097965991      2.37618008543026     -0.25215421752136
  C   -3.11129435082784      1.42854680598549     -0.75391626575843
  C   -2.72675037964211      0.11233743069930     -0.90709058231548
  H   -1.73028669653599     -2.39365566553107     -1.11668517191317
  H   -0.20626774481528      2.74677346663356      0.46093037073624
  H   -2.49086660628831      3.41974141810571     -0.13380820621792
  H   -4.12402442633451      1.74242111375393     -1.01977140152997
  H   -3.43109064537504     -0.62868526343037     -1.29618142876827
  O   -0.31075398207861     -4.30032104894978     -1.15963726552022
  C   -0.04118758766007     -5.60780324116047     -1.36787827737861
  C   -1.21805057965846     -6.30739351229562     -2.00438492833590
  H   -2.10386061150882     -6.22007853386118     -1.35593370334102
  H   -0.97353769212437     -7.36423656015144     -2.16547217157249
  H   -1.46784921563408     -5.82730042470788     -2.96343781756017
  O   1.00911932342369     -6.12063426790231     -1.07433669446829
  H   1.60183623248910      2.01706782406809      1.29076615097710
  H   3.91726792304144      1.23700610136095      1.45061551782653
  C   4.62754155598198     -1.37493839775448      1.33580530569660
  C   4.28722110655956     -2.48735787740691      2.08523383853821
  H   3.28601960496233     -2.90298754720031      1.98803583188782
  C   5.20226760465296     -3.09535472805126      2.97818764505024
  H   4.89005946874407     -3.97693029335815      3.54399081067509
  C   6.46535436086994     -2.57648814796402      3.13411127371813
  H   7.17747345996306     -3.03336177068813      3.82710934010397
  C   6.86799832017955     -1.43027970044302      2.39429039917765
  C   5.94944844388389     -0.81292075588368      1.47181232505229
  C   4.01586102290064     -0.64057966771052     -1.03698646229539
  C   3.77350228394942      0.35120959758956     -1.95617156279132
  H   3.26841181279511      1.28344909471052     -1.70068961223708
  C   4.24547556598168      0.03487403802944     -3.26755718709514
  H   4.14246451472404      0.70924366257842     -4.11869277440834
  C   4.83869963514828     -1.20262845055097     -3.35344820607103
  S   4.82529278441845     -1.99217030327559     -1.79675761546368
  C   5.45870264653337     -1.88664194796830     -4.54482950010601
  C   5.38271153405872     -1.07946956176946     -5.84185197293708
  H   4.33920822170042     -0.86885227911887     -6.12608725303086
  H   5.84945131789405     -1.63660278587383     -6.66902616874511
  H   5.90799392505062     -0.11528996954593     -5.74908296497168
  C   0.72784634899292     -3.51804883106503     -0.56549409678221
  H   1.01036385492851     -3.95763638173468      0.40668816399947
  H   1.63670123392960     -3.56323232794546     -1.18833210051821
  C   6.41579391838911      0.32723541708114      0.74956679263085
  C   7.68882241970400      0.82926171441950      0.93269143195585
  C   8.58155860064589      0.22116640112338      1.84680748171962
  C   8.17416434901753     -0.88701776615005      2.55678494556414
  H   5.76565335554346      0.80830140394679      0.02101595923409
  H   8.01103105095265      1.70251189646130      0.35903244007543
  H   9.58750615816485      0.62706876356909      1.98224256012745
  H   8.85351728189785     -1.37314859402965      3.26293362066179
  H   6.51540407312511     -2.11838049390481     -4.31758505920389
  H   4.97118892652818     -2.86734955516572     -4.69342929210940
