106
Coordinates from ORCA-job 748_0.0
  C   -3.57194679638442     -2.47652104121326      1.06553971674085
  C   -2.76312359987498     -1.48143624251464      1.61792108909218
  C   -1.56954186369218     -1.08373004128942      0.96843597002672
  C   -1.22875256206082     -1.70292847401250     -0.23449024047726
  H   -0.32000082191237     -1.42189048586902     -0.76688981021825
  C   -2.03517884781836     -2.69643258002377     -0.79015572601671
  C   -3.23775906417077     -3.11065275956421     -0.15080502513451
  H   -3.24227336639584     -1.02480444454747      7.38108377524955
  C   -3.84154083206368     -0.31283495043041      6.81061699984092
  C   -5.04715809837938      0.16711566413790      7.33199147164733
  H   -5.37962606728273     -0.16985659903424      8.31629466993780
  C   -5.85918966798125      1.07048803036171      6.61331207432564
  C   -5.42389683127750      1.50968288575414      5.33312306860842
  H   -6.04650576397329      2.21127442967227      4.77260563411719
  C   -4.22842107266302      1.04486787644161      4.81818483308804
  C   -3.43955273546911      0.13477267250812      5.54833702832248
  C   -0.75884563207859     -0.06973523595313      1.62120823534639
  C   -1.15894250393457      0.50475389056437      2.76917175720726
  C   -2.46521776489494      0.18606849930692      3.44437951155534
  O   -3.15245224832686     -0.93285098525761      2.78113264786168
  C   -3.49863807153462      1.39339647258387      3.52784508858702
  N   -2.29187799947939     -0.19535627193337      4.83068983038762
  C   -4.39875635544846      1.47476603100850      2.28959891844962
  H   -5.02129606739982      0.57751654633225      2.17749355255224
  H   -3.79762512506279      1.60180595638717      1.37431851114118
  H   -5.06537631760474      2.34811926042719      2.36686718921140
  C   -2.76015926295024      2.73743924248747      3.72195614856929
  H   -2.06161973018715      2.69955093812137      4.57172655163979
  H   -3.49579464937487      3.52856586507890      3.93146730847266
  H   -2.20135482321134      3.02559603803904      2.81720674687362
  N   -1.58128062338454     -3.28705724756666     -2.05743852181319
  O   -0.64446026762621     -2.74282833449133     -2.62891741107386
  O   -2.15026189324546     -4.28601404218322     -2.46790849214471
  C   -1.45716317237547     -1.31810010505582      5.20269151718448
  H   0.19573399702036      0.20794138289331      1.16510294201982
  H   -0.53583593236791      1.24510337526914      3.27221274776111
  H   -4.48657352715434     -2.76013882434716      1.58685556821309
  H   -0.58608112417962     -1.36494517926753      4.53392380213244
  H   -1.99404625958527     -2.28413615253175      5.14678663659495
  H   -1.08406853079747     -1.18735868888802      6.23078013372271
  C   -4.13422034911478     -4.08744669417221     -0.66259038281729
  C   -4.96660710222812     -4.89727115117299     -1.03875753806259
  C   -5.86866985313159     -5.85929704297251     -1.57393204449022
  C   -5.54497962585746     -6.53381952883816     -2.77490406996213
  H   -4.59771366923209     -6.30672298347359     -3.26872960465671
  C   -6.41730987504706     -7.46692588836020     -3.31933407369474
  H   -6.15874447573136     -7.97978805187501     -4.24809798942710
  C   -7.64838051170490     -7.76429899028030     -2.68832597086037
  C   -7.96784365794928     -7.09179948162318     -1.48570644862576
  C   -7.09545500926076     -6.15863338847171     -0.93946168394938
  H   -7.35525504188153     -5.64533723964741     -0.01106890075216
  C   -7.09488423106350      1.52986611390240      7.15597340209718
  C   -8.15617785095309      1.91589826660869      7.62135103263815
  C   -9.40034672261359      2.37292867335691      8.14219054555333
  C   -9.83378653264801      2.00178476110615      9.44224264218448
  C   -11.03550172565740      2.49475630260544      9.94567167793565
  C   -11.85943440782204      3.35715093094273      9.19321678423473
  C   -11.43708348859186      3.71124569538994      7.88576597682917
  C   -10.22993035459540      3.22788822619356      7.38542902505219
  H   -9.92174756111773      3.53845783773427      6.38560839480798
  H   -11.32891629921333      2.21235109843266     10.95827309657291
  C   -13.06843500786701      3.87806120390248      9.75022915099451
  C   -14.08489446897820      4.32521061487105     10.24859416576696
  C   -15.31059866975284      4.84401526861252     10.85392841898584
  O   -9.05721002490217      1.20430802053766     10.23815485759227
  O   -12.17194983970099      4.57140331239830      7.11638057133059
  C   -13.29639564600066      4.01571250199449      6.45286480063773
  H   -13.77380718772243      4.83280597800541      5.89323738932800
  H   -14.02733082862700      3.59552055500806      7.16556580098096
  H   -12.99165669819026      3.22401178894691      5.74309155605561
  C   -9.14561979073843     -0.19211129204995     10.00067518080817
  H   -8.46486967964383     -0.68161989958688     10.71194815450489
  H   -8.83879311117752     -0.45363236824754      8.97268413429611
  H   -10.17280866212663     -0.56426258659037     10.17329355069888
  C   -15.92083486036650      3.91687281045184     11.92435362217869
  H   -16.05711777624731      5.03082013098726     10.05934951985392
  H   -15.10229731526541      5.83354028754379     11.30330478111456
  C   -17.20291119769217      4.48445652682429     12.53269031177362
  H   -15.16990849420700      3.74342577002155     12.71418427409173
  H   -16.12018146520303      2.93088236194813     11.47069195932339
  H   -17.02232696055518      5.45904162693978     13.01716683215855
  H   -17.61777765487333      3.80624470227733     13.29527794351868
  H   -17.98022127180753      4.63661596405593     11.76459542739578
  H   -8.91440818980877     -7.31257849689102     -0.98787116684815
  C   -8.54573253041404     -8.71486973124053     -3.25598175514383
  C   -9.31289169368299     -9.52638836613770     -3.75008310658827
  C   -10.21118148836965    -10.47100679879970     -4.33122651353154
  C   -9.86756024512398    -11.17500515953071     -5.50302706414115
  C   -11.47524496104169    -10.72502212700713     -3.75135229747296
  C   -12.34665515979420    -11.64176137294631     -4.32880485730115
  C   -10.75185212995258    -12.09318856002535     -6.07147089366933
  C   -12.00871978953422    -12.34715282213013     -5.50018556679146
  H   -11.76228829122021    -10.19062602000234     -2.84294333037470
  H   -8.89564672864227    -10.99501270032553     -5.96796997246732
  H   -10.44704708066811    -12.61671722277346     -6.97939450710204
  H   -13.32037073396846    -11.81811018180391     -3.86091084864153
  C   -13.00232055183890    -13.33691136138428     -6.08099480248758
  C   -12.61331747186195    -14.03362000283317     -7.38726101129187
  H   -13.96554148323799    -12.81285221450319     -6.22718231556875
  H   -13.21205675793953    -14.10604408373645     -5.31341871631126
  C   -13.69449071504867    -14.99296255982667     -7.88952164632332
  H   -11.66963318834562    -14.58918428837949     -7.24395308203638
  H   -12.40608922484541    -13.27529759586628     -8.16314524307928
  H   -13.90510233131703    -15.78415664305178     -7.15008240782150
  H   -13.39065931333654    -15.48596405619976     -8.82666785825701
  H   -14.64274310636475    -14.46388475023527     -8.08438376034539
