57
Coordinates from ORCA-job 75-_0.0
  C   -2.74636091194652     -2.16577937791909      0.69049346372837
  C   -2.63857237100197     -1.01077443207022      1.49161113041923
  C   -1.53158917287684     -0.14932461529112      1.33406056746484
  C   -0.55230332279129     -0.44971850585177      0.38096238912430
  H   0.31620005904054      0.19447211769780      0.24456788602305
  C   -0.68634006189610     -1.59445010904383     -0.40001369598433
  C   -1.77565311293995     -2.45907726042098     -0.25779068083420
  H   -1.85642388433659     -3.35054295863898     -0.87802155872021
  H   -3.74151277993850     -0.47628257299946      7.53174917120976
  C   -4.41173128078751      0.18913953711125      6.98397898015851
  C   -5.37004818797843      0.95061522785670      7.67202199684658
  H   -5.43015503140781      0.86830946058845      8.76082857513746
  C   -6.23501985590360      1.81212234085355      6.99388855352944
  C   -6.16604846854164      1.91277193876468      5.59207404108531
  H   -6.85449852454277      2.57355834227940      5.05713034703961
  C   -5.22297448694451      1.16753519640313      4.89786579835138
  C   -4.34366548857877      0.31286224916257      5.59154486511802
  C   -1.47723020089429      1.01338423863104      2.20692833137401
  C   -2.43529735235153      1.22588145873119      3.12308505289669
  C   -3.58662937616030      0.27942062553593      3.36686363839500
  O   -3.61348905498592     -0.78353933102340      2.39100261228775
  C   -5.01130964182363      0.99506324974340      3.39920506241185
  N   -3.48251577137254     -0.32076758359281      4.70165336852607
  C   -6.10481522404334      0.04512383471677      2.85874622665455
  H   -6.08609990362259     -0.92409062606218      3.37870747708416
  H   -5.98719560526139     -0.13522397149674      1.78092202613061
  H   -7.08986270783068      0.50417834930662      3.03463129470214
  C   -5.04527920044603      2.30431284987650      2.59857513167330
  H   -4.37685014757376      3.07321279984712      3.01150009454509
  H   -6.06634172827897      2.71730299711226      2.60326315571305
  H   -4.76601834165924      2.12944884418226      1.54744714599798
  C   -2.40169927793802     -1.19806361605204      5.09037725515503
  N   0.34458826113301     -1.90818322176697     -1.40150723285490
  O   1.27648746668886     -1.12685108327963     -1.51913432655154
  O   0.20541058855204     -2.93105818757946     -2.05571534676448
  O   -3.78916367841885     -3.05171802263813      0.88932459781734
  C   -5.04234294898680     -2.70394704292478      0.44902278708121
  C   -6.04101721434730     -3.75859944783189      0.84147554177544
  H   -6.15661121043897     -3.75568779177425      1.93724296260907
  H   -5.67983620161367     -4.75688036611934      0.55278869783984
  H   -7.00636027899171     -3.54518799024843      0.36716756570662
  O   -5.26578578977265     -1.69142887788112     -0.15376272320614
  C   -1.19989830222238     -0.49877319068077      5.74806828303724
  H   -2.05442031402521     -1.73896711191670      4.19804284463262
  H   -2.79196327979642     -1.95914106923715      5.78868916723936
  O   -0.24033891850525     -1.47064528594647      6.18599485470297
  H   -1.50459934199396      0.04469602262871      6.65302483843509
  H   -0.72623459728297      0.19756318315674      5.04379002122924
  C   0.68304060485459     -1.87742682792501      5.28301356744553
  C   1.62026371046266     -2.89255832751699      5.88820824045333
  H   2.08003798055342     -2.48629673639730      6.80209153864004
  H   2.39381521030954     -3.16017560781708      5.15844183655361
  H   1.05540767149275     -3.79166754863859      6.18112967664267
  O   0.72760293034074     -1.46804204359321      4.14913212495309
  H   -6.96560225229251      2.40512574543204      7.54909231952596
  H   -0.63274588933116      1.70031446667104      2.10609810655732
  H   -2.39424378875310      2.08787566588677      3.79284035325489
