106
Coordinates from ORCA-job 750_0.0
  C   -7.73383409502076     -3.36290786063501      1.69441082500057
  C   -6.94796116959980     -2.21830407717744      1.55778217643329
  C   -6.06063780888149     -2.09905774210655      0.46656985422750
  C   -5.97933653774791     -3.14593012496427     -0.46038683353597
  H   -5.29841497437313     -3.08022428075135     -1.31237381442317
  C   -6.76332991140359     -4.29637820268399     -0.31648796518077
  C   -7.65661879449159     -4.41107423703514      0.76460553786655
  H   -4.82614135177903     -1.09768002946973      6.51583165981445
  C   -5.61029113642849     -0.38106488663694      6.26385019234299
  C   -6.37509434933011      0.21339451403346      7.27817373315922
  H   -6.15683842376487     -0.04405346776727      8.31803967362014
  C   -7.39794412508564      1.13826595659222      7.00393224188925
  C   -7.64989405902151      1.47324129169889      5.64935815198032
  H   -8.43655959200899      2.19225764302590      5.41546118291012
  C   -6.90331935542877      0.89026921982713      4.63964954683690
  C   -5.88152711967480     -0.02926244820488      4.93970037638349
  C   -5.27774727268446     -0.87671849572184      0.38216193351373
  C   -5.31033970427226      0.03805491626539      1.36876523290119
  C   -6.11540428714409     -0.15488815052843      2.62747937805343
  O   -7.09564047054887     -1.21599568084391      2.46469990276470
  C   -6.92462264959953      1.11855077682284      3.13313263375371
  N   -5.26059627527682     -0.46509594506538      3.77083065023386
  C   -8.32955992473470      1.20103035449985      2.52526086795877
  H   -8.93855851964233      0.32779534146445      2.79064438719301
  H   -8.27753794700754      1.26618438224792      1.42620970889237
  H   -8.83994610248648      2.10665730929240      2.88989534006175
  C   -6.15615195918926      2.42592994840995      2.83266002921911
  H   -5.11761272749391      2.37959107334349      3.19477008335815
  H   -6.65214942536255      3.26239561729098      3.34791669308407
  H   -6.14513891895985      2.65378294231859      1.75462228405370
  C   -4.37499781283569     -1.60772378890734      3.77190305166640
  H   -4.64717129514054     -0.71889852484650     -0.49819211497051
  H   -4.69132117050157      0.93353944071123      1.31574139435828
  H   -3.94831012687086     -1.74500861968130      2.76890446795052
  H   -4.88488675780471     -2.54517011262896      4.06845237710335
  H   -3.53911498364975     -1.43710714003246      4.46996722915658
  C   -8.20640533737111      1.72026760087079      8.11026026919825
  C   -8.54471608332172      3.08480834131663      8.17020587195636
  C   -9.30448990745450      3.58608148379445      9.23683209943471
  H   -8.41841851659096     -3.42906973006981      2.54411816609983
  C   -9.75860844927253      2.77552535133597     10.27764028337502
  C   -10.58782973154557      3.27912137277777     11.43995443688596
  C   -10.89560238674160      4.77752732034932     11.46544246600569
  H   -10.07833914829363      2.99190189189246     12.37840505589728
  H   -11.53532654630123      2.70883707498955     11.46472285556145
  C   -11.72142157215616      5.18706132254006     12.68689707284485
  H   -11.43662492514942      5.06286581845433     10.54578231544897
  H   -9.95163948465156      5.35113506423169     11.45267020631314
  H   -12.68778798932373      4.65552460243917     12.71457274535787
  H   -11.93580108315238      6.26792653878454     12.68569702968045
  H   -11.19150730188681      4.95323747648048     13.62591127529385
  H   -9.53641045264555      4.65226423290309      9.22087172126263
  C   -9.41826775680088      1.40224457424666     10.22114496689973
  C   -8.66372249043254      0.89491734353029      9.16047995516490
  H   -8.43540106232125     -0.16947523558989      9.11058937630414
  O   -8.15716631011618      3.96492197298197      7.18064044458183
  O   -9.88925063677313      0.64015590445792     11.25105392356648
  C   -9.61622226907341     -0.74067391803368     11.27389694931561
  H   -10.08741173481843     -1.13952043760558     12.18319741152434
  H   -8.53060273986104     -0.94710258561522     11.31405673942749
  H   -10.03976697906625     -1.26085772348566     10.39502831441418
  C   -6.86854445031589      4.53147976935156      7.34093223229314
  H   -6.70233961875222      5.20917850817276      6.49035937014483
  H   -6.07850053373836      3.75875878675249      7.34263340100824
  H   -6.79591406427809      5.11181731602264      8.28015175999837
  O   -6.58321180952096     -5.27633424036053     -1.25205156912923
  C   -7.49294115922062     -6.39256757548433     -1.38521717649754
  C   -8.03470272962121     -6.79227879509648     -0.00419283854528
  C   -8.52368761187161     -5.63952283327932      0.88555826347664
  H   -9.56945840815345     -5.37700340544047      0.64847079430932
  H   -8.54527703346332     -5.98022325781979      1.93441590645721
  H   -7.20421610886098     -7.29568466281262      0.51644443513956
  H   -8.83016914202321     -7.53834251738809     -0.13239169681166
  N   -8.50261595971710     -6.08463253396995     -2.39986205278255
  C   -6.64681896988338     -7.53795652720599     -2.08672803396432
  C   -7.93237134511979     -6.31145118894221     -3.66065495233049
  C   -6.80788823645607     -7.14588106853678     -3.54829504367323
  C   -8.32895304125526     -5.82642049261376     -4.90882069002385
  C   -7.58532175939537     -6.20581435485453     -6.03816441334365
  C   -6.46190940359689     -7.03900131772721     -5.94970042404656
  C   -6.08251914372519     -7.50926730950233     -4.67265054077933
  H   -9.18278118073095     -5.15536640789610     -5.01882360203760
  H   -7.88561107481094     -5.82072870369343     -7.01793754017795
  H   -5.20160558018739     -8.15245840353834     -4.57619195281700
  C   -5.69156462032076     -7.44895087405817     -7.18700193929932
  C   -6.19589991733719     -8.75158454206820     -7.83643738465220
  H   -4.62311168919200     -7.56944477971766     -6.93274394188306
  H   -5.73747650338609     -6.63819241440436     -7.93582143275264
  C   -5.40487040230965     -9.15154587897689     -9.08293703946571
  H   -7.26420842629862     -8.63286781937814     -8.09102631339845
  H   -6.15551201261007     -9.56451246828132     -7.08940383973100
  H   -5.45664336953597     -8.36921736716472     -9.85951947959193
  H   -5.79040161133134    -10.08458656759512     -9.52528474544761
  H   -4.33823756386966     -9.31031490490119     -8.84862972013839
  C   -5.19057786211853     -7.58232707903502     -1.61064366827615
  H   -4.66273328739700     -6.64614722368371     -1.83156911047930
  H   -4.65999353515460     -8.40977567432179     -2.10878185449956
  H   -5.12889989951627     -7.76524956112452     -0.52485275309041
  C   -7.30497940818582     -8.92325932897345     -1.88164481147153
  H   -8.36996810538502     -8.90757546409136     -2.15791475113966
  H   -7.21562472667005     -9.27348250416021     -0.84108011803796
  H   -6.80322992685360     -9.66155330731930     -2.52556234237192
  C   -9.46978657395922     -5.01690603147817     -2.25139383508048
  H   -9.94212884194917     -5.05463330016110     -1.26339099830048
  H   -10.27299067553763     -5.14928693100976     -2.99312392713403
  H   -9.03369064601320     -4.00894733236567     -2.39696365107216
