85
Coordinates from ORCA-job 752_0.0
  C   -6.16446905587516     -3.65381889929812     -0.02340633405774
  C   -5.78517324959893     -2.74308813679871      0.98972483186738
  C   -4.44285934243832     -2.33725148820230      1.14470675349649
  C   -3.46463824388192     -2.84502897311515      0.27567029723429
  H   -2.42570005065354     -2.52822168804141      0.40523635490619
  C   -3.81533722181222     -3.73858036670131     -0.73427131893123
  C   -5.14945515999322     -4.13050069737357     -0.87452699510417
  H   -7.40052807612119     -2.34006741028448      6.94342377231893
  C   -7.72809185680342     -1.43984256846190      6.41938469624643
  C   -8.36752273876320     -0.40486009066272      7.12151698007276
  H   -8.53144696296316     -0.52303782721820      8.19736461569569
  C   -8.78559766887616      0.77712344969811      6.49578597135413
  C   -8.54948130744440      0.91529274304856      5.10893018817267
  H   -8.85992092915852      1.83413091354835      4.60060668262838
  C   -7.92085955533773     -0.09504467557886      4.39761553838099
  C   -7.51996842796279     -1.27925631423872      5.04700597475592
  C   -4.14987781742349     -1.39242537302351      2.21322696219300
  C   -5.12049443876938     -0.93837340136594      3.02208238118857
  C   -6.55176331034914     -1.40631870952996      2.92703093796576
  O   -6.76682434538289     -2.24140585574514      1.78689880362162
  C   -7.61107691587741     -0.21800482655085      2.91228976098829
  N   -6.92106160037114     -2.15431894622501      4.14395497404487
  C   -8.89232596298839     -0.65457716642931      2.16688870662409
  H   -9.28740721009301     -1.60076803193377      2.56235491178291
  H   -8.70258866360090     -0.79135179193819      1.09238513761639
  H   -9.66386164223674      0.12088523000153      2.29392525526780
  C   -7.06372693290937      1.06371457202900      2.26988405699353
  H   -6.22270470093245      1.49356278463488      2.83269269740602
  H   -7.85596605488588      1.82775098338081      2.22023460817711
  H   -6.72533370809701      0.87088174400391      1.23916263295006
  C   -6.14152623069143     -3.28820696309738      4.58541859769475
  H   -3.11441232633131     -1.06302742882776      2.34378511216938
  H   -4.90340748799612     -0.24238517190815      3.83597480788618
  H   -5.78806565804146     -3.85474580997740      3.71236180154813
  H   -6.77266844101142     -3.96494280095571      5.18410884619994
  H   -5.26129713376524     -3.00909232120182      5.19873540916417
  C   -9.50614170439060      1.86444564038104      7.26407606840736
  C   -11.04157412396787      1.77909360754216      7.16948508962049
  H   -3.05420464463602     -4.13833242138210     -1.40848570225001
  C   -7.57221833709587     -4.10066678827893     -0.21964406921532
  C   -8.37206383873728     -4.52364433714560      0.86421935227265
  C   -8.11855584276019     -4.15055133043519     -1.51895364784725
  C   -9.66275907178704     -4.98766251121404      0.64002496530832
  C   -10.19567376732329     -5.02853170031475     -0.66678370941989
  C   -9.41925821358628     -4.60635576368656     -1.75037550535776
  H   -7.96576081576284     -4.48550369646205      1.87604341310092
  H   -9.81850863914119     -4.62362171674727     -2.76816166432573
  H   -7.51515473423810     -3.80543513316050     -2.36234468302260
  H   -13.35478981668542     -6.55568146469211      2.15014326425822
  C   -13.11966725321580     -6.33168910389530      1.10424470349297
  C   -11.87127607742846     -5.82569363637821      0.75517952792448
  C   -14.09421965314063     -6.56721126136733      0.11456972759167
  C   -11.56861195004342     -5.54492645433746     -0.59503028337148
  C   -13.77578912667243     -6.28253950298618     -1.22566063733301
  C   -12.52423699292490     -5.77574858491110     -1.58982876032559
  H   -14.52565912454551     -6.46844461428580     -2.00079616307682
  H   -12.30202299354615     -5.56769904205574     -2.64015019276825
  C   -10.67995290343663     -5.50421381244212      1.66142748794436
  C   -11.03574664195162     -4.42066846199069      2.70216294156005
  H   -11.40795598672903     -3.50741524278439      2.21332680636577
  H   -10.15277045182753     -4.15038316105244      3.30356238151750
  H   -11.81537353899848     -4.78146275259286      3.39295302955642
  C   -10.16126501702211     -6.77302334598264      2.37419528899227
  H   -9.90315068724681     -7.55873297671431      1.64760031238743
  H   -10.92474541524587     -7.17662161948622      3.05929493201484
  H   -9.26133898944038     -6.54624730604019      2.96896102762223
  C   -15.46699410769277     -7.07759885882508      0.49595801233349
  C   -16.43199571969127     -5.97084265018265      0.96262498959363
  H   -15.37055845393918     -7.82729194311164      1.30184491788582
  H   -15.91596998198836     -7.60538535283377     -0.36349734216882
  C   -17.81289062802681     -6.50007613287604      1.35227719022682
  H   -16.52997704349706     -5.21864386237394      0.15980738981255
  H   -15.97998561364687     -5.43829536023263      1.81829829361231
  H   -18.30445546197756     -7.00526392598864      0.50341901979037
  H   -18.47766837323860     -5.68640166615809      1.68470539932592
  H   -17.74505421833584     -7.23197031983213      2.17528528279843
  H   -9.18310504089185      2.85436777067838      6.89379585792763
  H   -9.21131762264016      1.82476772275566      8.32761684745049
  C   -11.75913155407153      2.89554604853717      7.92930073360268
  H   -11.36806698904012      0.79459433507969      7.54922884694681
  H   -11.33657333411348      1.80139680177713      6.10510211689102
  H   -11.50739669660248      2.87754581879186      9.00356948285498
  H   -12.85413111237796      2.80399731587389      7.84331031644000
  H   -11.47715186408641      3.89003099526841      7.54291292513860
  H   -5.42134940117494     -4.84799692710817     -1.65240999260691
