100
	Energy:     145.2895721
C         -8.32552       -0.97369        4.42653
C         -7.25875       -0.08932        4.29246
C         -6.38142       -0.21111        3.21874
C         -6.56461       -1.24890        2.29168
H         -5.85592       -1.35935        1.47305
C         -7.62724       -2.16597        2.41426
C         -8.51010       -1.99678        3.49464
H         -5.12652        1.63040        9.26069
C         -5.82340        2.31873        8.79637
C         -6.62926        3.13205        9.60546
H         -6.52702        3.04741       10.68583
C         -7.54697        4.05385        9.05619
C         -7.62327        4.15686        7.65588
H         -8.31411        4.85534        7.19268
C         -6.82191        3.34040        6.86123
C         -5.93799        2.40885        7.41981
C         -5.27849        0.72742        3.08820
C         -5.14302        1.66871        4.02714
C         -6.06891        1.82331        5.21662
O         -7.14661        0.85419        5.26817
C         -6.72115        3.27225        5.35021
N         -5.23628        1.66766        6.44243
C         -8.07804        3.39481        4.64464
H         -8.82532        2.70870        5.05776
H         -7.97853        3.18750        3.57348
H         -8.48944        4.40600        4.74648
C         -5.80485        4.42466        4.88906
H         -4.81006        4.37087        5.34717
H         -6.22783        5.39930        5.16217
H         -5.67746        4.42099        3.80096
C         -4.80332        0.33022        6.81892
H         -4.58303        0.63533        2.26179
H         -4.29816        2.34850        3.97055
H         -4.33235       -0.17852        5.97134
H         -5.63750       -0.28938        7.16656
H         -4.04571        0.37671        7.60864
C         -8.40084        4.88267        9.92965
C         -8.51748        6.26508        9.73475
C         -7.80902       -3.27457        1.45323
C         -8.14431       -4.56612        1.88968
C         -7.66235       -3.08296        0.07071
C         -8.33326       -5.61582        0.98370
C         -8.18287       -5.41657       -0.39507
C         -7.84543       -4.13467       -0.83924
H         -8.25661       -4.77579        2.95156
H         -7.72356       -3.91996       -1.89746
H         -7.41860       -2.09817       -0.32283
C         -9.33579        7.04920       10.56046
H         -9.01383       -0.86894        5.26117
H         -9.36053       -2.66395        3.62090
C         -9.13240        4.31690       10.98493
C         -9.95547        5.10128       11.80775
C        -10.07811        6.48502       11.61166
H         -9.37522        8.12043       10.37243
H         -7.95818        6.75415        8.93949
H         -9.08505        3.24491       11.16823
H        -10.51728        4.60437       12.59617
C        -10.95387        7.31879       12.46551
C        -11.02959        7.12758       13.86079
C        -11.84303        7.92967       14.69091
C        -12.58862        8.95194       14.08403
C        -12.55009        9.15020       12.70866
C        -11.74343        8.33918       11.90931
H        -11.74590        8.51080       10.83459
H        -13.14564        9.93942       12.25749
H        -10.43523        6.33863       14.32290
C        -11.89669        7.67219       16.14121
C        -13.09467        7.20940       16.71664
C        -13.20145        6.98387       18.09283
C        -12.10418        7.19886       18.93216
C        -10.80606        7.88756       16.99870
C        -10.90407        7.65146       18.37159
H        -13.96503        7.02549       16.08723
H        -14.14845        6.63910       18.50329
H        -10.03767        7.83473       19.00326
C        -12.21965        6.98140       20.42053
C        -12.61153        8.26693       21.15119
H        -11.26512        6.60171       20.80654
H        -12.95901        6.19497       20.61890
C        -12.72012        8.04389       22.65147
H        -11.76558        7.70677       23.06806
H        -13.48145        7.29207       22.88257
H        -12.99943        8.97536       23.15394
H        -13.57183        8.63826       20.77297
H        -11.87056        9.05241       20.95895
O         -9.59760        8.36096       16.56180
H         -9.66399        8.57925       15.61672
O        -13.37978        9.81793       14.78999
H        -13.22965        9.67987       15.74123
H         -8.60072       -6.59871        1.36734
C         -8.42323       -6.59388       -1.31460
C         -8.08782       -6.39538       -2.79585
H         -9.48145       -6.87334       -1.22851
H         -7.83243       -7.43975       -0.93857
C         -8.33845       -7.66598       -3.59518
H         -7.03683       -6.10431       -2.90967
H         -8.69891       -5.58924       -3.21846
H         -7.72030       -8.49071       -3.22633
H         -8.09487       -7.50438       -4.64991
H         -9.38872       -7.96833       -3.53172
