74
Coordinates from ORCA-job 754_0.0
  C   -8.30050375808913     -1.47071062324793      3.93849659909967
  C   -7.37883564383185     -0.41848862511158      3.88206124406192
  C   -6.49884169684424     -0.31456308550139      2.78549990724826
  C   -6.56375517476812     -1.27375546377826      1.76352425048210
  H   -5.85483573807640     -1.19451491160630      0.93470810772915
  C   -7.48233867636164     -2.33509314335948      1.79554117190609
  C   -8.34827122859774     -2.40827233600408      2.90805162469163
  H   -5.35720872299542      0.61865217886656      9.03491276275416
  C   -6.09063582147655      1.36345813771962      8.71992826148178
  C   -6.88682197617429      2.01354529587492      9.67332402067190
  H   -6.73757005290911      1.77371630474327     10.72908739071637
  C   -7.85242030499714      2.97249396548955      9.31856555137739
  C   -8.00100246279720      3.28532214070322      7.94435128207898
  H   -8.76079286026246      4.00861984035341      7.63646216416226
  C   -7.21521312597170      2.65634680228496      6.99268874304499
  C   -6.26110518189779      1.69662531989404      7.37430739993865
  C   -5.55142827148383      0.78872587086364      2.80280858752772
  C   -5.48910150302697      1.64074868037991      3.84178290081081
  C   -6.36627433625700      1.51980977138327      5.05935659378729
  O   -7.38429755585931      0.49022910140386      4.88470115820326
  C   -7.13764001246062      2.84582243230728      5.48351727346017
  N   -5.59537285549227      1.19801593395047      6.25334677273282
  C   -8.49785057103059      2.97362948084295      4.78805970007126
  H   -9.17085659600502      2.14956040393620      5.05664461190021
  H   -8.37849513890326      2.98103139723077      3.69222473261814
  H   -8.97791333938068      3.92267609818868      5.07558564677047
  C   -6.28791722933915      4.10326759049928      5.19049289320794
  H   -5.27741522734256      4.02186552420313      5.61954713088868
  H   -6.77175404394820      4.98166713843987      5.64412904836641
  H   -6.19807242959206      4.28873449548449      4.10805869125508
  C   -4.80835890347829     -0.01347564516103      6.32538972183104
  H   -4.87335808286873      0.90734748864780      1.95192948819146
  H   -4.75078091003188      2.44258416207943      3.86113394736637
  H   -4.34028327611204     -0.20575318661933      5.34974017121607
  H   -5.41120615764310     -0.89889193397107      6.60660867208716
  H   -4.00138253838662      0.10304767470619      7.06657422071125
  C   -8.69407806962139      3.63585283872009     10.34844882639492
  C   -9.07308044183037      4.99073223371865     10.22847138650422
  C   -7.54130584797550     -3.34061676998237      0.70258092195289
  C   -7.81715095080589     -4.69950134837017      0.96660945834989
  C   -7.32485329514015     -2.98208451733011     -0.63800374129660
  C   -7.87152201042673     -5.64367148625588     -0.05214075576135
  C   -7.64954072046826     -5.26547340505903     -1.38847511756441
  C   -7.37368352382173     -3.91959383208106     -1.67513984860234
  H   -7.96854753886491     -5.02833038977316      1.99787447535556
  H   -7.20773369035466     -3.58466124455348     -2.69948760387485
  H   -7.13643765646230     -1.93563487432554     -0.89131133938615
  C   -9.86020734325895      5.61689073517493     11.18810589625893
  H   -8.98093473822996     -1.52892585948896      4.79071874299466
  H   -9.09397359837966     -3.20553658420235      2.95625615631375
  C   -9.14953673979533      2.94661529186047     11.48482021622480
  C   -9.93904810288400      3.56227348899670     12.46227939225344
  C   -10.30378186612389      4.90973758052978     12.31951583216837
  H   -10.14026127297947      6.66842364133985     11.09235284147870
  H   -8.72056708542967      5.57428353674459      9.37428235415104
  H   -8.90374732863113      1.88841489969122     11.60455213482219
  H   -10.27302957775877      2.97659478091846     13.31944477548631
  H   -8.07529179058250     -6.69534017442235      0.16157399598004
  O   -7.72147055816696     -6.25495177864739     -2.31455063218669
  C   -7.50175904549258     -5.95740452721226     -3.68403001384479
  C   -7.63614122386875     -7.24569182670217     -4.47404473990496
  H   -6.49435686111519     -5.51856367920484     -3.81947355597530
  H   -8.23715147737540     -5.20625709777904     -4.03131715680190
  H   -6.89931741658152     -7.98934353349435     -4.13280508372959
  H   -7.46895559490890     -7.05487205961181     -5.54580389899611
  H   -8.64177977143629     -7.67625143011809     -4.34902776220441
  O   -11.06847346904321      5.60406976863401     13.20198854868057
  C   -11.52693045884084      4.97307305606690     14.38593643205633
  C   -12.32598909856079      5.98812267079483     15.18193647240752
  H   -10.66634602892764      4.60224557249160     14.97566380557832
  H   -12.15301879154082      4.09575576196626     14.13208605440915
  H   -11.70054772277381      6.85495590033467     15.44628308102694
  H   -12.70300339739874      5.53319756032505     16.11149711055596
  H   -13.18567448944976      6.35062282419005     14.59710989427561
