68
Coordinates from ORCA-job 758_0.0
  C   -7.80611553772584     -2.75395938352863      3.80043443127202
  C   -7.26313560752099     -1.43880505847920      3.93571722701210
  C   -6.63392569409100     -0.81364711874110      2.86328177637240
  C   -6.54906576325365     -1.48834987400286      1.61559221240005
  C   -7.05410987713992     -2.75820718906676      1.42864430781731
  C   -7.69481489793307     -3.41673951712927      2.53098469670980
  H   -5.66165737532488     -0.04424384902237      9.43160320774198
  C   -6.64744760005131      0.31347932444576      9.12881157646098
  C   -7.65142079929859      0.52051474185461     10.08853588452427
  H   -7.42848117882604      0.32117422404646     11.14061007876513
  C   -8.92465734027919      0.96318847607240      9.72300281331711
  C   -9.21260996185684      1.22685489535055      8.37117594814278
  H   -10.20493255574491      1.58679629763338      8.08334471037296
  C   -8.22722298283082      1.03295172589277      7.41320261758821
  C   -6.95206997777038      0.56697338144797      7.78711041354164
  C   -6.06389847051093      0.50164614148157      3.10388367829162
  C   -6.17883719739919      1.11196030964959      4.29713715486787
  C   -6.93165188473855      0.51538550661661      5.45653091592286
  O   -7.37422371359330     -0.85046098687738      5.14810949037387
  C   -8.21644371892855      1.33538036618568      5.92182026151511
  N   -6.13238788901204      0.45021930545582      6.66461715953944
  C   -9.48379941025494      0.90712423258828      5.17334424081483
  H   -9.73043749939257     -0.14689185034236      5.35540920542120
  H   -9.36816600550103      1.05488301940352      4.08712269838245
  H   -10.33731713376962      1.52234091095291      5.50054948141395
  C   -7.99589196263921      2.85395826013950      5.73486941236744
  H   -7.06977403545951      3.19242758853484      6.22437200940156
  H   -8.83350264846727      3.40209039276147      6.19267026762940
  H   -7.95204956185614      3.12771002872711      4.66843863142862
  C   -4.81446830632821     -0.16382775626891      6.70483661485912
  H   -5.51390958732372      0.98641592004366      2.29119455494791
  H   -5.71881538373419      2.08450210033162      4.47642396951731
  H   -6.05944932854433     -0.97210761764753      0.78319959854781
  C   -8.44943909730447     -3.40975784784157      4.88480914493338
  C   -8.97136286476517     -4.67566289668604      4.71671359851270
  C   -8.86912053874906     -5.33010191857866      3.46706184511891
  C   -8.24075933642256     -4.73206132990804      2.38675890789338
  H   -9.47143431239241     -5.17738726496412      5.54952779318526
  H   -9.29528093588297     -6.33126353665131      3.34945306682876
  C   -8.11136853596740     -5.45130571859768      1.06063051456816
  H   -9.69515140163426      1.10735001741732     10.48436128828981
  H   -8.52160126159225     -2.89183541654423      5.84212491973315
  C   -6.93369446987851     -3.47251893339313      0.10001007912181
  C   -8.05842652033745     -4.49215948409513     -0.13894775478828
  H   -8.93843758189348     -6.17152879045072      0.95849487387448
  H   -7.18137961361365     -6.05488293402267      1.06245606218817
  H   -5.96480148212264     -4.00894126465590      0.05417559404398
  H   -6.90732273618519     -2.73354449167485     -0.71847170501504
  C   -7.88190350723142     -5.21111276467381     -1.48609477216991
  H   -9.01569745652142     -3.93677937647358     -0.16914074303398
  C   -9.04028339383725     -6.12122222554661     -1.90982633124415
  H   -6.94402682817529     -5.79863937170590     -1.46041972734011
  H   -7.73139462908800     -4.44518953566262     -2.26926397509614
  C   -8.86004160355762     -6.72798287247169     -3.30619446927531
  H   -9.98538393845047     -5.54641204583238     -1.88244178763880
  H   -9.16685115044758     -6.94092481025556     -1.17969417423435
  C   -10.00871963915165     -7.64550801203492     -3.72883387534645
  H   -7.90817038734356     -7.28982666098618     -3.33711232086483
  H   -8.74788034110846     -5.91207300732112     -4.04404996807184
  H   -10.12274999071451     -8.49322585904141     -3.03177885738315
  H   -9.84514363929471     -8.06338701812587     -4.73542338694856
  H   -10.96986070842750     -7.10392135570510     -3.74626811507010
  C   -4.78513990547797     -1.68273309701481      6.92252491562088
  H   -4.23692330608795      0.33760798317715      7.50172524202700
  H   -4.30696892722849      0.08505220156900      5.75907025214365
  H   -5.30509471359828     -1.96852767786252      7.84988681022577
  H   -3.74113265831880     -2.02926417025822      6.99970338413891
  H   -5.26448170009636     -2.21876546163665      6.09099242379157
