56
Coordinates from ORCA-job 759_0.0
  C   -7.40071944336266     -2.94871536766263      4.58995781149132
  C   -6.81147227263939     -1.65616658276200      4.49739226169299
  C   -6.42991946783228     -1.14965048115026      3.23437807831223
  C   -6.67367516527425     -1.91265387173118      2.07865635923141
  H   -6.38823015178588     -1.54592281016176      1.09295586643051
  C   -7.28036754699189     -3.15523371721526      2.19589600693444
  C   -7.64755091747247     -3.69205967354181      3.43607498688628
  H   -4.53330585873611      2.06949460558480      9.20239997624325
  C   -5.55767472342764      2.25564160084456      8.87373888401033
  C   -6.50183825870088      2.75624986592037      9.79167491910880
  H   -6.18089587637724      2.95064334000001     10.81529015240721
  C   -7.82808008314530      2.98420792726366      9.40256824147376
  C   -8.22437782550986      2.71626924334318      8.07216105755047
  H   -9.26411705399099      2.90276414138241      7.79334177498142
  C   -7.29388563606388      2.23107121915303      7.17126272116481
  C   -5.96170361711635      2.00104231343897      7.56670706525843
  C   -5.73148038164547      0.12820776671534      3.11778176199836
  C   -5.55311878306955      1.03453026681652      4.09527362146996
  C   -6.13198861957118      1.00687839909253      5.47954658924276
  S   -6.53745067872655     -0.80118848027215      6.00675040118634
  C   -7.41040403446397      1.94055931786892      5.68052832827779
  N   -5.21630455949304      1.51735282678333      6.47967952714686
  C   -8.73553050449633      1.31142521802629      5.24340024367128
  H   -8.98053175014153      0.41605035140749      5.82985143485132
  H   -8.70386420516853      1.03410278475999      4.17721008982145
  H   -9.55286497009936      2.03962510258031      5.36842170976546
  C   -7.20877808310573      3.27240961089046      4.91334973815330
  H   -6.24505800572565      3.74141542584254      5.16169750326570
  H   -8.00786777249016      3.97507727906372      5.19428170035809
  H   -7.25734409993712      3.11916010480743      3.82368852492694
  C   -3.89286526027764      0.96419641994249      6.66131355623424
  H   -5.30106087222798      0.34405941766185      2.13507772083240
  H   -4.97366070833575      1.93549691333711      3.87270915921045
  N   -7.54206755613058     -3.94529097718885      0.98315267030591
  O   -8.08541509339743     -5.03289687220714      1.12028784248019
  O   -7.20246574008798     -3.47033048102072     -0.09092328602892
  H   -8.11557438887722     -4.67320172604352      3.45986395707893
  O   -7.69300030760202     -3.36819028556604      5.84008118750980
  C   -8.30644323962619     -4.63700409703127      6.04322824305448
  C   -8.52257836364614     -4.81887773930999      7.53274171158454
  H   -3.45951063319681      0.71138673506386      5.68328922484080
  H   -3.88818895390375      0.04840183414509      7.28426836331993
  H   -3.24050382248120      1.71336993042705      7.13795049746830
  O   -8.80737009917245      3.45678238415721     10.22477861679800
  C   -8.50552553140469      3.75559655802308     11.57537741859068
  C   -9.77208071529687      4.26056801890218     12.24197389882373
  H   -7.70484921915998      4.51946153140521     11.62648178792008
  H   -8.12707671948605      2.85109768188346     12.09080932842273
  H   -10.14256543451686      5.16626792435248     11.73706708387885
  H   -9.57769773141691      4.50444908844317     13.29832780804872
  H   -10.56369018214613      3.49625595872676     12.19996317614639
  H   -7.65651707636495     -5.43406576302830      5.63627583011706
  H   -9.26611732507656     -4.67728163243924      5.49482287933143
  H   -7.56379271648630     -4.77910751073305      8.07211595372896
  H   -8.99496155347287     -5.79385717184861      7.72971617527489
  H   -9.17494040964714     -4.02667386714309      7.93087185771390
