52
Coordinates from ORCA-job 762_0.0
  C   3.01600302949188      0.62876615335703      1.06354116457690
  C   3.42814099888077     -0.72368093086109      0.50419231422414
  O   2.28474421945672     -1.60827586503116      0.52678562820515
  C   1.07430985540648     -1.12756182981496      0.15727363202629
  C   0.73191434220405      0.21025343357574      0.31469292882457
  C   1.74774333988172      1.05576343004063      0.93659305612065
  C   -0.58134465725445      0.66236890403381     -0.06132266983142
  C   -1.51925370273073     -0.29906316710893     -0.56435493721619
  C   -1.13692289871126     -1.66853136044257     -0.68002664813299
  C   0.12979096331877     -2.09000729285476     -0.32610396998794
  C   -0.99435651146397      2.01849309018272      0.03961125951458
  C   -2.26776975324684      2.41040425535976     -0.33002961905801
  C   -3.19162998216701      1.46062895535065     -0.82415517908829
  C   -2.81990255325646      0.13549410234892     -0.93866724957738
  H   -1.87162466807587     -2.37713187077570     -1.06366229467343
  H   -2.56000603193215      3.46029742456721     -0.24324792014146
  H   -4.19640369668032      1.77687747856284     -1.11665698514653
  H   -3.52908454852405     -0.60380046708290     -1.32275062796847
  H   1.45881401095344      2.02829131904946      1.34048684228985
  H   3.77431958038662      1.22930405002182      1.57013380830256
  C   4.47786400966670     -1.36953495442515      1.42582470385441
  C   4.13816596583549     -2.40801782113366      2.30335099481273
  H   3.11809936357940     -2.79238166449406      2.30343294327026
  C   5.09953481317910     -2.95184106647549      3.16246935369797
  H   4.81974166535112     -3.76624629523998      3.83670625293793
  C   6.40699872618794     -2.46014583605767      3.16443637535932
  H   7.15568724930581     -2.88522673080508      3.83841837957951
  C   6.75143897824340     -1.42122235864774      2.29331993641228
  C   5.79512677895252     -0.88382908075241      1.42863819679628
  C   3.94536235135542     -0.64466019456756     -0.94591871569724
  C   4.35567769513767      0.55722155864054     -1.54220736417759
  H   4.27511531175447      1.49587718170760     -0.98941338051496
  C   4.85634997886570      0.58185930925194     -2.84247445972921
  H   5.17562907935903      1.51645057797284     -3.30890999486835
  C   4.94929819294439     -0.60343408895668     -3.58927605932628
  C   4.52750552450697     -1.81204559357625     -3.00954158737594
  H   4.57557557193877     -2.74926657234216     -3.56507499185353
  C   4.03662535405367     -1.82098970225574     -1.70135071796704
  H   3.69967964580344     -2.76302060181628     -1.26251854246814
  O   5.44683675444750     -0.48499959064057     -4.84739878689326
  C   5.56385313495972     -1.63348278791328     -5.65550152465908
  H   4.58336735287603     -2.10922976320137     -5.84164514466685
  H   6.24206919313423     -2.38454390455508     -5.21025455344377
  H   5.98442789537996     -1.30066484613406     -6.61451378048919
  H   -0.29301116843466      2.77039257992734      0.40608802276087
  O   0.58814302909903     -3.36241014797025     -0.39571167935265
  C   -0.28350372037320     -4.37237091469769     -0.84996435965220
  H   -1.17588294368115     -4.46457291521188     -0.20404285449674
  H   0.28195464052339     -5.31356364797745     -0.81563434502170
  H   -0.61644841899272     -4.19056067829800     -1.88844784642208
  H   7.77270068127590     -1.03062945582299      2.28012414138963
  H   6.08224597782752     -0.08581980601019      0.73899885494206
