66
Coordinates from ORCA-job 764_0.0
  C   3.07224544696126      0.64531182386266      1.02326005338782
  C   3.52810461779933     -0.66038045795511      0.39703201278616
  O   2.40223182447897     -1.57839886276505      0.31424769283118
  C   1.15238875074779     -1.11446953512391      0.04338339595428
  C   0.76953232596800      0.18848776448389      0.35349108161835
  C   1.78461972642027      1.02832047234277      0.98079925205925
  C   -0.58108073947764      0.60447937106899      0.09632144215425
  C   -1.50324790559528     -0.34871862209715     -0.45318063668145
  C   -1.05779893955892     -1.67039045175562     -0.73643341455986
  C   0.24241825944448     -2.06441043264615     -0.50188536315669
  C   -1.05563511743830      1.92003975436792      0.36102973631881
  C   -2.36681209205941      2.27212058764264      0.10520740762781
  C   -3.27508492120819      1.32837227223859     -0.43249604190364
  C   -2.84613180106162      0.04599071700263     -0.70575527007787
  H   -1.76150456702666     -2.38873446167177     -1.15952941505261
  H   -2.70575775629961      3.28969388857850      0.31773369932356
  H   -4.30992631357935      1.61883794739801     -0.63125614120722
  H   -3.53688656536315     -0.69200084970960     -1.12389764708833
  C   4.55261102145011     -1.32220099150238      1.33540049976370
  C   4.16591498578288     -2.30018792500204      2.26173233155939
  H   3.12907746699760     -2.63673416581208      2.28296290854962
  C   5.09936542356368     -2.84440482142978      3.15035363494322
  H   4.78270247884739     -3.61278204309301      3.86102989733370
  C   6.42681924776014     -2.40906617312104      3.13558217984517
  H   7.15440233355836     -2.83382416683389      3.83239249560629
  C   6.81784312183948     -1.42638189242969      2.22043265529045
  C   5.88864114167327     -0.89054214052559      1.32534800220577
  C   4.09271786520245     -0.49169476917606     -1.02471005391748
  C   4.17273865404448      0.74848684534577     -1.67455516626778
  H   3.83209146111668      1.65176251142623     -1.16408381945806
  C   4.67394846320964      0.85138954453200     -2.97149410709026
  H   4.73934121423606      1.81653251080653     -3.47846826436896
  C   5.09571978842178     -0.29591633280205     -3.66002491037827
  C   5.01289415442213     -1.54766310183242     -3.02674157845725
  H   5.33039427929992     -2.45885269000028     -3.53472118101712
  C   4.52126386512354     -1.63019077286345     -1.72258205247526
  H   4.47088647715550     -2.60843615386464     -1.23780159260676
  O   5.56473373525665     -0.10488207349331     -4.92118727287038
  C   5.98394023230567     -1.21314646653510     -5.68982926949540
  H   -0.37455437108776      2.67006837005604      0.76695310158730
  C   0.75943788316828     -3.44566390850612     -0.80840808190556
  O   -0.28695575412693     -4.23299078979914     -1.38191405306759
  H   7.85419713621591     -1.07847507399482      2.19683988711358
  H   6.20926805678412     -0.13422570918183      0.60445806337163
  H   1.61474543545009     -3.39920479107905     -1.50246841152878
  H   1.13842553599923     -3.94125223065988      0.10206195025527
  C   0.05493208226497     -5.45575257482182     -1.84316532283049
  C   -1.14300894472584     -6.16866794918639     -2.42261779937453
  H   -1.92656613502030     -6.27376906848718     -1.65600498764443
  H   -0.84031634038611     -7.15739297561091     -2.78801192691665
  H   -1.57071294626935     -5.57659901260797     -3.24680658585008
  O   1.17662709980910     -5.89337769802706     -1.78804169795078
  C   6.42910200148862     -0.66689457186643     -7.03465209092583
  H   1.48739732319858      1.96966056285968      1.44743905960324
  H   3.83258617874424      1.25653028612440      1.51415531464928
  H   6.82057309432952     -1.74654546881714     -5.20122274844845
  H   5.15974819127006     -1.93701357065634     -5.83077155325465
  O   6.83319978022577     -1.79155561835914     -7.81843447394834
  H   7.26552253419388      0.04075204731408     -6.91789197930057
  H   5.60696062336172     -0.12714821925147     -7.53120257641397
  C   7.26694371955991     -1.53063556695332     -9.07347390566444
  C   7.66997736997179     -2.80042502225051     -9.78236170257161
  H   8.53057226138192     -3.25650325999473     -9.26740033478881
  H   7.93864682608435     -2.57152593142299    -10.82067087061604
  H   6.84787059067292     -3.53167686034155     -9.75241188493132
  O   7.31816912302181     -0.41776105153435     -9.53117156967542
