108
Coordinates from ORCA-job 765_0.0
  C   4.09120964579154     -3.04067489252764      2.34390090143674
  C   4.72570886716587     -3.83578892687183      1.21353739126688
  O   3.67333794801372     -4.33411819055489      0.34521528457586
  C   2.64023606620715     -3.51510934214910      0.03419950187592
  C   2.20373808243369     -2.51122462479704      0.89558519616753
  C   2.91586774519279     -2.41156062365603      2.16477197093691
  C   1.07224666863907     -1.70113041873479      0.53282134390992
  C   0.39065926584867     -1.95632979227444     -0.70667199385451
  C   0.86381346529219     -3.00524253430673     -1.56946661898315
  C   1.95540432368641     -3.77993253981695     -1.18264310975251
  C   0.60113982068724     -0.64574471035783      1.36137234582789
  C   -0.49201995695467      0.11972155310990      1.00477788586609
  C   -1.17022293053296     -0.13962496365267     -0.20702677173180
  C   -0.73539741705207     -1.15337789099510     -1.03858847638426
  H   -0.83109078478464      0.92631672996192      1.66027893529695
  H   -2.03925867417501      0.46164460484901     -0.48722925363882
  H   -1.27662246642673     -1.34616811556237     -1.96647469832243
  H   2.47006120785702     -1.85070739486021      2.98875675082853
  H   4.61732596327364     -3.00896937620782      3.30043649386755
  H   1.11888678882922     -0.42650836888965      2.29669135163058
  O   2.47367140911271     -4.74809713830561     -1.97401771662217
  C   1.61222822207314     -5.42075071157057     -2.93449611563623
  C   0.32941062474796     -3.28273156497160     -2.89795839983787
  C   0.68321395052731     -4.39602352146785     -3.56514649483024
  H   -0.33368444316398     -2.55582409148040     -3.37142148752592
  H   0.32406829887958     -4.59354249310106     -4.57746499689714
  C   5.68777960800460     -2.99501089061516      0.35461377431002
  C   0.85789171007731     -6.53526722970281     -2.18903544199353
  C   1.57027049269172     -7.37690008496836     -1.32397753417166
  C   -0.51765720809386     -6.76154950113866     -2.34442089894518
  C   0.94187850346473     -8.41753815579729     -0.63506514470807
  C   -0.43488002488573     -8.64066452994939     -0.81000713288349
  C   -1.15824468241597     -7.80079572168187     -1.67168510195246
  H   -1.10565187995947     -6.11109753787136     -2.99566347371411
  H   2.63912619908519     -7.20644080822954     -1.17594877868000
  H   1.53283234283600     -9.04482035980983      0.03302104060695
  H   -2.22948025860976     -7.97784843537533     -1.79098363862206
  C   6.19327880258691     -1.75364296983242      0.76889322812685
  C   7.07938934668781     -1.03257610895776     -0.02974093125572
  C   7.47692362752868     -1.53341064103593     -1.27965234513586
  C   6.97147386725664     -2.77199099038036     -1.71102553686743
  C   6.09198395298543     -3.48696489719251     -0.89370382500745
  H   5.88411917659242     -1.33324334024177      1.72842973489479
  H   7.47272785524756     -0.06531608594319      0.29094286279327
  H   7.25228568159039     -3.18805858225652     -2.67906164701393
  H   5.69702457019660     -4.44377700492625     -1.24288592816474
  O   8.33674673749940     -0.76063591345335     -1.99306988644415
  O   -1.14066090717803     -9.62483675426489     -0.19541687847669
  C   8.79035113959944     -1.19744721170673     -3.26335645175478
  C   9.74448077077422     -0.15046345208539     -3.80784018858208
  H   7.93060870883267     -1.33732551674177     -3.94677362934858
  H   9.29777107888305     -2.17705096802198     -3.16958327993218
  H   9.23764761873550      0.82162092899317     -3.91042787711655
  H   10.12101244440421     -0.45423341375069     -4.79738761064107
  H   10.60414078735730     -0.01961223106879     -3.13223783257177
  C   -0.48893167466783    -10.50702085327699      0.70283739752391
  C   -1.52252010261828    -11.48087536113760      1.23796557026950
  H   -0.02597913731341     -9.93420137439747      1.52937328265415
  H   0.32473959488263    -11.04754451302898      0.18148322521835
  H   -2.32584561044293    -10.94361229759499      1.76559729918370
  H   -1.05450890091422    -12.18727575567206      1.94157409094023
  H   -1.97670939177496    -12.05588025374711      0.41607960262600
  C   5.41172556073754     -5.08264128556472      1.78994751491506
  C   2.55979164166013     -5.98279132660518     -4.00455959307473
  C   6.75011376053420     -5.05443747437733      2.20545131090069
  C   7.35287433357426     -6.15516920322684      2.81293377378709
  C   6.63269226247254     -7.35545805243475      3.02449316286648
  C   5.28258183160986     -7.38230768882211      2.59639494251925
  C   4.69259064175415     -6.26780624146080      2.00379022087180
  H   7.34653846164741     -4.15178431962523      2.05176576924932
  H   8.39500672519361     -6.07683605067097      3.12521403961924
  H   4.68691410944624     -8.28750167691966      2.72229024798889
  H   3.64912119422130     -6.32166794834325      1.68858944470962
  C   3.71786176205521     -5.28013733785055     -4.37137316736733
  C   4.56274735520546     -5.73882633389336     -5.37943918790739
  C   4.27565142326762     -6.93205462335604     -6.08764735193243
  C   3.10002000258861     -7.63130175582850     -5.72348255774820
  C   2.27193461656211     -7.16271895026590     -4.70376964974673
  H   3.97121891994319     -4.35866007013535     -3.84393715381812
  H   5.46163902597477     -5.16612013330305     -5.61238101893119
  H   2.82677418294643     -8.55238393562512     -6.23977924840340
  H   1.38091751819408     -7.74139421785525     -4.44902238935564
  N   7.22061132584955     -8.45118865908240      3.61939481166123
  N   5.10695663659060     -7.39374933552700     -7.08538912767835
  C   8.62915240969558     -8.51099183762417      3.98970983447120
  C   8.85059410494150     -9.98824253677168      4.34266658499163
  H   8.85232555638113     -7.85045366942496      4.85339390430125
  H   9.27790160658433     -8.18134338218774      3.15903818599825
  C   7.47814214867675    -10.43099871201273      4.86803888402752
  H   9.66534798326715    -10.13268523003950      5.06828650681704
  H   9.10960609184025    -10.55627376640242      3.43308977035418
  C   6.49635449079639     -9.66697183071164      3.96883744506665
  H   7.35262507958299    -10.11063352901931      5.91624444705265
  H   7.32528965714523    -11.52037113524687      4.83276225570578
  H   5.55051288661560     -9.43670569580176      4.49043070274364
  H   6.23006170447709    -10.25674583477004      3.06698928900568
  C   6.26564689208028     -6.65851570791520     -7.57711982837086
  C   6.67166950761600     -7.42322579468128     -8.84477349755132
  H   7.08782029380019     -6.64641783085651     -6.83151844102194
  H   6.01244010601819     -5.60506300136365     -7.79111620887757
  C   6.23478769157909     -8.86259782997566     -8.53959862765659
  H   7.74489863971654     -7.32981674455976     -9.07012234636963
  H   6.11352125477076     -7.03387606827958     -9.71299540298915
  C   4.92565730529177     -8.67262293584237     -7.76104809466226
  H   6.98404209542011     -9.35824793846080     -7.89932920659828
  H   6.10579481563890     -9.48170531822908     -9.44034629828140
  H   4.75037043718736     -9.48817513203373     -7.03734531616117
  H   4.04964741875101     -8.65391376095997     -8.44236866975444
