64
Coordinates from ORCA-job 766_0.0
  C   -7.75803002757421     -3.55998446332892      4.17670971193302
  C   -7.36962401900935     -2.20301093586526      4.21950132163938
  C   -6.68826645959831     -1.63840177449465      3.11693955389322
  C   -6.46844847689162     -2.40755222406076      1.96930108190310
  C   -6.90988409924961     -3.72816424663262      1.93652231699379
  C   -7.54501716891171     -4.31877624252818      3.03411189605889
  H   -6.63732570831635     -0.14078307221838      9.65560279697850
  C   -7.59045239532563      0.09630087332896      9.17937787174827
  C   -8.74200008345368      0.28757776998554      9.95827787219150
  H   -8.67111068219565      0.19986377584066     11.04583225690599
  C   -9.97016435055016      0.57341208919780      9.36147548586071
  C   -10.06433805249986      0.69916053247248      7.96353675796240
  H   -11.02982451394576      0.93438794157604      7.51500620200241
  C   -8.93174499233263      0.52467106306295      7.17340906775941
  C   -7.70519089065065      0.20534518505861      7.79158920826494
  C   -6.16839420261553     -0.28993675071818      3.29470504342637
  C   -6.40649545999132      0.41223776045679      4.41547336401211
  C   -7.29977578823683     -0.07108890725811      5.52482861973149
  O   -7.61393311407476     -1.51680797447999      5.34030014531465
  C   -8.68135230869915      0.70705928802875      5.67641881370067
  N   -6.70181434117278      0.04865639752707      6.82714717830557
  C   -9.74641442582920      0.15764377487590      4.69960464250031
  C   -8.46141254157309      2.22359474104225      5.38013109881353
  C   -5.38528051134360     -0.47486978519048      7.13301706837060
  H   -5.53522449557142      0.12654081294645      2.50624179310595
  H   -5.96040925575171      1.39689975364781      4.56047625108641
  H   -5.94576408760348     -1.99629749103665      1.10549951511224
  O   -8.27007776337083     -4.16042727284620      5.30998902202303
  C   -9.55674137996812     -3.87686766231773      5.69984412582894
  H   -10.86252656641971      0.70546497054665      9.97793352180637
  C   -5.35040939829584     -1.95298301554565      7.53677833645163
  H   -4.94249856076219      0.12357646678519      7.94745983854908
  H   -4.73849469936477     -0.33067447895058      6.25386997163786
  C   -9.84741942491714     -4.50408975553383      7.03464006191321
  N   -6.68110969568283     -4.53216798302221      0.72737391924310
  O   -6.11249024964695     -3.99319169909395     -0.21106545380958
  O   -7.07277045400183     -5.68942321282119      0.73379635624593
  H   -9.49544770922387     -5.54565411158059      7.05971855899463
  H   -10.92346165375769     -4.44971849391750      7.23902578081631
  H   -9.29706077321317     -3.95181818883144      7.81362533361988
  H   -7.85703628082845     -5.36153469386847      2.99404908308653
  O   -10.30503870486291     -3.21260000524310      5.03828193206756
  O   -3.97392537606320     -2.26191408603641      7.78971201214683
  H   -5.74181102301630     -2.60367783510340      6.74058834166078
  H   -5.94830110993044     -2.15145979670863      8.43890360694276
  C   -3.70749288890043     -3.44787859459761      8.38256575837973
  C   -2.22171410562486     -3.63756314694617      8.56784936312758
  H   -1.71591436186703     -3.61362061899389      7.58986773147151
  H   -2.03261479218899     -4.59682631448935      9.06440165822193
  H   -1.80745124248012     -2.81230301824103      9.16774920319253
  O   -4.56423582187019     -4.23003519398932      8.70837217119218
  C   -9.76173254523592      3.03536384307200      5.39837589801523
  H   -8.02186490438788      2.32023740265553      4.37235359266653
  H   -7.73124405429808      2.64148179684118      6.09245042365860
  C   -11.03510658051281      0.99354585273709      4.62318336475927
  H   -9.99508038246899     -0.88218671490724      4.94599926831206
  H   -9.29060437753042      0.14231315047693      3.69222874137813
  C   -10.76613363631054      2.48266377492638      4.38128960862470
  H   -9.53035144298739      4.09113118715087      5.17704995736350
  H   -10.20169829438122      3.02475930343677      6.41043494662698
  H   -11.61883501477608      0.87043794868034      5.55059225710620
  H   -11.67041213419580      0.58430484892846      3.81996520849918
  H   -10.35762409142643      2.61947982850942      3.36220323715021
  H   -11.70912605226172      3.05424762760293      4.41617632545305
