94
Coordinates from ORCA-job 768_0.0
  C   -1.88278296060919     -4.19404656721179     11.61546529168450
  C   -3.24365319096250     -4.21727525513385     11.27348703308130
  C   -3.78329484546099     -5.37635888004274     10.67181373814712
  C   -2.94410646439776     -6.46487822644327     10.43956647195196
  C   -1.59000794360343     -6.43545968069489     10.78672163997114
  C   -1.03424793417189     -5.28816010219834     11.38945522944253
  C   -8.82048395141936      0.23964249066562     11.17698865611280
  C   -8.20934680953400     -0.69028835987158     11.99917202424284
  H   -8.61170684376408     -0.87860428251745     12.99811009771767
  C   -7.07105869637195     -1.37655134785685     11.55539626099918
  C   -6.54248048451800     -1.14308495291128     10.28760879269339
  C   -5.19424734048172     -5.33592357511161     10.31441508883590
  C   -5.92215234081436     -4.23265241800720     10.55176888261272
  C   -5.34802707100981     -2.96119533418519     11.13243877790837
  O   -3.98816881343006     -3.14751942690988     11.57241479489079
  C   -6.18354955374261     -2.34518293031146     12.32415259523323
  N   -5.38727533695098     -1.91029325896530     10.10965806796979
  C   -5.26231842103473     -1.54015963731548     13.26967430017148
  C   -6.94655640752778     -3.40426528644406     13.13081756765746
  C   -4.38196951262684     -1.83256466107275      9.07400395516593
  H   -5.63696787452168     -6.21454718809617      9.83760937173130
  H   -6.97426886287347     -4.17514834800991     10.26454686628453
  H   -3.32903433724980     -7.37255856636973      9.97466687515479
  N   -1.31359887999110     -2.96618998718825     12.20229615692457
  H   -4.26462873303412     -0.79074211721415      8.74858958521403
  H   -4.59736131608502     -2.45891456361611      8.18657895828856
  H   -4.60456982349024     -2.20252644541814     13.85250943444990
  H   -5.88499859064590     -0.96432693325261     13.97140886406932
  H   -4.62931241633521     -0.83464081673477     12.71259598933037
  H   -3.41211119163549     -2.13621721054001      9.49348515243705
  O   -1.43600972419517     -1.94234759462570     11.55287426892950
  O   -0.76113681932429     -3.06318978494363     13.28243018225517
  O   0.27551960342393     -5.14115295239545     11.71337343532290
  C   0.78883873234274     -5.87547093994710     12.78443447031859
  O   0.09522856435730     -6.56834664587431     13.46383174970811
  C   2.26187022001214     -5.63312976466581     12.89721699070510
  H   2.75667313039450     -6.05982244466656     12.01043881890505
  H   2.64361281475062     -6.11111613053291     13.80702873890601
  H   2.46668406279586     -4.55230411106070     12.91036722098517
  N   -0.78575875470632     -7.62466676437448     10.45330480363388
  O   -1.38591517273250     -8.59933688953485     10.02904939331954
  O   0.42562435700258     -7.56820539210608     10.59608406439785
  H   -6.25472137534495     -4.15481811868462     13.54626267701797
  H   -7.70512619864655     -3.92879008448938     12.53205922017506
  H   -7.46438840577441     -2.93196635010334     13.98040738498833
  H   -18.28610238035803      6.86713076226636      8.26728598666850
  O   -15.87466866745271      6.77209633843375      9.26716685500682
  C   -17.52718679554056      6.71980216394613      7.48994954835982
  H   -17.73961582963375      5.81177571769036      6.90612270527749
  O   -15.07933620924260      3.56723397191346      7.81484414097387
  C   -16.17419268384169      6.61778317053527      8.12276628118651
  O   -13.74352523249521      3.16534176933549      6.15456246621001
  H   -17.52605502471624      7.57471886163835      6.79550617212355
  N   -14.10517912139519      3.80586529783390      7.12447348372863
  H   -11.12359660296493      3.66117225654679     10.30122976403803
  H   -11.13391728570490      1.01219056465183      6.90993237203651
  O   -15.22795494127518      6.29208588430281      7.14896337788697
  C   -10.49581234227663      2.77364029428937     10.45473700190382
  C   -13.29458283210403      4.98552416263461      7.48579356620396
  H   -9.69226989610248      3.04524201814285     11.16193559441128
  C   -10.56957241382749      1.59826557053518      6.17055287587697
  C   -13.91818575509141      6.24203847862223      7.49997857524809
  H   -10.11365937780619      0.89902069864985      5.45278143073976
  C   -6.81912610536485     -0.15368074433492      7.99169884830545
  H   -6.00901895936707     -0.76032900643347      7.59779501788733
  H   -11.13837561187645      2.01262482296914     10.92315684084427
  O   -11.42539925529766      3.58491064666662      7.76871459423719
  C   -7.49541308355330      0.68974589549002      7.13007971942204
  H   -11.28319424244754      2.24097431930405      5.63570338815110
  C   -8.95312354338364      1.41288664564902      8.94431601213281
  C   -8.34119737031194      0.48844856427386      9.85876733763765
  C   -8.53919859148776      1.48840320427165      7.61580149496328
  C   -7.19822864656355     -0.26517717630180      9.35927450947523
  C   -11.93059070191953      4.82050816451671      7.77808058701291
  H   -7.20727243847351      0.73929232859689      6.07678964323949
  N   -10.00008301027943      2.32525526197106      9.16673450333300
  C   -9.45094645986224      2.42790653482706      6.84389923471288
  C   -10.03894168312191      3.26493064350780      8.04039097516287
  C   -13.13029648966320      7.36594748197410      7.82235907447489
  O   -14.79353419642942      8.92405195286181      7.39079806793808
  N   -13.66267454766341      8.73909631800004      7.81321258876638
  C   -11.16181654790146      5.95906841845549      8.11598548970090
  C   -11.77515165163764      7.20984708511746      8.12849151996298
  O   -12.92278917950975      9.62353385374167      8.21436572951912
  C   -8.74682931762784      3.29084052105055      5.78927797848263
  H   -8.39813060883666      2.65817913413760      4.95803096167385
  C   -9.23700045870861      4.50102578511776      8.37190745354610
  C   -9.75799112303030      5.73632661012061      8.43183888106209
  H   -9.44012711977007      4.03417235266143      5.36333036121167
  H   -7.87314047562531      3.82372218898513      6.19165685544068
  H   -11.20489554542078      8.10413169961761      8.37981094919796
  H   -8.18607238881617      4.31624909029128      8.60659631059010
  H   -9.14527002410486      6.59609784394380      8.71621533630735
  H   -9.70189531617395      0.75464941396542     11.54482759778150
