94
Coordinates from ORCA-job 769_0.0
  C   -5.63456002720773     -2.01816061437459      2.70758135785405
  C   -6.61131066031092     -1.38842767323349      3.49731132380218
  C   -7.96922499102175     -1.48770107508632      3.11394160972959
  C   -8.29483639323234     -2.19431072915380      1.95796913234298
  C   -7.31468222197635     -2.81116769372053      1.17431509444006
  C   -5.95620055073281     -2.73517214033013      1.54675879376039
  C   -6.87905859949005      2.40458422710071      9.52313179773667
  C   -6.76166556330105      2.57329525918582      8.15739322040315
  H   -6.75385496149617      3.57557162190280      7.72131770999931
  C   -6.73162963750773      1.43827249560160      7.32949081650699
  C   -6.75156410084222      0.15150768081813      7.85931236391230
  C   -8.94123480066379     -0.82782036111041      3.97347527481466
  C   -8.54807705029396     -0.18983746704354      5.08707596678284
  C   -7.11651913448933     -0.11658107003589      5.55706234466733
  O   -6.21824318203848     -0.74526194832229      4.59414369652261
  C   -6.61839127780837      1.36768043693999      5.81701668480665
  N   -6.93034573333590     -0.80625976772729      6.83747294971503
  C   -7.43678269722506      2.42999450727140      5.06656037619911
  C   -5.12828235600310      1.52100763284177      5.42520058668464
  C   -7.72150849584066     -2.01733663963762      7.06193241120818
  H   -9.99745018222285     -0.87088333958402      3.69413031067773
  H   -9.27655510318269      0.29369958132810      5.74143202506137
  H   -9.33220163475432     -2.28384556324587      1.63529487143402
  N   -4.21543354615557     -1.90580024484480      3.09600569624596
  H   -7.67129774209872     -2.65380029124542      6.16733473637732
  H   -8.78409481711529     -1.79732121925742      7.27427395374029
  H   -7.41788887767608      2.24935277489678      3.98018193213341
  H   -6.99812703386793      3.42525779185331      5.23894815415819
  H   -8.48607028003163      2.47079243230961      5.39170502084303
  H   -7.31491445447926     -2.59239971474491      7.90053726443784
  O   -3.75644798626086     -0.78116442963190      3.18150337772106
  O   -3.60671533494011     -2.94103862036686      3.29693413658940
  O   -4.92790547314020     -3.26384271151367      0.83691330528730
  C   -4.78909180431664     -4.65357623387004      0.79092181327753
  O   -5.50366415480534     -5.37858040076347      1.41203181585935
  C   -3.64918616605230     -5.01222462480891     -0.11088197112076
  H   -3.88332471252287     -4.67354716207698     -1.13208628740394
  H   -3.49797395915969     -6.09795253194982     -0.09621450604455
  H   -2.73687991246063     -4.49078942637567      0.21626774084832
  N   -7.76480569946732     -3.49046415789056     -0.05212194579707
  O   -8.96989824865769     -3.59355504197718     -0.21925297028820
  O   -6.92229616266299     -3.89192869772045     -0.83976475781162
  C   -6.28020781891126     -6.96730549307121      9.58752380208353
  C   -5.54756058012948     -5.85053893773813     10.02485655343081
  C   -4.17193049120661     -6.00806318501644     10.31514643139301
  C   -3.59191092581501     -7.26764423839674     10.18056943216276
  C   -4.33400706943414     -8.37663204852266      9.76246136667208
  C   -5.70232897054742     -8.23749365097317      9.44986768614574
  C   -6.61801444763569     -0.06205909892550      9.27308595618066
  C   -6.82757841844391      1.10947865858940     10.11026685742519
  C   -6.98090886792205      0.96025696326602     11.51716131283915
  C   -6.90078044994973     -0.28163381264131     12.11577364650664
  H   -7.06544961685074     -0.39015053837214     13.19101184830995
  C   -6.52843525222398     -1.39180846685898     11.33866503727171
  C   -6.30491439551428     -1.27765001106709      9.97066219302328
  C   -3.45177792922987     -4.81565814521359     10.73721682060738
  C   -4.08216439000865     -3.63554740559687     10.84313598430722
  C   -5.54458516283407     -3.42623617233947     10.53861779491786
  O   -6.17122819226118     -4.67825316848950     10.11089443099920
  C   -6.36344595140224     -2.83798598113891     11.77068647113745
  N   -5.74482834269961     -2.46532873955645      9.45450195008100
  C   -5.64882048963746     -3.01404424036433     13.12066127109598
  C   -7.76495817809333     -3.48847881813582     11.85968084880525
  C   -4.73899584465768     -2.43163813395832      8.39227301659432
  H   -2.38499831317105     -4.90366992424913     10.96025415254729
  H   -3.53999925400446     -2.73880042381535     11.15031575113550
  H   -2.53507340278047     -7.41864886081398     10.40110809643117
  N   -7.71488809368700     -6.81131476167424      9.27943937276371
  H   -7.17374098971567      1.85354207883206     12.11626649871535
  H   -5.12458367988843     -1.90117813638524      7.51478762658052
  H   -4.50454953158762     -3.45971291387125      8.08282839078534
  H   -5.44167215488643     -4.07623648613087     13.32508436047733
  H   -6.29483245553964     -2.64496812319951     13.93258476551722
  H   -4.70082674684036     -2.46048351125668     13.17624835662919
  H   -3.80058036293569     -1.94077209067263      8.71101328502178
  O   -8.43008387695183     -6.40101389650022     10.17546609186126
  O   -8.07937639293810     -7.10764158184999      8.15603760971697
  O   -6.52013489806371     -9.25284523912763      9.07494553808547
  C   -6.33301939791053     -9.84755177548578      7.82477580336555
  O   -5.51816556030452     -9.44766981183670      7.05144066734518
  C   -7.29333450028690    -10.98506318798294      7.66544064559965
  H   -7.06087713152002    -11.75460069953050      8.41806647520374
  H   -7.20275393525343    -11.40284238464410      6.65596056972088
  H   -8.32039632369197    -10.63459476697616      7.84823238955164
  N   -3.63595497461517     -9.67172527968236      9.71198884002396
  O   -2.42446521907889     -9.65608291236728      9.86310107640051
  O   -4.29843347668850    -10.68428287322898      9.54733955831809
  H   -7.00363434699093      3.26859069334294     10.18044624335594
  H   -7.70490800878983     -4.55172498964976     12.13226957242080
  H   -8.30737658928613     -3.42179374254798     10.90700984923332
  H   -8.35133633853265     -2.96059750303271     12.62773960524097
  H   -4.98358893362817      1.43322118745069      4.33906243091299
  H   -4.49814555732907      0.76027454967669      5.90617017679257
  H   -4.77687204684470      2.51252718132501      5.75029826014024
