60
Coordinates from ORCA-job 76_0.0
  C   -0.22783412359427      0.74115477397508      1.86079992082567
  C   -1.39346240908594     -0.03623899398491      2.05398109185419
  C   -1.82169662631992     -0.96597998443678      1.07661506112968
  C   -1.09621747125687     -1.09346509475274     -0.11100050451098
  H   -1.39732499162549     -1.80170639544474     -0.88360410045787
  C   0.03802806090353     -0.30793134109697     -0.30670813290894
  C   0.47506628564299      0.59859251124187      0.66419701873737
  H   1.37246959492482      1.18672953782741      0.46913553229609
  H   -2.76554820784755     -0.67907958304539      7.68154767659506
  C   -3.29034158274424      0.11697511566410      7.14842801080490
  C   -3.71391096708459      1.27173264483192      7.82635758141886
  H   -3.50879652284236      1.36128412500962      8.89655039992837
  C   -4.38152489638620      2.30341047608271      7.16093121923390
  C   -4.64660481306628      2.19730010161102      5.78381939310367
  H   -5.17280687718846      3.00204178741096      5.26199652506372
  C   -4.23323543273502      1.06091891185456      5.09975924381347
  C   -3.55955238961044      0.03278102788262      5.77989004486366
  C   -2.98489174064619     -1.78068431376045      1.39986719487783
  C   -3.67285136873616     -1.59599023402125      2.53903361818236
  C   -3.34839663303225     -0.51442857632479      3.53200153332425
  O   -2.05324778875957      0.11832803516215      3.20989259760646
  C   -4.43143801133703      0.64334581433317      3.64918906173674
  N   -3.23495792183372     -1.00322716788684      4.88602345656232
  C   -5.85837608857020      0.07072411033449      3.48597826095563
  H   -6.03893824931079     -0.77031054216814      4.17263541092610
  H   -6.04421477185199     -0.26765739060387      2.45397759828436
  H   -6.59272296659298      0.85546151571790      3.72259759523101
  C   -4.20317493117764      1.76195721794938      2.62583776500916
  H   -3.22876828219080      2.24929349737720      2.76106629213834
  H   -4.99168022819346      2.52468452612263      2.72664780224964
  H   -4.25927874972116      1.37132649404370      1.59618702804305
  C   -2.28294441633408     -2.04040758149020      5.23896640282980
  N   0.79732335446351     -0.44480888246627     -1.55751012200557
  O   0.38351236484094     -1.24256094048660     -2.38661399240224
  O   1.79683777807399      0.24520401937247     -1.69371922770007
  C   -2.96671949996209     -3.20544847369147      5.96370530531700
  H   -1.48674469398362     -1.62706966102654      5.88219139621025
  H   -1.80043123893013     -2.41486681680825      4.32376259303919
  O   -2.00475690393962     -4.16550196920863      6.41894647372776
  H   -3.63105270771910     -3.75077273336440      5.27840906906726
  H   -3.55447060671748     -2.83556826962980      6.81601349795669
  C   -1.40347552563869     -3.92289603595370      7.60566175907727
  C   -0.43309761376278     -5.02250757437561      7.95558927735619
  H   -0.95591640730499     -5.99112300007834      7.98121292677163
  H   0.02597908390678     -4.81327832629873      8.92919761223517
  H   0.34491967682048     -5.09453294552207      7.17944412767165
  O   -1.63055278159862     -2.94723541760232      8.27935775540988
  H   -4.69831586386463      3.19356245432832      7.70996122119513
  O   -0.61326826136058      2.84886374444488      2.94464660216981
  H   -1.56733731541494      5.20232523136890      2.81401275882288
  C   -1.29638896699030      4.92721131978614      3.84355485583850
  C   -0.29433766013862      3.79952985659009      3.85454338125597
  H   -0.88166066229419      5.78956973767669      4.38017254357046
  H   -2.21466615157939      4.59404988094142      4.35470297570757
  O   0.66556055402078      3.71689311295831      4.57853930095505
  C   0.24017277730870      1.68851299600043      2.93003299558004
  H   1.27692920412616      2.00629675262876      2.74434879997455
  H   0.20888363338768      1.21669299024322      3.92412850060142
  H   -3.27545226403120     -2.56821181652489      0.69882398470088
  H   -4.52604778351364     -2.22859425871741      2.78739602814753
