63
Coordinates from ORCA-job 770_0.0
  C   -7.78330819211068     -2.59676125826743      4.45852935619410
  C   -7.04099784977630     -1.39476292556169      4.52434314630872
  C   -6.29499799146422     -0.96359185757355      3.40281279342838
  C   -6.30030349744102     -1.72001524146912      2.22357501888289
  H   -5.71378963739501     -1.37832074130766      1.36858028765310
  C   -7.04967746386449     -2.89619073600492      2.12585085607489
  C   -7.78200261341345     -3.30420409640342      3.24269762341130
  H   -5.83810051774201      0.74024244742370      9.92978576267728
  C   -6.74112242590396      1.10502269503034      9.43628624075009
  C   -7.84498953202546      1.52042460253140     10.19853521019883
  H   -7.78382206554099      1.47472220148006     11.28935309064516
  C   -9.01662712445659      1.97506111566653      9.58946234170804
  C   -9.09971200112617      2.03691591251167      8.18651182101854
  H   -10.01345657246081      2.40196302510498      7.70870083420333
  C   -8.01325674922722      1.63488369587800      7.42120135427462
  C   -6.84336275213496      1.16185855142291      8.04351928286238
  C   -5.51426023504835      0.25726310429809      3.54562628104350
  C   -5.59213050396525      1.02199885451354      4.64719894184758
  C   -6.52812759311127      0.70920482354867      5.78079216520521
  O   -7.03290996116931     -0.67237462008648      5.66975927159901
  C   -7.78044023999561      1.68192077061387      5.91711782235906
  N   -5.89268441451473      0.81492855079515      7.07617722590900
  C   -8.97616662275327      1.23221720203662      5.06997987525810
  H   -9.35547808159227      0.24953151516763      5.37909824089860
  H   -8.70908611276496      1.18335842154108      4.00203706237314
  H   -9.79743647379793      1.95957046973970      5.16957967821963
  C   -7.38719538607992      3.12595172269637      5.52718706158046
  H   -6.50334726345530      3.47007111077850      6.08571328052262
  H   -8.21829376558673      3.80640489483346      5.76709647427417
  H   -7.17843094128694      3.20963827599750      4.44871335487183
  C   -4.65673989922022      0.13012589385201      7.39826101584432
  H   -4.84338552362870      0.53696105478751      2.72773504412216
  H   -4.99273392939785      1.92740663633624      4.75347485102061
  C   -7.07435056144510     -3.74584488780904      0.87753004657166
  H   -8.39478957571353     -4.20902085483471      3.21167231644186
  H   -9.86848463154776      2.28196588247462     10.20092204298587
  C   -4.83953754245835     -1.34756916383354      7.74850118634186
  H   -4.17982367892286      0.64393115379263      8.24947005106726
  H   -3.96522636773608      0.22319759957169      6.54615712430419
  O   -3.57771887631422     -1.83687227437743      8.22021859120765
  H   -5.16046547513925     -1.93285714271917      6.87644301849522
  H   -5.60292072997485     -1.47909858265490      8.53183834396886
  C   -3.52358395671888     -3.15688252921401      8.50617359439117
  C   -2.14760340303781     -3.55767057126964      8.97803912950241
  H   -1.41213532421745     -3.37867575993091      8.17771058429682
  H   -2.14819315477718     -4.61921016834501      9.25327937980058
  H   -1.84682031478878     -2.94104168569872      9.83907841324660
  O   -4.46968240713587     -3.89507155126798      8.38629815855916
  C   -8.62031180716926     -3.20489696359124      5.56608921708219
  O   -9.42462099821351     -4.07318226012053      5.28102274992769
  C   -8.42323514164250     -2.79369743940270      7.00835154513537
  H   -7.38235274475616     -2.98242109001793      7.31939171416116
  H   -9.10380374461287     -3.39204603879615      7.62832294818615
  H   -8.61118384061078     -1.72129783242444      7.15670481334439
  O   -6.45305190005622     -3.04222315348284     -0.20234530841953
  H   -8.10755819127635     -4.01101530480189      0.59803362905883
  H   -6.54314573107964     -4.70125796433120      1.03636319308292
  C   -6.47848916254839     -3.64478055365167     -1.41292147200021
  C   -5.79164963890444     -2.79631405203284     -2.45542201936667
  H   -6.28174819708205     -1.81252681248592     -2.52313151856743
  H   -5.83254395235178     -3.30439018927834     -3.42635008865319
  H   -4.74357434603777     -2.61985416492605     -2.16681316349472
  O   -6.99243067027794     -4.71759171645133     -1.60328088789909
