63
Coordinates from ORCA-job 771-2_0.0
  C   -7.41442395991009     -2.94832728614433      4.26495660653846
  C   -6.95321652257701     -1.59742151630008      4.31228456357530
  C   -6.03875942746863     -1.12305994547617      3.37560990688219
  C   -5.55137077970230     -1.98760140453641      2.35838794703245
  H   -4.83845289072828     -1.56870866944866      1.64506577899533
  C   -5.96859076075090     -3.29564487075840      2.28568429769191
  C   -6.90643883712438     -3.80322626526523      3.23179213078548
  H   -5.56402262278087      0.16037879885588      9.57335339596196
  C   -6.49524357868970      0.62902406905991      9.24742840235661
  C   -7.43749537540260      1.07479619713076     10.18795718568085
  H   -7.21693097009037      0.95895114203838     11.25258635431245
  C   -8.64851995053407      1.64812485232617      9.79010648890349
  C   -8.93945157511077      1.80015805543133      8.42327744558728
  H   -9.88279905180962      2.25738149160682      8.11092166519894
  C   -8.01416206313378      1.36941046783083      7.48068471060367
  C   -6.80705218044016      0.78267090387079      7.89312620203933
  N   -5.60079748647107      0.20360209140169      3.41972571443922
  C   -5.97985204915924      0.94334011203733      4.39072006465429
  C   -6.83255658193565      0.50738814788382      5.56964874756431
  O   -7.44077495910822     -0.79548007231637      5.28288742496216
  C   -8.01458615439996      1.49876093406651      5.96294783084067
  N   -6.04013512371710      0.42609381201170      6.77374947095610
  C   -9.34605730215335      1.11978194650596      5.30045229380983
  H   -9.68972474480307      0.12287320944431      5.60380315665127
  H   -9.26349236736203      1.13887649013941      4.20171594525161
  H   -10.11847973057764      1.85111587732887      5.58608393825986
  C   -7.66628171684319      2.96177485488510      5.60027963264980
  H   -6.69722135835917      3.27103099728020      6.02075566878729
  H   -8.43436689010032      3.62716563670128      6.02190155175913
  H   -7.64701486106489      3.11971123458517      4.50978212892144
  C   -4.79660950994500     -0.31027418000595      6.87836786373925
  H   -5.61279523778575      1.97546855374925      4.42353152389677
  H   -9.37009804510117      1.97918585064146     10.54079366856423
  C   -4.96604957562296     -1.78192558516802      7.29544144416832
  H   -4.15607761219377      0.19078281819023      7.62235357481630
  H   -4.26660930637152     -0.26146582944834      5.91477212932204
  O   -3.68490145830720     -2.39394140052019      7.49812998446649
  H   -5.44750562146731     -2.36879001275605      6.50277381699541
  H   -5.56223767293231     -1.85558510624232      8.21597420067526
  C   -3.10119089970462     -2.23210866598985      8.70675622174765
  C   -1.78023574950957     -2.95660039315065      8.76988309133186
  H   -1.93756835104428     -4.03414430113804      8.60562720795230
  H   -1.31359418532470     -2.78964148756186      9.74803012844995
  H   -1.11749418989225     -2.60048342331866      7.96605234684056
  O   -3.59389911245977     -1.59200380473424      9.60426103328376
  C   -8.35328233031222     -3.46006987046442      5.19922608834830
  C   -8.76737356320047     -4.77373960582586      5.13198705475721
  C   -8.27219386029837     -5.63502411722430      4.10710816407185
  C   -7.36690003012351     -5.14537272012588      3.18675554171798
  H   -6.99213531083953     -5.80477156556152      2.40227235203238
  O   -9.73005374239289     -5.24444571746993      5.99462194282164
  C   -9.48250657599512     -5.64905841647829      7.29686824106229
  C   -8.03709918070838     -5.68798350059184      7.73354744543103
  H   -7.45425499488152     -6.33832051880105      7.06450266378061
  H   -8.00102002242642     -6.07640144393347      8.75827925136952
  H   -7.58385409410912     -4.68589511415705      7.70308026777030
  O   -10.41741017895971     -5.94853826165448      7.97640544761715
  C   -8.74882153804544     -7.06722451684079      4.02150652014003
  F   -8.48267260395003     -7.74256897009386      5.16296244641979
  F   -10.06730153952618     -7.15055027990569      3.80982344032182
  F   -8.13856928443686     -7.73277450867167      3.02498102537452
  H   -5.59157222772502     -3.95914911392686      1.50390656281241
  H   -8.76097052209764     -2.80631608299616      5.97125065624738
