64
	Energy:     141.1827959
C         -6.40318       -2.62266        3.58995
C         -6.01939       -1.49240        4.34212
C         -4.99377       -0.67249        3.82562
C         -4.47603       -0.85629        2.53896
H         -3.70651       -0.19376        2.14912
C         -4.92882       -1.90123        1.75362
C         -5.85439       -2.79892        2.28377
H         -5.82177        1.95351        9.68307
C         -6.48705        2.33765        8.91483
C         -6.95697        3.64609        9.00250
H         -6.68563        4.25661        9.86025
C         -7.75673        4.17423        7.98383
C         -8.06674        3.41020        6.85462
H         -8.64384        3.84998        6.04807
C         -7.58935        2.10719        6.77722
C         -6.85487        1.55271        7.82745
C         -4.38218        0.34057        4.65723
C         -5.06520        0.70709        5.73713
C         -6.44687        0.14145        6.08553
O         -6.60195       -1.21664        5.57493
C         -7.63747        1.12198        5.63039
N         -6.41910        0.20418        7.59528
C         -9.01559        0.44216        5.57174
H         -9.30618       -0.01996        6.51697
H         -9.04446       -0.32939        4.79529
H         -9.80001        1.17320        5.33627
C         -7.40474        1.82161        4.27798
H         -6.49422        2.43046        4.27168
H         -8.22863        2.50573        4.03945
H         -7.34548        1.09756        3.45979
C         -7.18731       -0.78366        8.39871
H         -3.41687        0.76383        4.40977
H         -4.63683        1.46610        6.38514
H         -8.10909        5.19984        8.06093
C         -7.00968       -0.53474        9.91321
H         -6.83128       -1.79442        8.16925
H         -8.25436       -0.77553        8.15664
O         -7.75769       -1.38287       10.79398
H         -7.38207        0.46662       10.13220
H         -5.94338       -0.59878       10.16133
C         -7.62738       -0.93515       12.08765
C         -8.61858       -1.57449       13.00499
H         -9.60779       -1.14464       12.83002
H         -8.32409       -1.36265       14.03908
H         -8.62796       -2.65633       12.86902
O         -6.85503       -0.05785       12.45856
C         -7.28934       -3.72669        4.03815
C         -7.64882       -4.86494        3.19566
C         -7.10887       -5.01731        1.96994
H         -8.29307       -5.63185        3.61633
C         -6.22694       -3.97210        1.47743
H         -5.78767       -4.08576        0.48972
O         -7.56337       -3.83629        5.40938
C         -6.92320       -4.88397        6.03270
C         -7.34835       -4.95165        7.46983
H         -6.66052       -4.36587        8.08199
H         -7.33817       -5.99709        7.79258
H         -8.36983       -4.58039        7.58675
O         -6.11516       -5.65512        5.54211
C         -7.31514       -6.21618        1.08836
F         -6.16533       -6.92073        0.91996
F         -8.23794       -7.08275        1.57935
F         -7.73565       -5.86234       -0.15497
H         -4.51671       -2.03732        0.75697
