66
Coordinates from ORCA-job 776-_0.0
  C   -7.05873610591837     -3.24285977995990      4.83200785190319
  C   -6.77247446723885     -1.85869527620826      4.51554765221373
  C   -6.70011701087958     -1.41809414411169      3.20852635833708
  C   -6.90119959377127     -2.32151880955978      2.10002423327740
  C   -7.16952513722036     -3.69440146526971      2.35754154348160
  C   -7.23998088902014     -4.16328276435276      3.74097465375321
  H   -9.27181906823085      2.04260612231714      7.99459539145313
  C   -8.20617355214190      1.93921213993032      8.21088551379468
  C   -7.69933814910018      2.25424766872243      9.48151314250331
  H   -8.38941344624286      2.60682776406784     10.25302553564368
  C   -6.33918693230540      2.12219974699992      9.77772389899302
  C   -5.44482026112447      1.67393047399722      8.78938577435194
  H   -4.37941499792956      1.57665020295099      9.01772665447044
  C   -5.93043837289776      1.36141887473147      7.52497765748243
  C   -7.30157672684831      1.48803024488678      7.24362628873438
  N   -6.43317887371683     -0.07891035213549      2.92511261225451
  C   -6.28717902715267      0.75523135751615      3.87948005048645
  C   -6.41068970917332      0.43752825845107      5.35302890096333
  O   -6.54474606103664     -1.00251379970703      5.53928868093230
  C   -5.19803590487121      0.93423232082285      6.26023075182887
  N   -7.56159737250988      1.10496910820713      5.92287396997998
  C   -4.15267756161502     -0.16790261899735      6.48134135913475
  H   -4.58314741409031     -1.04748787131496      6.97660826355591
  H   -3.71306561728947     -0.49235055899607      5.52409341037947
  H   -3.33285258224036      0.22097800598100      7.10590006001357
  C   -4.50961157515247      2.17668341705142      5.64893386577586
  H   -3.76772738924955      2.56442105717566      6.36347282145095
  H   -3.98026205808301      1.93269153368296      4.71360879057965
  H   -5.22721483479186      2.98661242327418      5.44782110066546
  C   -8.91105589157543      0.87292203066209      5.43548390567539
  C   -7.36030979865838     -4.55133215536740      1.24364470193187
  H   -5.96910364902134      2.37116209630394     10.77530190783634
  C   -9.57375020977938      2.17178914957347      4.96158531910817
  H   -9.51922143132593      0.40532783119018      6.22738952562998
  H   -8.87828656067052      0.15405982999216      4.60428211469073
  O   -10.95345548682225      1.95094420667593      4.64203698088835
  H   -9.10704297545865      2.53253563251979      4.03387597438226
  H   -9.49232283870335      2.95149108751783      5.73258672239156
  C   -11.84162541865047      2.00991600709620      5.65828445638785
  C   -13.24093808110752      1.73260711074153      5.16938681253614
  H   -13.49330467251596      2.40798940968585      4.33770065520013
  H   -13.95195962528223      1.85881497361978      5.99467712144428
  H   -13.29740527205848      0.70329798034176      4.78108613282585
  O   -11.53429567006613      2.25209735771215      6.80080041986912
  C   -7.28899955929732     -4.07732044596758     -0.05598827297257
  H   -7.57162783929223     -5.60976649552901      1.39672520172207
  C   -7.02030862190791     -2.71564288069578     -0.29806781636765
  H   -7.44333845307540     -4.76375642576287     -0.89259611248209
  C   -6.82963334239281     -1.85198577157881      0.76560116733496
  H   -6.62054749396030     -0.79373691625827      0.60714486442222
  H   -6.11070141702992      1.80756124696897      3.62733419266574
  H   -7.34210875536153     -2.43131500755220      9.78030703066941
  O   -6.96834970484113     -2.98037903372720      7.29188134854403
  C   -7.65885962518068     -1.62866368197566      9.09701887882026
  H   -6.81845487506094     -0.92502831916431      8.99819860370263
  H   -8.52872523790363     -1.09836982814552      9.50087447498436
  C   -8.00061636316626     -2.20708853732350      7.75192681635262
  O   -9.02371507002954     -2.05156491365387      7.14148164125164
  H   -6.96364297758701     -2.34218569596326     -1.32411840130420
  C   -7.15620721305586     -3.75994907531648      6.15777163418951
  C   -7.39276297813605     -5.10273185331603      6.39929000154566
  C   -7.55599490168141     -5.99367041848757      5.32989745729820
  C   -7.48552742211999     -5.52626914590811      4.03068667973645
  H   -7.44646676078225     -5.44107523057803      7.43574338653762
  H   -7.62015194972451     -6.23375991852980      3.21392370607399
  H   -7.74178116487392     -7.05269747995381      5.52480397808227
