66
Coordinates from ORCA-job 776_0.0
  C   -7.14292237066716     -3.41420929434334      4.88382502286443
  C   -6.79565013740030     -2.01570752777877      4.75045007688605
  C   -6.47982265211226     -1.46916383010837      3.52187864251244
  C   -6.61139189200978     -2.23481054819878      2.30568283692415
  C   -7.07759275010477     -3.57776194522217      2.37456044826265
  C   -7.32958315295780     -4.18211416506730      3.68215927757204
  H   -5.59477470235281      1.47399908479251      9.63045133881822
  C   -6.61368557240924      1.48123930913782      9.23872959687740
  C   -7.68649595397511      1.85564480620250     10.06435593072941
  H   -7.48464159340014      2.13735656097017     11.10147976028739
  C   -8.99925300013303      1.86336706172677      9.58699541343711
  C   -9.26235708460311      1.50957506630229      8.25144615063323
  H   -10.28820074306964      1.52546622696451      7.87298416352409
  C   -8.20981436988940      1.14548308320828      7.42210016297911
  C   -6.89449232212101      1.11774792697296      7.91760406345961
  N   -5.96857154203031     -0.17178890889622      3.44549137897669
  C   -6.03579592556089      0.58512595871800      4.46812372780755
  C   -6.72593670954378      0.21307823312298      5.76729978290901
  O   -6.75344663920574     -1.24535124848987      5.86809914082484
  C   -8.18897381616203      0.82630303989152      5.93353809044903
  N   -6.00906112075636      0.71493849341126      6.91390771994471
  C   -9.30140567491467     -0.13380608752766      5.48872820763899
  H   -9.30041945719119     -1.06983682752252      6.06243005052077
  H   -9.21931716609636     -0.37281200591624      4.41692834008788
  H   -10.27937260115890      0.35078231108448      5.63898842866737
  C   -8.30287935331271      2.15338607496637      5.14592467246248
  H   -7.51740927362363      2.86903714358814      5.43344154546018
  H   -9.27396611326654      2.62344413923851      5.36379443798564
  H   -8.24414110976456      1.98528690631668      4.05859709803120
  C   -4.61783104006974      0.38940875066712      7.16244350135954
  C   -7.24948058294229     -4.28115466663851      1.15568281547253
  H   -9.82139097767898      2.14627900873528     10.24855379789599
  C   -4.42243998864397     -0.88860079495009      7.98028673014394
  H   -4.13691940004039      1.23014847584834      7.69181118135546
  H   -4.09925276164404      0.29125041955348      6.19576353246606
  O   -3.01407959700678     -1.03619752924355      8.20605203280281
  H   -4.81433718547265     -1.76971392636023      7.45202442280922
  H   -4.94243632477216     -0.82682166210951      8.94700220266789
  C   -2.64074352175733     -1.96363433346245      9.11322153129129
  C   -1.13745060330672     -2.03836653557845      9.22628709800152
  H   -0.71108044055121     -2.38110958171132      8.27002796824815
  H   -0.86232081300475     -2.73630045801302     10.02620040361576
  H   -0.71997562032685     -1.04020205899129      9.42872740913030
  O   -3.42542071922598     -2.63609179707962      9.73621148857719
  C   -6.95829695250353     -3.69547228283203     -0.06568345265346
  H   -7.61509903566443     -5.30814175994355      1.16361032799822
  C   -6.47506958948176     -2.37311493196442     -0.11914778938408
  H   -7.10100479990064     -4.26503713749778     -0.98768053800926
  C   -6.30479278769477     -1.65439323800132      1.05069840201792
  H   -5.93573920096031     -0.62825741898556      1.03741485215141
  H   -5.57818117252003      1.58256313838239      4.42624893568470
  H   -6.42495502038026     -2.81799264154058      9.62784707569567
  O   -6.98845487454332     -3.45229529100073      7.32847698995876
  C   -7.45162327441917     -2.47716486512807      9.44216458003228
  H   -7.47024892179060     -1.37547668841193      9.41980602226494
  H   -8.12406962015150     -2.79687032905629     10.25087145985361
  C   -7.99340023449861     -2.98573978861310      8.13302299408115
  O   -9.14814829800555     -2.98727076759085      7.80008739643696
  H   -6.23709459904445     -1.91537139147507     -1.08314308766577
  C   -7.31478800742895     -4.07767498157688      6.13256952692286
  C   -7.71299178204814     -5.40130932911190      6.20442426869121
  C   -7.94443994993995     -6.12750282574112      5.02813363748255
  C   -7.74387494226824     -5.52975652823327      3.79664433294759
  H   -7.82385385916691     -5.86399858906399      7.18671227389973
  H   -7.90224851306738     -6.12315311602017      2.89719887466861
  H   -8.26222018828380     -7.17132158480438      5.08647129355255
