58
Coordinates from ORCA-job 777-_0.0
  C   -7.22977199284438     -3.28070018276813      4.58977575747535
  C   -6.71105483639866     -1.96094697322363      4.31656968309443
  C   -6.14005219634730     -1.63737698389859      3.10023573286386
  C   -5.97589565801933     -2.63395750940150      2.06792544822241
  C   -6.42110848829572     -3.96397041488164      2.30707195025515
  C   -7.06544848529499     -4.29052928224141      3.57931398174181
  H   -7.69624266496659      2.74279556468340      8.08077860504776
  C   -6.74739101576261      2.23036906079201      8.24854993331156
  C   -6.09265150119128      2.36024977586828      9.48284079385836
  H   -6.54867009375624      2.97488665668531     10.26308294787510
  C   -4.87612094618043      1.71886447369702      9.72316975921189
  C   -4.28879757191154      0.93166599382327      8.72084738778033
  H   -3.33834852529688      0.42282157812259      8.89854432586935
  C   -4.93319548316603      0.80729896062048      7.49418214050061
  C   -6.16387317999001      1.44940755715863      7.24403893212680
  N   -5.77644782169084     -0.32015648529603      2.82053173429465
  C   -5.75778204138659      0.53396061364585      3.76808724672052
  C   -6.02367112858388      0.18071729054594      5.21035165004417
  O   -6.83983132277922     -0.99825458976047      5.27156700599140
  S   -4.37758791382816     -0.09434093402402      6.07631281594976
  N   -6.66856888359411      1.22069811054155      5.96167758855534
  C   -7.97158824094845      1.71314107674126      5.53354740134015
  C   -6.22411220803083     -4.92028757285043      1.27867533581823
  H   -4.37639491102364      1.82766543546095     10.68847493426330
  C   -7.91344699041402      3.14157866356573      4.99600891956964
  H   -8.68471115789905      1.66831044946153      6.37329288687347
  H   -8.37534728333262      1.03760920897147      4.76600515010793
  O   -9.26157331900019      3.52552091694683      4.71355817608930
  H   -7.30425545185495      3.20789120829944      4.08071242953716
  H   -7.47097045109459      3.83476250287226      5.73033514049780
  C   -9.44128449393892      4.72854441987682      4.12004071509196
  C   -10.90344532893777      4.98829567850413      3.85433616473701
  H   -11.28500245752789      4.25025661262065      3.13079885795451
  H   -11.02979900864554      6.00085872919541      3.45261332914338
  H   -11.48725538887597      4.86740813672955      4.77951734448410
  O   -8.52920914132866      5.46614976582698      3.84504017950024
  C   -5.63027882784423     -4.57757177482621      0.07498861662160
  H   -6.54291106337467     -5.95267646231067      1.42238055446860
  C   -5.20715184140489     -3.25357458009867     -0.15454913545004
  H   -5.49335841666707     -5.33869669026619     -0.69755262811465
  C   -5.37855225861970     -2.29643103850863      0.82953622169747
  H   -5.06168635357435     -1.26415732702681      0.67752403903322
  H   -5.49010813754321      1.57877790041930      3.56180766443869
  H   -9.90728217264154     -0.37348107408281      8.11977308988884
  O   -8.03534989244254     -2.77360769803215      6.86671845698655
  C   -9.04930884324286     -1.05681328969090      8.11476271857285
  H   -9.10534780554155     -1.74563310386606      8.97127166236010
  H   -8.11248649204806     -0.48760699087846      8.21727381226137
  C   -9.02807956341139     -1.83365386039049      6.82541848604154
  O   -9.75891430217889     -1.68369190131481      5.88534207919346
  H   -4.74420444207441     -2.98344988387961     -1.10738114756874
  C   -7.87208002277438     -3.65332755598496      5.80763497801666
  C   -8.31360162433562     -4.94634608454106      6.02837406961916
  C   -8.14397026639758     -5.92630255010041      5.04017137815487
  C   -7.53610926141589     -5.59864613556233      3.84187651417000
  H   -8.78972787790674     -5.17624754634226      6.98328014537455
  H   -7.42013342126818     -6.37467459562606      3.08680490853978
  H   -8.49503952915403     -6.94574527000120      5.21730112989508
