64
Coordinates from ORCA-job 778-_0.0
  C   -5.42029819863192      0.48257497838633      2.75502212214837
  C   -6.43861906862551     -0.10656595841524      3.59677118040761
  C   -7.00975577075214     -1.32516392149561      3.28473967261251
  C   -6.61308866527712     -2.04833740393719      2.10149236758525
  C   -5.62767052483822     -1.50710450619190      1.23427502175290
  C   -5.02337640785432     -0.21352787453176      1.56038782093298
  H   -5.56760334541240      0.53993657980222      9.26770988154422
  C   -6.35698073341441      1.20068145622869      8.90534438778900
  C   -6.64965579093520      2.39344097375523      9.58481013455244
  H   -6.07927414234503      2.64602272841548     10.48285694760821
  C   -7.64884560180545      3.25961373361727      9.13283948056357
  C   -8.38865121606913      2.93672429696104      7.98095518978595
  H   -9.17595891469673      3.61022837886591      7.63019808480552
  C   -8.11128633144910      1.75688926205996      7.30119771482836
  C   -7.09723155468315      0.89646602379908      7.75869877906338
  N   -7.98499202042796     -1.88695901188533      4.10759183387993
  C   -8.32384737186481     -1.28838552148926      5.18299720070067
  C   -7.73220279949258      0.00737126988714      5.69541205019760
  O   -6.84289811047371      0.58163793538620      4.68890730180046
  C   -8.79272902669513      1.12518408651298      6.09522274237376
  N   -6.98605391915248     -0.21282020631234      6.91582994464516
  C   -10.12684040944769      0.49677798924016      6.56155914508351
  H   -9.97888072007734     -0.23778031616412      7.36787693068668
  H   -10.65961928644642      0.00712449398263      5.73046940312073
  H   -10.77791177303682      1.29153499495189      6.95580641317066
  C   -9.06817543927395      2.10177594772923      4.94331962212353
  H   -8.16139132731335      2.63427354317622      4.62952420287884
  H   -9.81844366903515      2.84381146865581      5.25909838314647
  H   -9.47733933197145      1.57266235763023      4.06739558381023
  C   -5.87042938420439     -1.14357221463196      6.97943901654132
  N   -5.22587750371065     -2.14218920215303      0.11464582146351
  H   -7.85927500555209      4.18411320453598      9.67572729031920
  C   -6.10744870118567     -2.25475241553533      7.99852582390545
  H   -4.93699022882199     -0.60346543442141      7.21259297786894
  H   -5.71822141880028     -1.59335457774607      5.98768708693958
  O   -4.93545314042557     -3.07507155555767      7.99913201130702
  H   -6.98972986268362     -2.85974860645488      7.73219914309822
  H   -6.28392801110494     -1.85451964413589      9.01001342618865
  C   -4.91258179645270     -4.10427300399314      8.87556790630962
  C   -3.62358140664843     -4.88097026580706      8.76543114641508
  H   -3.52264088590317     -5.29681815694968      7.75059195641729
  H   -3.61761424708025     -5.69080497473140      9.50484561386173
  H   -2.76448930155819     -4.21162449241831      8.92755974596098
  O   -5.82058799972004     -4.34348323578484      9.63130389703360
  C   -5.76881179208668     -3.30737959873557     -0.18284556359448
  C   -6.75723340920772     -3.93351110092487      0.60945978712178
  H   -5.41575887940600     -3.79491368104566     -1.10088927135373
  C   -7.18149475783345     -3.29795840504299      1.76084915803437
  H   -7.94117580378559     -3.72589281813454      2.41662267232432
  H   -9.06972961976534     -1.76455601178481      5.82977914988617
  H   -4.60538389134072      4.35088428110482      5.80712083878431
  O   -5.06288143899965      2.54405295897851      4.07028778489251
  C   -4.82539998653727      3.37572088532851      6.26607395968281
  H   -5.89694528489997      3.35846225062179      6.51841875297220
  H   -4.24025897798075      3.23581900136831      7.18222934497355
  C   -4.51940733714699      2.26573847883436      5.30069987001210
  O   -3.88784732954505      1.26948326075795      5.52219515497764
  H   -7.17156348926848     -4.89966208512382      0.31046647995877
  C   -4.77136016882392      1.72562834741160      2.99560770866198
  C   -3.83587002916495      2.20261964868722      2.09532919205985
  C   -3.53962821310719      1.43290121596267      0.95826158134269
  N   -4.10655886649516      0.27079154189539      0.70318235257477
  H   -3.34797720488143      3.16097249996429      2.28155610379571
  H   -2.80006315437253      1.79575612704064      0.23321253566350
