64
Coordinates from ORCA-job 778_0.0
  C   -8.23846154186824     -3.50722775387380      4.58356717561468
  C   -7.48080784356544     -2.27723975221262      4.67293946040786
  C   -6.75084227423981     -1.80618619343835      3.59761562375062
  C   -6.80012985852569     -2.47140499165467      2.32014249996755
  C   -7.61184537672844     -3.62516144315424      2.15323605086706
  C   -8.34300284288980     -4.15749005623703      3.30591994361226
  H   -6.32421872434031      0.27370558438593     10.06558987993339
  C   -7.19388129385786      0.63620978457418      9.51423663401224
  C   -8.25591665500710      1.25338981257302     10.19474225578941
  H   -8.19776238866031      1.36242062185139     11.28114450923413
  C   -9.38185647895010      1.71846721682697      9.51109202515303
  C   -9.45664629711113      1.58805534144618      8.11286092769520
  H   -10.33169358470139      1.96291952237153      7.57439687038382
  C   -8.40986623924984      0.98559043063385      7.42719801709748
  C   -7.29034737160381      0.50034554298766      8.12554885437235
  N   -5.89785259313444     -0.71157001877285      3.75120821895555
  C   -5.96094662506484     -0.01592638017182      4.81780154860278
  C   -6.97052035473541     -0.23074376240366      5.93002114779693
  O   -7.47438804678671     -1.59988412174229      5.84692459685518
  C   -8.17989842325372      0.80682265026156      5.93318623587041
  N   -6.37312532555472     -0.06692036042624      7.23421582560601
  C   -9.40888178902853      0.29157182849795      5.17198830031318
  H   -9.79302415660510     -0.64550128274124      5.59627919655405
  H   -9.18222277716198      0.12740961973722      4.10686179026635
  H   -10.21354479759104      1.04186450158355      5.22344820774114
  C   -7.73202597254065      2.16056279724278      5.33304521067347
  H   -6.84092809147126      2.55943804222189      5.84120417189518
  H   -8.53991701602241      2.89803935599559      5.45483411956817
  H   -7.51286409025114      2.07329901151796      4.25664700496950
  C   -5.24044644830165     -0.86615556014225      7.66542612910474
  N   -7.71790563506425     -4.26493869470522      0.97119754668118
  H   -10.20229899847930      2.18599150009131     10.06049894934167
  C   -5.64274608959929     -2.18898774461289      8.31945536060567
  H   -4.63228583312234     -0.28109224916310      8.37671420144316
  H   -4.59700748944034     -1.06525927569493      6.79404518288944
  O   -4.43982649670765     -2.84621231059962      8.74042118665858
  H   -6.19845514135402     -2.82990490845558      7.62120247014487
  H   -6.28948960569694     -2.01910139234154      9.19218655602803
  C   -4.59899919265779     -3.95865060938569      9.48730647142864
  C   -3.26953437786364     -4.58644498440204      9.82549086848554
  H   -2.78836989209897     -4.94939620248633      8.90312639319838
  H   -3.42250346247210     -5.42433126437177     10.51627498840988
  H   -2.59580805909428     -3.83900702724300     10.27119468986472
  O   -5.67949355486581     -4.38135418418237      9.82199143401887
  C   -7.03391526814580     -3.80858817245686     -0.06095250167977
  C   -6.18391791061411     -2.68153894354749      0.00150031938840
  H   -7.14720025299871     -4.35455363576175     -1.00658825361374
  C   -6.06722862886293     -2.00813067826723      1.20264317821782
  H   -5.42858194320843     -1.13100097997658      1.31881351807451
  H   -5.24759775058009      0.80645458816537      4.96101828453848
  H   -8.22313214279954     -3.68695793409644      9.44256206248642
  O   -8.70337583394485     -3.65643522021936      6.94246782686410
  C   -9.14753663163212     -3.13903274542662      9.20441207271844
  H   -8.89482146753820     -2.06750387307259      9.14456242740819
  H   -9.90472732244262     -3.28392558397985      9.98469841887520
  C   -9.71107514478766     -3.58299361969899      7.88428637584537
  O   -10.85904830328128     -3.82402546178733      7.63817881388158
  H   -5.63497138982656     -2.35666612230574     -0.88597911997246
  C   -8.90654826418450     -4.14068054388631      5.67342801475872
  C   -9.65904179066619     -5.28266435909362      5.44645057089601
  C   -9.72241575050389     -5.78978826964001      4.13791424261257
  N   -9.08360174636763     -5.26287377876906      3.11159637218979
  H   -10.18309691515177     -5.77812960114319      6.26147710931739
  H   -10.32190643514293     -6.68741570522163      3.93994153533004
