68
Coordinates from ORCA-job 779_0.0
  C   -7.77774647085733     -3.07540447117586      4.91785641853387
  C   -7.01212419616789     -1.85096926548800      4.83005822533659
  C   -6.56839898960703     -1.37676822769515      3.60677118078371
  C   -6.96701705700471     -2.01486616634434      2.37707554770571
  C   -7.84854642060520     -3.12873063326581      2.40830936164309
  C   -8.26809867410746     -3.67005611428258      3.70359441370791
  C   -7.44040239495573      1.15172947749417      8.91042782753176
  C   -8.73433173914522      1.56386023058147      8.13085470055186
  C   -8.83994201648508      0.77864948898302      6.77268152195550
  C   -6.37244756070085      1.56418240885567      7.86124149712245
  N   -5.65976789864980     -0.31862706978982      3.55780979749647
  C   -5.50694708448077      0.39771577576759      4.60290102399211
  C   -6.35174854085779      0.25357342358419      5.86209671956730
  O   -6.71229163813374     -1.17713392958348      5.96511646889145
  C   -7.72434408575760      1.09088046123008      5.69326184279494
  N   -5.62789704561752      0.62480887745059      7.05246963117087
  C   -4.35162551309200      0.03337443230286      7.39067039324840
  N   -8.29126639975491     -3.72754026721212      1.28456777750643
  C   -4.48247822825701     -1.16536773473778      8.32767662252819
  H   -3.70785589277917      0.79495121272124      7.86613159403185
  H   -3.83077816372882     -0.29055794178274      6.47325543685500
  O   -3.15990354684482     -1.64382700686291      8.61888825074687
  H   -5.07525893871001     -1.96413444040694      7.85868467951804
  H   -4.98084318134905     -0.87851405594224      9.26791506364741
  C   -3.06763784456830     -2.69671385633809      9.45139960986350
  C   -1.63080328393853     -3.10723224280988      9.66168381476476
  H   -1.18968914235285     -3.42143245163030      8.70252892600357
  H   -1.58442269954068     -3.93285381406324     10.38198688343417
  H   -1.04166529235098     -2.25107360760191     10.02491077618636
  O   -4.02741455340327     -3.23238811353340      9.95395508398135
  C   -7.87524329002401     -3.27300355420476      0.11739438826719
  C   -6.98038137123188     -2.18900729054556     -0.02507329418409
  H   -8.25746642281351     -3.78549843580658     -0.77500906047376
  C   -6.52448158013220     -1.55479114543056      1.11523960261347
  H   -5.83415665678058     -0.71046553180653      1.07582511040094
  H   -4.74255522522677      1.18755613529790      4.60465888029954
  H   -7.74735490659702     -4.11758395459788     10.04317494028468
  O   -7.50261431377007     -3.43007165359094      7.32140057180994
  C   -7.52820021337021     -3.10176541969596      9.67117375452366
  H   -6.43635374980773     -3.02587951273156      9.57695545964967
  H   -7.91903285294256     -2.38039387937829     10.40024355017773
  C   -8.24818236323329     -2.93070509285821      8.36233851051590
  O   -9.34105936810468     -2.45823122525046      8.20543825284215
  H   -6.66232403876416     -1.86560815149660     -1.01945042807828
  C   -8.10963445961497     -3.75088263803230      6.12347949216858
  C   -8.96284539450469     -4.84077364225686      6.08896145733969
  C   -9.44861656803301     -5.27457466445275      4.84462031072854
  N   -9.09424640806622     -4.73098609923365      3.69613750370248
  H   -9.22313310226064     -5.36463822386492      7.01033975427975
  H   -10.13746108254292     -6.12757812378981      4.79903380746485
  H   -7.35974782006620      1.66799343454206      9.88250000285379
  H   -7.43055996203082      0.06790222203781      9.09709716639437
  H   -8.88796357829559     -0.30280730358709      6.96205778088943
  H   -9.80105995090423      1.05388527504672      6.30723689717572
  C   -7.44455809998223      3.46157011342208      6.92122440109718
  C   -7.53786543918859      2.65969141439304      5.56734501135927
  H   -8.11393292310061      0.73355348946096      4.72512819968149
  H   -8.41823584800187      3.03624562710855      5.02108792914373
  H   -6.66497413330522      2.88847437679629      4.93330906047567
  C   -6.14226388624260      3.08810120113694      7.70032900849192
  H   -7.11468132383424      1.59407914288946      7.13607906458661
  H   -5.24215961130298      3.29766010872827      7.10112021514559
  H   -6.05820172523839      3.64828732375795      8.64712786951169
  C   -8.66874733495569      3.08802056492660      7.81131582820120
  H   -9.64597851692898      1.35185159373826      8.71468886942601
  H   -8.62845737145519      3.66555717840866      8.75143739502706
  H   -9.59787555216356      3.38798187294419      7.29627349275794
  H   -7.48660906137645      4.53817008955133      6.67992815234598
