59
Coordinates from ORCA-job 782_0.0
  C   -0.80168035364719      1.15807729211245      1.73301108231563
  C   -1.89763863786573      0.28038399263274      1.87199408156149
  C   -1.97230536279175     -0.88194734470234      1.07514035527038
  C   -0.97390703188824     -1.13215588931095      0.12365088170548
  H   -1.01234179653235     -2.02866830798915     -0.49812713630545
  C   0.08681277792960     -0.23845534210680     -0.01230101531837
  C   0.19088808497811      0.90293720511735      0.79588244622628
  H   1.04230952050617      1.58005268455952      0.71324107937993
  H   -2.92042447633396     -0.09484489626952      7.32227936033886
  C   -3.67434567778422      0.50694097343971      6.81008223421013
  C   -4.31992199906185      1.56232321775515      7.47430652345245
  H   -4.05728654034250      1.76999890635494      8.51534569439092
  C   -5.27978464486026      2.35014264145579      6.83225325075981
  C   -5.62224874909701      2.09000926430102      5.49339195938676
  H   -6.37316842424554      2.70539771486911      4.98927497713637
  C   -4.99442921586229      1.04680810187064      4.82440850980167
  C   -4.02757674391283      0.26549897531153      5.47932979256752
  C   -3.09412409763662     -1.77409195584373      1.32933882730205
  C   -3.96340001645327     -1.53713566464918      2.32824021421215
  C   -3.86687891573355     -0.34958030030651      3.24640684682415
  O   -2.84824096629026      0.60355123509030      2.75501881248087
  C   -5.19818105077462      0.49785131429898      3.41861598220032
  N   -3.52320409071071     -0.71086740275262      4.60280575109796
  C   -6.44011655138190     -0.42381763419744      3.42684920607604
  H   -6.32818013746309     -1.24908861749071      4.14650426730466
  H   -6.64171478062681     -0.84647639409661      2.42936092755544
  H   -7.32155321013679      0.16177052140662      3.72828502724709
  C   -5.36034476214423      1.56774339294099      2.33276279929219
  H   -4.54278660675295      2.29948820426448      2.35653934430936
  H   -6.31153588698098      2.10412646409015      2.47783408706547
  H   -5.38835829852790      1.10940446081329      1.33058800705658
  C   -2.31736022395322     -1.45998862327355      4.91874954470675
  O   -0.74337787408623      2.30113118781016      2.50600382717080
  C   -0.54917504410128      2.15946635222443      3.86160588045059
  C   -0.72904613885777      3.47785907143696      4.55999301406861
  H   -1.80946442240808      3.67685616703852      4.65267387939488
  H   -0.28492019642411      4.29754950158206      3.97767453560654
  H   -0.28989215315175      3.42405770272044      5.56357577570027
  O   -0.28667033717146      1.10687959808910      4.37314101205653
  C   -2.63022814109852     -2.69002765944492      5.77710637764018
  H   -1.59222221049756     -0.81100567521067      5.43627436969381
  H   -1.83812644396023     -1.78448038861313      3.98444390796819
  O   -1.42073902505754     -3.32504789468266      6.21250819805230
  H   -3.17146611875589     -3.44735816548781      5.19206291093477
  H   -3.23608293355736     -2.41015218201877      6.65078283886930
  C   -0.83142297081102     -2.83251378348680      7.32445788587642
  C   0.43953183955648     -3.57989372546107      7.64025715801425
  H   0.24156281960672     -4.66112855892240      7.69594174601835
  H   0.85441857696858     -3.21670831335086      8.58817222965701
  H   1.16904066659334     -3.42359571171486      6.82972477189128
  O   -1.27916564129813     -1.91188644822238      7.96493937829548
  H   -5.76470666575098      3.16879349897988      7.36981611812738
  S   1.34642511962701     -0.56983498310801     -1.22655433324367
  O   2.60952356232773      0.02857426141027     -0.79352018431040
  O   1.24089978164134     -1.96227188419289     -1.63107529163673
  O   0.83520347050460      0.32668326401294     -2.50982035822319
  H   1.46886274588835      1.05720460614902     -2.61399102243307
  H   -3.19989304965103     -2.66521710618885      0.70425921588461
  H   -4.77074034969632     -2.23895092104335      2.53799243686433
