63
Coordinates from ORCA-job 786-2_0.0
  C   0.10738733204674      0.73628694502276      2.29634681289585
  C   -1.11693860270967     -0.07635820527313      2.28812577234565
  C   -1.25539606118637     -1.24214279951836      1.59591193025694
  H   -3.02524115944838     -0.11732518433434      7.59722590346816
  C   -3.59138832848620      0.58069326144317      6.97645893137697
  C   -4.19313867754487      1.71504519380990      7.54384360574839
  H   -4.08542778689826      1.88933456493927      8.61783350948246
  C   -4.91566533008591      2.62238810538523      6.76409901163444
  C   -5.05852863252893      2.40705858317347      5.38258454217873
  H   -5.62270350153689      3.11799869900306      4.77219979514681
  C   -4.47241224834615      1.28648170270003      4.80764349661270
  C   -3.74109681307068      0.38849801237354      5.60055363936755
  C   -2.51843523995907     -1.91494737659083      1.71497448914783
  C   -3.50697255205792     -1.49196603557929      2.52854703104072
  C   -3.32350739709739     -0.28742110442983      3.40789957566710
  O   -2.10575104918907      0.45019604502258      3.02505527122510
  C   -4.51446683763715      0.76806223710358      3.37739017747613
  N   -3.22415856042207     -0.64691137625760      4.80209306299306
  C   -5.86999173836615      0.06206829734549      3.14640589626585
  H   -6.02932120887629     -0.76029579190875      3.86049885203786
  H   -5.95350777081151     -0.33676776934849      2.12243746872803
  H   -6.68363616546905      0.78833388705605      3.29182777753276
  C   -4.30735208902761      1.84934817050640      2.30953133967519
  H   -3.39037092814032      2.42477526327259      2.48902148000936
  H   -5.16314412349888      2.54276932874759      2.31628960694687
  H   -4.25062645602853      1.40417344537665      1.30260295159126
  C   -2.21038270930740     -1.55969620474273      5.29857762942871
  C   -2.83469352123287     -2.74639519090260      6.04201240308619
  H   -1.52249289461563     -1.02383678640800      5.97468501816365
  H   -1.61042612913409     -1.93473564330210      4.45705648234780
  O   -1.82450220948584     -3.56374682703122      6.64683848604833
  H   -3.37079227441660     -3.40284023703240      5.34192983306803
  H   -3.53528182128975     -2.39189902312456      6.81153689715186
  C   -1.37251606584152     -3.18984430611834      7.86502981361298
  C   -0.33982036848381     -4.16049934140034      8.37980709809040
  H   -0.77764915998273     -5.16826315576373      8.45256979994189
  H   0.01755182590636     -3.83174884245754      9.36302456033276
  H   0.50128451602602     -4.22289884825413      7.67188044652178
  O   -1.76167120073754     -2.20635953238138      8.44724090323283
  H   -5.36962449184393      3.50169142435547      7.22762328186125
  N   0.32353782633407      1.71397764780213      3.11970471204998
  C   1.55627245849004      2.28986480139276      2.91327373268083
  S   1.41513511648949      0.41483730306398      1.12823182175564
  C   2.31795294041575      1.71641420696476      1.86029692950295
  C   2.07000337907503      3.36372248987362      3.66842647929997
  C   3.33822735588168      3.83905120335539      3.34356452690727
  C   3.59077398596656      2.20815620928932      1.54395741384146
  C   4.08918824616365      3.26843935947947      2.29067231444897
  H   5.07629429533741      3.68461114005716      2.08010150199641
  H   4.18366745716787      1.77616656660336      0.73509687412966
  H   -4.43783426563270     -2.05080236313558      2.58984221186603
  H   -0.46003699995496     -1.66576766203649      0.98838004531475
  N   -2.73577662272656     -3.14161212234401      0.90587666525335
  O   -3.79916879710178     -3.72609510657534      1.02511637938193
  O   -1.82502699757626     -3.48353700600817      0.16943712431848
  H   5.57127680150795      6.14297105754268      5.63590474252130
  O   2.56903852799139      5.29889434872899      5.69558310385972
  C   4.58712821187934      6.60331446506682      5.45626403930995
  C   3.57971949036720      5.54086374460868      5.09282868332359
  O   3.99277133739533      4.88919805577321      3.96780492611458
  H   4.24969711178720      7.13295245158198      6.35516141080293
  H   4.70598628588828      7.31122673040146      4.62124035305572
  H   1.48352128566999      3.78846889403658      4.47736942452403
