63
Coordinates from ORCA-job 786_0.0
  C   0.01666983600249      0.80259154833042      2.23777780648956
  C   -1.17770169354598     -0.05126245885346      2.24613157631749
  C   -1.29362879433808     -1.22074494488789      1.55726793912444
  H   -2.94286367469369     -0.11295327981951      7.59889416477612
  C   -3.54105567690598      0.56497290786510      6.98587880782996
  C   -4.15647320377033      1.69041143119863      7.55715524853537
  H   -4.02626559199318      1.87811752121524      8.62648787495005
  C   -4.92428258702208      2.56968299867508      6.78787322776260
  C   -5.10149311126598      2.33262541443911      5.41346642707075
  H   -5.70345031985306      3.01946861893354      4.81163862366508
  C   -4.50295623491046      1.22031774283228      4.83511537384542
  C   -3.72434416790352      0.35176607978488      5.61667777442633
  C   -2.52860727517956     -1.93751303721365      1.71276827736003
  C   -3.50906932971720     -1.54860909069692      2.55289078227716
  C   -3.34669809405061     -0.33300737572641      3.42112029613864
  O   -2.16686486753685      0.44323065126589      3.00571916753139
  C   -4.57230911916172      0.68215751733902      3.41313002098450
  N   -3.20066768442700     -0.67721178162926      4.81606702960890
  C   -5.90996837576892     -0.07026583576192      3.23161648600154
  H   -6.02021738912658     -0.89123515159464      3.95661215029178
  H   -6.01153674564711     -0.48138010627965      2.21417485318875
  H   -6.74291196852764      0.62974565093185      3.39547597407947
  C   -4.43196994023641      1.75502885790660      2.32614005623225
  H   -3.53060123344112      2.36356625435163      2.47230323336509
  H   -5.31013577053009      2.41977351682117      2.34630905482666
  H   -4.38693892763714      1.29787416229519      1.32405773885803
  C   -2.14285418869985     -1.55061513997281      5.29361813547785
  C   -2.70731930547769     -2.75279344642000      6.05994214420736
  H   -1.45707108291793     -0.98512680363158      5.94743032084032
  H   -1.54989271506002     -1.90960674296753      4.44025447318332
  O   -1.65566202672387     -3.51500757487611      6.66440984557063
  H   -3.22191782484680     -3.44197247372712      5.37522247928968
  H   -3.41453211787544     -2.41759928683196      6.83203788885980
  C   -1.21664436908983     -3.10949360193435      7.87757798414237
  C   -0.11897032431690     -4.00993530193306      8.38435228453230
  H   -0.46638577945711     -5.05428551295084      8.40544153602663
  H   0.18755257011723     -3.68911819472778      9.38713339016623
  H   0.74124690035510     -3.96728476760951      7.69774717992377
  O   -1.66033848096024     -2.14868665857196      8.45874746670357
  H   -5.39047554046301      3.44095069083783      7.25457294694919
  N   0.21750812399316      1.76172044126092      3.08722472941187
  C   1.41852114015487      2.38344907346771      2.86608085619169
  S   1.30276477547634      0.57512668137409      1.02689302325805
  C   2.17930941759287      1.89023339830112      1.77421357519411
  C   1.93399575589001      3.45277754922532      3.63129360723306
  C   3.15792210929437      4.01096306676819      3.28930892665066
  C   3.41593978391220      2.44813633872172      1.42487315668123
  C   3.88694117642148      3.51295511369672      2.19146942022129
  H   3.54164445460587      4.84056922610762      3.88595770846370
  H   4.84756152329735      3.96995001790295      1.94103535907519
  H   3.99367373314098      2.06604929777375      0.58107214860233
  O   1.19110956514956      3.97514077709478      4.66494207677691
  C   0.93706273548196      3.18441891223631      5.76834374803847
  C   -0.14468481058766      3.80183576169787      6.60954513241795
  H   -0.02476478914055      4.89292485395361      6.66961672931364
  H   -0.13933565028512      3.34898147423508      7.60849883722570
  H   -1.11467069654878      3.59536693287335      6.12771945150907
  O   1.51717462275088      2.15872708334067      5.97971248664110
  H   -4.41620347179472     -2.14185488315747      2.64203976066579
  H   -0.49850422611388     -1.61860597635362      0.93215792940525
  N   -2.72367756225062     -3.17385058559874      0.91237039175212
  O   -3.75552235170100     -3.80310090595092      1.07255942683051
  O   -1.82804913213525     -3.47670664537661      0.14138347702939
