84
Coordinates from ORCA-job 789_0.0
  C   -0.48579920973868      1.43719738674659      1.80045732658853
  C   -1.56580564895801      0.51384904476936      1.95609946166700
  C   -1.68202557609705     -0.55962371161739      1.07741235430787
  C   -0.76417062068656     -0.70337792097195     -0.00840706170642
  C   0.28072682708152      0.26444939225069     -0.17664041420408
  C   0.40705881388736      1.32507028338476      0.75123495159113
  H   1.19224887817230      2.07425158691498      0.68746648838592
  H   -2.88902053912236     -0.39666287657053      7.39673355593444
  C   -3.59787940013899      0.25284726323529      6.88322219287803
  C   -4.30323503453737      1.24282196069318      7.58563470650181
  H   -4.12850220903324      1.35748540872512      8.65860297844957
  C   -5.21757445942517      2.08065144368705      6.94077243694140
  C   -5.45365656973349      1.93896101939297      5.56269706670817
  H   -6.17268544178290      2.59099632493735      5.05906436260523
  C   -4.76302280847544      0.96019841163389      4.85843482750695
  C   -3.84067330080380      0.12947736323452      5.51470000813341
  N   -2.69387878954377     -1.50072856648871      1.24443958873642
  C   -3.50080580118780     -1.37609242072407      2.23116792938773
  C   -3.50285117881600     -0.27738185999937      3.27364411474936
  O   -2.43784350537062      0.72943828350512      2.92717248981942
  C   -4.85606657664819      0.53466901590250      3.39876460993703
  N   -3.25160914179050     -0.75846352756067      4.58769090792436
  C   -6.07569890332562     -0.40281190027925      3.22949667935160
  H   -6.01350861501108     -1.27915300337216      3.89198180558953
  H   -6.18930630384531     -0.74773724260258      2.18863705986980
  H   -6.98868382106110      0.14849479882856      3.49795696459914
  C   -4.95509052389588      1.69099841036317      2.39721251538437
  H   -4.15264559581107      2.42759937141007      2.53392245499325
  H   -5.91798903092388      2.20823446244393      2.52843903511195
  H   -4.92438885569386      1.32371236662123      1.35782766363044
  C   -2.07096799870849     -1.56081316760937      4.90942961449031
  O   -0.38144482949609      2.49184397912627      2.65574525449766
  C   -0.17459789074660      2.22908211962218      4.01451070334930
  C   -0.38587403775177      3.46911207204109      4.82551630346624
  H   -1.47121990705826      3.63532810741966      4.92793480130572
  H   0.04148064444022      4.34822417479817      4.32297209304685
  H   0.05116465844811      3.33382197483751      5.82216208568142
  O   0.12842882579545      1.13783828684937      4.39619834842673
  C   -2.32844796445058     -2.67142091118744      5.91126871802158
  H   -1.25390126076054     -0.90949229663221      5.26860126127408
  H   -1.71726504394381     -2.00117725833231      3.96084602023515
  H   -5.75287871620337      2.84495525503387      7.50887803479690
  H   -4.26529955710133     -2.15015916563993      2.36517190414982
  C   -0.86599152473822     -1.77435818503285     -0.92321670195606
  N   1.14823391287089      0.12190789546299     -1.25208996163908
  C   1.03141531857185     -0.90425461620601     -2.10669663844368
  C   0.03487998513744     -1.87340566328351     -1.96864278681676
  H   1.75923468656120     -0.93580727873211     -2.91722532964638
  H   -1.66476686888453     -2.50355956672618     -0.77529537778378
  H   -0.01297085212821     -2.68796519906963     -2.69255908877040
  C   -1.41008804221632     -2.93132295733079      6.93406235800257
  C   -3.46261459822511     -3.49765615675409      5.82251548063765
  C   -3.66880092939653     -4.53747590218994      6.72106460555868
  C   -2.73822637594313     -4.79206459937926      7.74842714422716
  C   -1.59756107811797     -3.97823775921531      7.84473737419411
  H   -4.20546854706771     -3.31484613437006      5.04129721512084
  H   -4.55332083912867     -5.17501209451687      6.65835147264691
  H   -0.85276558499831     -4.14162609465827      8.62386504128941
  H   -0.51822778515349     -2.30413862468445      7.03204270271392
  O   -3.04509402148765     -5.81261367209474      8.58081375099703
  C   -2.16622521691552     -6.20136744511209      9.63408549570522
  C   -1.02939900915204     -7.09449575558264      9.15434630990525
  H   -2.80729890760254     -6.74945851290440     10.34092281752313
  H   -1.78726709781685     -5.31028250681440     10.16569835279154
  H   -1.43006348587673     -7.98391169083420      8.64372918657160
  H   -0.42785203024929     -7.43235480538147     10.01363703780797
  H   -0.35928230544149     -6.57127381844708      8.45474793506469
  C   2.23486316882339      1.15379783636679     -1.44130178856777
  C   3.08439225102457      0.98041101195636     -2.66969892799396
  H   2.85482427841767      1.11655467439840     -0.53353084377131
  H   1.72447361465978      2.12715404429255     -1.46360909035383
  C   4.29093563673497      0.26519530919339     -2.61477517454460
  C   2.69750041493935      1.55225740868016     -3.89435967350293
  C   5.08393522115866      0.12050286669987     -3.75546385907756
  C   4.70209202862388      0.68585656097995     -4.98334763309896
  C   3.49228999164807      1.40299968844507     -5.02990388068619
  H   4.62183242684375     -0.17838167619552     -1.67055165274946
  H   6.02213008098270     -0.43686629750230     -3.68817432945709
  H   1.76818900335222      2.12677612610924     -3.95997833792033
  H   3.17352183384187      1.85965847770381     -5.97113300701457
  C   5.56985890636188      0.56062627869151     -6.20943183059897
  H   6.32262689809693     -0.23313651838967     -6.09747445957958
  H   6.10841054637212      1.50469393474951     -6.40235662370880
  H   4.96897091537091      0.34437767885776     -7.10668148719116
