55
Coordinates from ORCA-job 78_0.0
  C   -0.57442545144661      1.14525216654512      1.92468681993486
  C   -1.67055956295209      0.26944064915676      2.00698923501972
  C   -1.71887909365660     -0.86580221966800      1.17502411366289
  C   -0.68725722406745     -1.08303669771744      0.24488573815493
  H   -0.73343492650508     -1.96490651717690     -0.40027904225875
  C   0.38110823736889     -0.19284960215754      0.14748550099934
  C   0.43932273472048      0.92017434026523      0.99722363639483
  H   1.27053901831267      1.62722776145172      0.95274596155029
  H   -3.09100535666829     -0.13057771746923      7.40200598591257
  C   -3.79006097869874      0.48720987771405      6.83402795869979
  C   -4.45906957148271      1.55818575886916      7.44851268217772
  H   -4.27146499637299      1.76072670734808      8.50674451026662
  C   -5.34727768619739      2.36851973370598      6.73560461082693
  C   -5.59195825159669      2.11471662392461      5.37395710538789
  H   -6.28608614233700      2.74880192999884      4.81445166792736
  C   -4.94098369776272      1.05618420088125      4.75345278301912
  C   -4.04541192840563      0.25140755366305      5.47960360593077
  C   -2.84997301204257     -1.76034682804783      1.37016671078700
  C   -3.76595379217950     -1.53845686210893      2.33113790104531
  C   -3.71889332016830     -0.35576373596911      3.26050871796060
  O   -2.65512590979562      0.57417454422977      2.87330477724167
  C   -5.04808607418319      0.51175164724545      3.33545370510007
  N   -3.49918957751870     -0.73638419315440      4.64486446285300
  C   -6.30238643202072     -0.38807081143716      3.24796808713970
  H   -6.26084855018641     -1.21249342018931      3.97608882892740
  H   -6.43035586936915     -0.81184910281524      2.23881241107509
  H   -7.19557170509473      0.21297683798039      3.47631763949850
  C   -5.10802912747775      1.58373740099822      2.24185652858184
  H   -4.28093138294663      2.30018314608340      2.32758006289860
  H   -6.05796854761058      2.13741189988141      2.31224295090473
  H   -5.06626061327441      1.12388469317847      1.24072345884649
  C   -2.32874424609959     -1.49983054255048      5.04487997719476
  O   -0.53776904663406      2.26965151012203      2.73359515053146
  C   -0.38721739692203      2.09321694548938      4.08541731471890
  C   -0.59043882662108      3.39470721669562      4.81203408896511
  H   -1.67416200316408      3.58121326711717      4.89152272637950
  H   -0.14500188847787      4.23231201319931      4.25686249614312
  H   -0.16829707983300      3.32166169250596      5.82186345497151
  O   -0.14143809623566      1.02992443249692      4.58603075084006
  C   -2.72560904364024     -2.72426245194009      5.87578823273880
  H   -1.62988399299029     -0.86302136090332      5.61253062849103
  H   -1.79134572570161     -1.83232010820324      4.14547831643701
  O   -1.56463912592790     -3.39066256196166      6.39192039941552
  H   -3.24252811007921     -3.46665258502135      5.25095746612212
  H   -3.38413314861746     -2.43340673357755      6.70657035476842
  C   -1.04721083362874     -2.92247657367161      7.54808683727773
  C   0.18787597635565     -3.69500153663346      7.94006269523085
  H   -0.01350451234064     -4.77656274773633      7.91872635984727
  H   0.51591510873837     -3.38334206732636      8.93908631755345
  H   0.98878693175366     -3.49724015655554      7.20959439838911
  O   -1.52106083285530     -2.00187988765783      8.16943254846678
  H   -5.85158041313441      3.19993488719832      7.23455569355222
  H   1.17753247395670     -0.36418045724259     -0.58004253879348
  H   -2.92838152811386     -2.64517414210193      0.73121856886258
  H   -4.58114584817108     -2.24378781695120      2.49464864542906
