56
Coordinates from ORCA-job 79-2_0.0
  C   -0.61819392886588      1.15600809256918      1.90683873403221
  C   -1.73067029846219      0.30076645648161      1.97912531705823
  C   -1.76406184733397     -0.84822576591318      1.17204101152979
  C   -0.70431796630070     -1.11091287003804      0.28372696637844
  H   -0.74075455059481     -2.00964957589253     -0.34072669285970
  C   0.38519940282935     -0.24081949075251      0.20321073558547
  C   0.42629464865831      0.89708057433165      1.02651096287971
  H   1.27922297175395      1.57523065153016      0.97843207105010
  H   -3.01486751221445     -0.13045382025845      7.34819514106187
  C   -3.73636627211912      0.48980419127183      6.81191598710053
  C   -4.39145875983297      1.54806553475790      7.46211097776655
  H   -4.16957585718348      1.73844938503719      8.51597774093781
  C   -5.30863264928010      2.36116787357599      6.79007973785381
  C   -5.59764068608526      2.12251901727385      5.43435103041219
  H   -6.31490726700864      2.75790692927431      4.90637789573180
  C   -4.96063538091417      1.07660791341912      4.77896140739602
  C   -4.03489032143745      0.26966555280423      5.46360500804316
  C   -2.91734582458592     -1.71968160897168      1.34086189427899
  C   -3.84622899787191     -1.47775308877930      2.28508539401320
  C   -3.77818005978219     -0.30308951149640      3.22505354576474
  O   -2.74865493055676      0.64183789076790      2.80112571085003
  C   -5.11327147509892      0.54810103691183      3.35893066093190
  N   -3.50930520571814     -0.70173354319698      4.59779832954821
  C   -6.36095477654635     -0.36400516005997      3.30939774386956
  H   -6.27926164370909     -1.19990850507117      4.02080736288664
  H   -6.52909168728368     -0.77194582683087      2.29952849205974
  H   -7.24946842441599      0.22313774204302      3.58673413191146
  C   -5.22685059597992      1.63304966485969      2.28252934433492
  H   -4.40305585019620      2.35543950445883      2.34447072779353
  H   -6.17840619137372      2.17626432612334      2.39870979585610
  H   -5.22033885189353      1.18670521256521      1.27453905642605
  C   -2.32639188233738     -1.46761517990093      4.95398545120259
  O   -0.58979342101676      2.30357584583226      2.68090544951479
  C   -0.47181869370513      2.16841569163600      4.04095613562922
  C   -0.68592983083964      3.49234195425357      4.72216522839277
  H   -1.77082311916218      3.68044038654458      4.77816470631265
  H   -0.23090215690936      4.31180786674883      4.14816258511465
  H   -0.28073256841446      3.45088583004120      5.74067214946446
  O   -0.24094358135694      1.12068856208715      4.57940048205843
  C   -2.69719284365572     -2.70717770175023      5.77425524303811
  H   -1.61565775492625     -0.83701558889747      5.51338260449522
  H   -1.81113854796335     -1.78378171207788      4.03630600419101
  O   -1.52038940040788     -3.38105116871284      6.24356413934919
  H   -3.23173879121721     -3.43899037066094      5.15168209187127
  H   -3.33065219070273     -2.43263512746811      6.62975170116867
  C   -0.97392622616768     -2.93794200981230      7.39635103389748
  C   0.26712445194693     -3.72265834738199      7.74304207548657
  H   0.05189439207864     -4.80189469203990      7.73189369495984
  H   0.63441358702734     -3.41426830951356      8.72928815092898
  H   1.04271290892085     -3.53652494507683      6.98303395450833
  O   -1.43076121508684     -2.03050386797041      8.04882292265625
  H   -5.80113496127492      3.18270805321443      7.31642146642501
  O   1.43721361950490     -0.44181693165515     -0.63786497481504
  H   1.29401169298782     -1.25223217141921     -1.14361657061139
  H   -3.00448237643975     -2.60122322293250      0.69845741551794
  H   -4.67982030147825     -2.16535162588352      2.42962063675966
