55
Coordinates from ORCA-job 79-_0.0
  C   -9.91018290521705      9.36410059788715     -7.76115191799008
  C   -9.77469149447306     10.13408926348616     -6.59428205475256
  C   -8.50365795989554     10.62120966055500     -6.23407448776819
  C   -7.39293221071971     10.34549259870528     -7.04804726903506
  H   -6.40974821375312     10.72454590936651     -6.76262321007008
  C   -7.55089189058488      9.59027062090124     -8.20807832726643
  C   -8.80708738390570      9.09487327527214     -8.57020712971871
  H   -8.94698572450646      8.49783538983438     -9.47179223459902
  H   -12.45693587102803      9.61317039307932     -0.98291626107462
  C   -12.69316864717199     10.58184155906567     -1.42746645115301
  C   -13.48769782872412     11.50676721873691     -0.73056086398914
  H   -13.86477315071298     11.24043842693381      0.26082754001056
  C   -13.79134536506024     12.75693892630842     -1.27333107504476
  C   -13.31370790088232     13.10034984304341     -2.55201080445035
  H   -13.56474498524919     14.07217286915954     -2.98695510990958
  C   -12.52866336076713     12.19694236635932     -3.25422160430128
  C   -12.21348909323084     10.94282510809233     -2.69144899198756
  C   -8.42011052412549     11.37787145374404     -4.99255594054100
  C   -9.51984130631851     11.60353787879372     -4.25627909507000
  C   -10.89521150343491     11.09321638139836     -4.62218005627525
  O   -10.88662373280845     10.36103831027302     -5.85538452516550
  C   -11.99048066973162     12.24730594817781     -4.67865813566145
  N   -11.41286649574904     10.21177214534592     -3.56278991948919
  C   -13.13263977480731     11.85061776930390     -5.64252128430714
  H   -13.51990607007272     10.84818269660824     -5.40732486845013
  H   -12.79914807279519     11.85949529264900     -6.68961489316888
  H   -13.95857647281364     12.56959768092131     -5.52855332118366
  C   -11.41600655855453     13.60329502924703     -5.10524347034278
  H   -10.66682386637310     13.98925382565715     -4.39906394882805
  H   -12.22474875027559     14.34827145864373     -5.17236134437187
  H   -10.95028167289161     13.53389279230736     -6.10130503209865
  O   -11.13318791136610      8.80690540069496     -8.09037453499888
  C   -12.12158224769094      9.62201724854730     -8.58055998228168
  C   -13.39211682748088      8.83830548198080     -8.77024509904934
  H   -13.19226078063608      7.90719339959570     -9.32101130990288
  H   -14.12721076239911      9.45285993214152     -9.30362879476026
  H   -13.79068616808800      8.55634459805901     -7.78247869625410
  O   -11.95797628000775     10.78877077283634     -8.80683630615143
  C   -10.87012262434861      8.90497152492613     -3.27254135846501
  H   -7.44207824082819     11.74531345011438     -4.66889453505765
  H   -9.46834916949993     12.15770686065861     -3.31598134694411
  H   -14.39986576207494     13.46721618635434     -0.70863560989773
  C   -9.71203502098256      8.88743377456776     -2.27021286781932
  H   -10.55364117989763      8.43933406370457     -4.21853984460935
  H   -11.67953079980353      8.26867298853391     -2.87456949985740
  O   -9.43296446356515      7.50957393572196     -1.99015055627388
  H   -9.97696284142321      9.40907556295139     -1.33653557197289
  H   -8.81095534543346      9.37399901747222     -2.67202558101900
  C   -8.43673402603884      7.25992255369682     -1.11169237525816
  C   -8.24467294911241      5.77577562512097     -0.91585126166734
  H   -9.18253691970021      5.31662804056191     -0.56652267424547
  H   -7.44502302325015      5.60204937066582     -0.18568520432511
  H   -7.98777962218675      5.30034828191527     -1.87543777511934
  O   -7.80197426173964      8.13092684906513     -0.57180433030906
  Br  -6.04235331581120      9.22637239025548     -9.31777879570692
