66
Coordinates from ORCA-job 791_0.0
  C   -7.44385629659109     -3.17383082994239      5.03551345305284
  C   -6.97309979040887     -1.83050623431744      4.82101869063088
  C   -6.52143373397174     -1.40680087260772      3.59164469892239
  C   -6.54866062766556     -2.29900365973532      2.45235538201123
  C   -7.03674584201753     -3.63102084191494      2.61119036818775
  C   -7.47874615752323     -4.07718621015694      3.92997820185722
  H   -5.43022697268326      1.47534015806914      9.61057875543114
  C   -6.44768414252958      1.60163737494226      9.23569648194560
  C   -7.46738755944468      2.05076982702268     10.08990659230471
  H   -7.22623315434719      2.27372209902139     11.13290309418920
  C   -8.77876835764944      2.20539240523228      9.63411165273012
  C   -9.09371434016931      1.92185184555003      8.29307020902963
  H   -10.11796247428551      2.05285905299598      7.93212495815476
  C   -8.09350232397542      1.48138440403461      7.43660602090310
  C   -6.77947733216199      1.31434987463095      7.90861754192904
  N   -5.97034765116034     -0.12950510689652      3.45273083787357
  C   -6.04224654789702      0.69008342664742      4.42755336749996
  C   -6.74115657913784      0.42720953697296      5.75183991197405
  O   -6.95091876437011     -1.01049220868921      5.90063934978837
  C   -8.12160789618451      1.19734721364034      5.94054508263623
  N   -5.94990575604414      0.86973560494591      6.87386954791027
  C   -9.32755335172302      0.36551014151765      5.48478717637773
  H   -9.41178529202745     -0.57421782583746      6.04603726733192
  H   -9.26785717637343      0.12841761455077      4.41062850542227
  H   -10.25393346699769      0.94039756851179      5.64178678836273
  C   -8.10165383312588      2.54253566845952      5.17767301107379
  H   -7.23539871426027      3.15982849050088      5.46063512253796
  H   -9.00975880092268      3.11366113461429      5.42370559488041
  H   -8.08268062834976      2.39030602716121      4.08631184066627
  C   -4.57927906664559      0.44635729200734      7.07661902598918
  C   -7.05951901631260     -4.47044563034989      1.47045388173419
  H   -9.55972284362054      2.54704951852242     10.31758599206526
  C   -4.41977086106965     -0.89608651858958      7.79610175748143
  H   -4.04907233562139      1.22055970895482      7.65675981142331
  H   -4.07590919552260      0.39419765699405      6.09803128137922
  O   -3.01289845751966     -1.07022169429556      8.00966424383811
  H   -4.81570477216460     -1.73038778453302      7.19912322934856
  H   -4.94836793735070     -0.90686629735382      8.76222401085953
  C   -2.63258626153422     -2.17771236809663      8.68496068733815
  C   -1.12963445782292     -2.24938477950251      8.80694266174303
  H   -0.68118895145562     -2.35775301741228      7.80650033639224
  H   -0.85223575587953     -3.10701611025668      9.43164799638202
  H   -0.73628687274256     -1.31721871564722      9.24042496479254
  O   -3.41428631459010     -2.98740939976064      9.11551265372180
  C   -6.61541927225738     -4.02549594048951      0.23521486704384
  H   -7.43285932663069     -5.49197702574196      1.55506857070731
  C   -6.12463576599058     -2.71282184381629      0.09171091203192
  H   -6.64538565005188     -4.69711647873568     -0.62674478738503
  C   -6.09246209429955     -1.86409738669238      1.18508468576830
  H   -5.71502211554889     -0.84425792246389      1.09928033241720
  H   -5.56573591727480      1.67421673339876      4.32737713547017
  H   -5.77008539012758     -2.36439219572023     -0.88214027913025
  C   -7.86873181969290     -3.59249723812441      6.31621846602229
  C   -8.31827167405133     -4.88621656919476      6.51621550797832
  C   -8.35834287378975     -5.80117963150086      5.44367037913582
  C   -7.94644240697834     -5.38799672449132      4.18637634615399
  H   -8.71788232918549     -6.51770964943077     10.07946623806177
  O   -8.64321905693145     -5.21254862493277      7.82341928710488
  C   -9.61140843519020     -6.11126085395422      8.16847599095540
  O   -10.28737915250083     -6.71816359240338      7.38229549998194
  C   -9.69374749771356     -6.21249836892471      9.67057869460631
  H   -10.46515509045597     -6.94133614004174      9.94678406250736
  H   -9.93078011842125     -5.22706551878011     10.10094976273340
  H   -7.83437421069520     -2.89849054816863      7.15572395966589
  H   -7.98674433311357     -6.11527417491624      3.37490962539030
  H   -8.71833880524754     -6.81575784447972      5.59869270267483
