66
Coordinates from ORCA-job 792_0.0
  C   -7.54149475338863     -3.15713621089276      5.21034856834501
  C   -7.04053335294703     -1.83563948094544      4.94143247331027
  C   -6.60805795168968     -1.46279270898576      3.68790608050438
  C   -6.68326212425830     -2.39182564085110      2.58122430466607
  C   -7.20041586560648     -3.70491015615816      2.79384490207107
  C   -7.62828354366193     -4.09415968423214      4.13560173862721
  H   -5.28153689671295      1.58746985873444      9.57436049915867
  C   -6.30581811982560      1.72629322561972      9.22305416792494
  C   -7.29010206450491      2.22802786408960     10.08948132702571
  H   -7.01422013151791      2.47927427241487     11.11731764358942
  C   -8.60997844789307      2.39901564799204      9.66536612968022
  C   -8.96952186170842      2.07926759137681      8.34388151062531
  H   -10.00045628057297      2.22242787504593      8.00750522640175
  C   -8.00431727758068      1.58745501665734      7.47529641164350
  C   -6.68188884460044      1.40330774712291      7.91626966013385
  N   -6.03062738696741     -0.20554819449247      3.49219548344648
  C   -6.05766200118114      0.64797826325628      4.43997480680666
  C   -6.72634661798814      0.44547388910411      5.78969339705099
  O   -6.96995555937064     -0.98134375475892      5.99147549460550
  C   -8.08141874548925      1.25650620869189      5.99061346316046
  N   -5.89339857375349      0.90373417205655      6.87424595473745
  C   -9.31974754988570      0.44202527318387      5.59415316521599
  H   -9.41433439808290     -0.47452824676491      6.19086952618245
  H   -9.29218984288514      0.16540368794273      4.52814947697351
  H   -10.22674255791442      1.04681553929116      5.75191026599670
  C   -8.04869343235274      2.57639753133250      5.18513610597529
  H   -7.16022505537754      3.17953783891244      5.42675780302507
  H   -8.93547925330124      3.17760342227386      5.43695348065169
  H   -8.06235019565916      2.39011139621223      4.09897338215359
  C   -4.52723545571652      0.45616535112008      7.05225141691782
  C   -7.26729749808367     -4.58279467950227      1.68455925460535
  H   -9.36307804382025      2.78092911818477     10.35868913821594
  C   -4.37726196797566     -0.86821160147748      7.80615283201931
  H   -3.96477617813834      1.23499890225642      7.59456057845300
  H   -4.05208713549117      0.36387053564718      6.06255392854919
  O   -2.96938245168415     -1.06474794711512      7.99287651713461
  H   -4.80394649746522     -1.71132293489958      7.24388118637621
  H   -4.88280477987319     -0.83994573037778      8.78446769867714
  C   -2.59390092122315     -2.18416003549472      8.65090105179324
  C   -1.09028797525943     -2.27890970346309      8.74716755572453
  H   -0.66153133103708     -2.39834860162758      7.73928618232706
  H   -0.81569414968926     -3.13926677250626      9.36938728360773
  H   -0.67427801949792     -1.35181533722834      9.17006200355325
  O   -3.37986757418462     -2.98729424696659      9.08591494446983
  C   -6.83944844265864     -4.19183425673211      0.42575391269792
  H   -7.66127637714250     -5.59183348891082      1.81392804026782
  C   -6.32102023467283     -2.89688419292047      0.22776556410491
  H   -6.90322371187510     -4.89148867470223     -0.41168636258649
  C   -6.24436587476714     -2.01233887119107      1.28997093047500
  H   -5.84372094014278     -1.00602878462388      1.16094835187995
  H   -5.56193193974983      1.61674628783625      4.29426434250458
  H   -5.97918558858958     -2.59048604362745     -0.76462423861953
  C   -7.95027933900316     -3.53528727570905      6.51197598625178
  C   -8.43843330904287     -4.80223590320639      6.77715450213003
  C   -8.52874992984438     -5.72417332286038      5.71452662455203
  C   -8.13425514712940     -5.37920728127190      4.43103044790880
  H   -7.87182801632379     -2.80401844544626      7.31743605403677
  H   -8.22145936962697     -6.14263170308666      3.65875275058048
  H   -10.31519415647139     -9.23460474436192      5.64174873453766
  H   -10.95694480659157     -9.19889975126223      7.32629056943312
  O   -8.93802179136883     -7.03931178069801      5.87982381499124
  C   -9.95015168370137     -7.41031165705090      6.72152824834190
  C   -10.12406324930045     -8.90725608050888      6.67532159520287
  O   -10.59215585463707     -6.64473159559476      7.38676853996004
  H   -9.19611651792807     -9.40015883584058      7.00580084326392
  H   -8.75438505361437     -5.07849215800951      7.78099672597143
