67
Coordinates from ORCA-job 802_0.0
  C   -4.53382277359665      0.42192703395378      2.24197794423965
  C   -4.89900140319758     -0.01257965194856      3.52854268868818
  C   -4.81499884510239     -1.37862288802540      3.86570770405133
  C   -4.36983267724995     -2.29715329526139      2.90533052859925
  C   -4.01068149059688     -1.84557835497575      1.63580292341115
  C   -4.09335612195678     -0.49205138686115      1.29068720930029
  H   -3.50635705645819      2.52683201006565      8.90589575399937
  C   -4.59146575449678      2.49403802808333      8.81004906670818
  C   -5.40056631600465      3.00272506581693      9.82902493200347
  C   -6.78863928570330      2.93510551977253      9.79074901457836
  C   -7.39965945481515      2.36604090237149      8.65769836207648
  C   -6.64331149020062      1.87060008469067      7.59160008848067
  C   -5.22687192288074      1.93248327097023      7.69625849117663
  C   -5.21418429368664     -1.74525397147830      5.21753308582036
  C   -5.59983407983716     -0.80447029459061      6.09465764506145
  C   -5.61335754425334      0.67273665656879      5.77389136158695
  O   -5.35367685299628      0.92105795175238      4.39036749323882
  C   -6.97284131853675      1.39375701560669      6.16948044514377
  N   -4.62006871079180      1.38701096582901      6.58759153324545
  C   -8.17294950393978      0.46346517873713      5.95442979412319
  H   -8.20638356920719     -0.36954867047677      6.66762600294196
  H   -8.12488567696685      0.05025008247019      4.93416287585546
  H   -9.11832541850447      1.01141942439854      6.04759405469947
  C   -7.15381603713355      2.66740520426954      5.30270488913590
  H   -6.26710619129948      3.31734655108911      5.34195423380582
  H   -8.02184435915188      3.22720557762427      5.67414108805260
  H   -7.33234337731234      2.39241613025140      4.25371164901399
  C   -3.18403029994828      1.27018175726166      6.41415604974464
  H   -5.18040003003279     -2.79967641912732      5.50473959613134
  H   -5.88468210654411     -1.06665133632275      7.11635364312851
  H   -3.83570838759126     -0.14918499977846      0.28769184668986
  O   -4.67733133980033      1.75068043121441      1.89186735870810
  C   -3.85162924157297      2.68084536500764      2.47346855554200
  S   -3.42440020815223     -3.01792841524486      0.42338661601420
  O   -3.53684230373118     -2.41815363521554     -0.90527849009932
  O   -3.96355179419082     -4.32684316997263      0.74746390395745
  O   -2.95851246422266      2.38751169263921      3.21952369059168
  C   -4.24025610924409      4.06632671795231      2.03718435265737
  H   -4.31553802959952     -3.36115342346188      3.14420516820876
  H   -4.31889285532686      4.11527840799644      0.94084734790734
  H   -3.50105351508819      4.78858746897674      2.40350035047187
  H   -5.23382485741249      4.30885915507795      2.44689430505648
  C   -2.53794508269815      0.12321910202056      7.19514103524048
  H   -2.72070681086056      2.21934379135590      6.73044663211959
  H   -2.96349318122517      1.18179420118697      5.34064591148239
  O   -1.12480115122960      0.27573292751119      7.04100152460106
  H   -2.85193659828885     -0.86087865047026      6.81877321587327
  H   -2.79933547785253      0.15924314683451      8.26644679021746
  O   -0.81120103539483     -1.71634147384462      8.03585522955325
  C   -0.35320606268427     -0.73329707002975      7.51148164465021
  C   1.11029265394615     -0.44757901567775      7.28542214065600
  H   1.39213214232020      0.49057807249625      7.78842184721777
  H   1.30456471595148     -0.31108131353601      6.21015771304987
  H   1.71102838712427     -1.27827183426001      7.67465306959679
  H   -7.39094245921276      3.29885379674549     10.62267860220894
  S   -9.19505566313006      2.24440393255602      8.78193167313449
  S   -4.61597429636217      3.75676438115636     11.25106699786332
  O   -9.63349357896278      3.02030036242395      9.93794544190959
  O   -9.70861622806892      3.07006850569784      7.44888939122138
  H   -9.97088287009529      3.95830332405660      7.74953541679779
  O   -9.60158632852382      0.86391835967805      8.58892958633230
  O   -5.56585794550295      3.77096982213251     12.34803982047243
  O   -3.25889232475739      3.22669861517434     11.38545055644174
  O   -4.45330844002365      5.31092382062180     10.73780965815569
  H   -3.49932303486513      5.48244245791736     10.65282513866093
  O   -1.81953996681605     -3.10039887754563      0.76837152586593
  H   -1.34985429445171     -2.56143412190841      0.10878428292825
