86
	Energy:      74.2013636
C         -3.03693        0.32689        1.98686
C         -3.89818        0.24638        3.09587
C         -4.74314       -0.85746        3.25547
C         -4.71407       -1.89576        2.31922
C         -3.85385       -1.82948        1.22443
C         -3.02541       -0.72110        1.05431
H         -2.89310        0.89214        9.12773
C         -3.57730        1.64115        8.75435
C         -4.11921        2.50920        9.70934
H         -3.77054        2.39929       10.73102
C         -5.08497        3.44989        9.35206
C         -5.49256        3.53364        8.01950
H         -6.23269        4.27201        7.72826
C         -4.93663        2.66395        7.07962
C         -3.97402        1.71102        7.42767
C         -5.64480       -0.92429        4.39148
C         -5.54651        0.03464        5.31529
C         -4.54914        1.18012        5.24486
O         -3.84942        1.28398        3.98889
C         -5.17789        2.60757        5.58698
N         -3.61445        0.88828        6.36287
C         -6.65600        2.75168        5.20156
H         -7.30163        2.06668        5.76131
H         -6.79964        2.56446        4.13171
H         -7.02376        3.76368        5.40940
C         -4.38679        3.76922        4.94447
H         -3.31091        3.69062        5.14211
H         -4.71458        4.73965        5.33722
H         -4.53047        3.79448        3.85982
C         -2.28160        0.33410        6.09317
H         -6.34283       -1.74669        4.49043
H         -6.17265       -0.01816        6.20139
H         -2.36563       -0.68232        0.18996
C         -2.14218        1.52310        1.77686
O         -5.69630        4.31970       10.21433
C         -2.89019        2.70607        1.16794
H         -5.35516       -2.76600        2.43781
C         -5.33009        4.21112       11.59152
C         -6.16932        5.19075       12.38909
H         -4.27002        4.46048       11.71982
H         -5.52587        3.19825       11.96407
H         -6.02254        6.21186       12.02352
H         -5.90606        5.15221       13.45013
H         -7.23399        4.95956       12.28133
C         -1.66129       -0.30366        7.32761
H         -1.61865        1.11772        5.70542
H         -2.34146       -0.43202        5.31252
O         -0.57357       -1.20206        7.09570
H         -2.44051       -0.87082        7.85328
H         -1.27781        0.51473        7.94586
O         -0.45158       -1.17625        9.39091
C         -0.06442       -1.59862        8.30611
C          1.00728       -2.64517        8.14677
C          1.56981       -3.04920        9.51603
C          2.49996       -1.98039       10.10196
H          2.12491       -3.98869        9.41484
H          0.74498       -3.24614       10.21367
O         -1.97464        3.80746        1.06286
H         -3.74382        2.98755        1.79400
H         -3.25576        2.45069        0.16599
C         -2.55421        4.99443        0.72698
O         -3.74519        5.15627        0.49972
C         -1.48854        6.06239        0.63529
C         -2.05848        7.47907        0.57458
C         -2.60266        7.94860        1.92595
H         -2.84659        7.53978       -0.18564
H         -1.25876        8.16068        0.25944
H          1.80179       -2.26540        7.49740
H          0.54416       -3.52130        7.67999
C          2.84893       -2.27667       11.55194
H          2.03897       -0.98769       10.05407
H          3.41885       -1.93248        9.50690
H          1.95182       -2.25827       12.18005
H          3.54257       -1.52189       11.93575
H          3.32017       -3.25878       11.65240
H         -0.91606        5.86724       -0.27859
H         -0.81418        5.97039        1.49416
C         -3.14291        9.36787        1.84205
H         -1.80670        7.91284        2.67898
H         -3.40207        7.28238        2.26845
H         -2.36050       10.06825        1.53253
H         -3.51893        9.68901        2.81844
H         -3.96582        9.43200        1.12299
H         -1.67744        1.81695        2.72699
H         -1.29490        1.25582        1.13181
H         -3.83106       -2.64194        0.50235
