131
Coordinates from ORCA-job 806_0.0
  C   -1.98579279923394      2.88179525711269      2.68437525087781
  C   -2.81698603525607      2.04221537753271      3.45202635161756
  C   -3.52746824465598      0.98042241710894      2.85678303875421
  C   -3.40586272979309      0.77113566681370      1.47332633351498
  C   -2.59685229978036      1.59843653059685      0.69584959119608
  C   -1.89230828659261      2.64191113981873      1.30736421142093
  H   -2.08575299485370      0.01997732891366      9.32524895069551
  C   -2.95067487146770      0.68293438739523      9.24971047531828
  C   -3.68640258515083      1.00472715786018     10.40724865119709
  H   -3.36202260141909      0.58444438355095     11.35959239717291
  C   -4.81318533086824      1.83314688344989     10.33662103536923
  C   -5.21167059983773      2.36518062884532      9.09000215634276
  H   -6.08580052568709      3.02029055536889      9.06223173219870
  C   -4.49012317454328      2.05153623742439      7.95129568880717
  C   -3.36190280527533      1.21273158987086      8.02691663320436
  C   -4.34622554077854      0.15728830449612      3.73446201253101
  C   -4.43775428274848      0.43146105527030      5.04669405056604
  C   -3.69308585467332      1.56061507776541      5.72151872023989
  O   -2.89415926897087      2.30196779748640      4.78059339590749
  C   -4.64637496540655      2.56434953362303      6.52557892261327
  N   -2.80251380936811      1.04065095453589      6.75857209503756
  C   -6.09554874248715      2.55274353905747      6.01814866673405
  H   -6.59051848918348      1.58169341125502      6.16302876817985
  H   -6.14078858460432      2.80518581480324      4.94649033514516
  H   -6.68576791532704      3.30831091932474      6.56066010930559
  C   -4.09541035180822      4.00627935812375      6.45085653716543
  H   -3.03109360963108      4.06399155810965      6.71571831849856
  H   -4.66336996898609      4.63926543805746      7.15036877404749
  H   -4.21164545323885      4.42330897323095      5.43861154740557
  C   -1.66333118498896      0.20004361658818      6.48764126522077
  H   -4.88267907641451     -0.69310401492940      3.30231843170249
  H   -5.04577706701431     -0.18401272678852      5.71395204907271
  H   -1.25222917142996      3.29280475272663      0.70449933295074
  O   -5.59037236427930      2.18290072823993     11.40332293943653
  C   -1.22300948983898      4.00115789253169      3.34089760035936
  H   -3.95875140310657     -0.05381778415555      1.01431935767499
  C   -5.25312760424093      1.71355960702251     12.69468607254986
  C   -6.26713530251998      2.26688923792744     13.67927371058625
  H   -4.22931510192820      2.03953841832378     12.96450911578030
  H   -5.25690267843990      0.60573128280626     12.71236136794923
  H   -6.25490548644896      3.36800831219791     13.67158866769732
  H   -6.03726544326326      1.92246900091597     14.69999348906594
  H   -7.28395312811051      1.93350482460733     13.41902790395543
  C   -1.94565657601153     -1.31125722691684      6.56043835533955
  H   -0.87327416243872      0.43839750557803      7.22025402870135
  H   -1.26458895572461      0.45867140982331      5.49452570905973
  O   -0.72517407013858     -2.06028350268241      6.47211853741817
  H   -2.55396586925435     -1.64160516111803      5.70819843389037
  H   -2.46442464034738     -1.56184074564363      7.49656247324676
  O   -0.38171330572999     -1.81751706715629      8.70985910163217
  C   -0.03499515313026     -2.23910555689293      7.62531237912966
  N   1.09651802527697     -2.96323784307369      7.38508086243451
  C   2.09526057648665     -3.20051275828127      8.40219510783513
  O   -0.12009670333219      3.46909191139980      4.09872454483358
  C   0.04682409439884      3.91264178264470      5.36690304330340
  O   -0.63775233400743      4.75287864049532      5.90935060474879
  H   -2.51010109352394      1.43293358253021     -0.38045710485076
  H   -0.80396959963942      4.67210931985231      2.57459841959229
  H   -1.85446597401912      4.58821582856155      4.02129691437697
  H   1.27858931259859     -3.23145317459301      6.42475651579324
  C   3.37962367611073     -2.39712444283688      8.24426316654971
  H   2.34022141908081     -4.27658792207562      8.44405496209068
  H   1.61950722891965     -2.94726807203924      9.36326738150208
  C   4.51629160972228     -2.76444635187396      8.98504036749139
  C   5.70943767358807     -2.03480374449905      8.91751953715131
  C   5.76006685725067     -0.91111618485070      8.07348751191070
  C   4.64444571527161     -0.54223230223486      7.32389779731451
  C   3.45664425853152     -1.27900813074850      7.40796992892929
  H   4.46739564544049     -3.64747317799793      9.63203436244031
  H   6.67969790467932     -0.32498767534786      8.00131738195980
  H   4.69602156236034      0.33176081212981      6.66795310823366
  H   2.58533237827226     -0.98228557241338      6.81955224089878
  C   6.92662913010122     -2.43949208926971      9.73237632082111
  C   7.36036846462615     -1.40466357812576     10.75951031910331
  H   7.77428535036558     -2.63575622789410      9.05575821262756
  H   6.71394436223506     -3.39313234472247     10.24490488545648
  C   6.45743397940032     -0.94966740919695     11.72998157845566
  C   6.83323693306020      0.00072835211829     12.69079166710945
  C   8.66410947693144     -0.88602356064376     10.76147244509049
  C   9.05277324660497      0.06082389949915     11.71316196944233
  C   8.15193276066413      0.50453823855524     12.68061936168203
  H   5.43157641075819     -1.32694931255854     11.74099663095511
  H   9.38141013121069     -1.21402260157718     10.00517846923779
  H   10.05994333366174      0.48353738758841     11.70863885207761
  N   5.95275570545808      0.46283714501799     13.65997233393384
  O   8.52233708505374      1.50466085029480     13.54889282594712
  C   8.85383265073539      1.29329634513767     14.87138877763358
  C   8.91047762972700     -0.14295683720062     15.33938094818522
  H   7.90138483772221     -0.58292582129780     15.34358552640484
  H   9.31499697778184     -0.15494987827225     16.35857440192831
  H   9.53698357395580     -0.75846854894207     14.67627457038310
  O   9.08962763578600      2.24681221929132     15.55303171777105
  C   4.80821521820560      0.44861449936017     14.03920540537373
  O   3.73099041595916      0.49986406381820     14.49599945566870
  H   10.73224725006609      2.74763616090383      5.72039982194209
  N   8.84457830650317     -0.09396975090659      5.91620931200687
  H   12.47523249930220      3.20107877614089      5.71994725532459
  C   11.68212944976728      2.68284738090958      5.16780039726389
  C   8.78022704404917      0.52299900801667      4.67596329045943
  C   12.10777984417958      1.24530946322473      4.97575297869472
  C   7.53459389744408      0.87860789400784      4.14357620433221
  O   13.17712717187594      0.79911625299461      5.26432597293827
  O   11.16428256061458      0.38052249134389      4.44068383070318
  H   6.64389824321382      0.66208435736010      4.73620505782923
  C   9.95196162734048      0.79538843298329      3.93578780985636
  H   5.51342232480471      0.89923729962269      2.10272918393590
  C   9.55802433299786     -0.69160829819247      6.68304693679266
  C   7.42388310863317      1.49042000697227      2.88760755766711
  C   9.85034650449871      1.39070476217722      2.67940945480676
  C   2.02847394137946      2.36432970900910      5.34102323781735
  C   5.52910114513883      4.06053015599891      3.42315671085080
  C   4.73141852752826      4.86334916852065      4.23716951613313
  C   5.19683180954187      2.71084977325683      3.21218548454796
  C   3.59302893680141      4.33565428104778      4.85927720380770
  C   4.05466654669047      2.19923571180281      3.84049019419371
  C   3.24405890639041      2.99546653926947      4.66819354219760
  C   8.59891516873021      1.74166835235578      2.16387368436667
  C   6.05660290531316      1.83585990996531      2.31573532711880
  H   6.41510840940830      4.48290018132450      2.93992336352392
  H   4.99216277844582      5.91447766530742      4.38833085100067
  H   2.96847983967472      4.97489458050330      5.48737232689036
  H   3.77605736331201      1.15337851427267      3.66860464576731
  H   10.76173221551169      1.56472902250274      2.10237355795309
  H   11.52726877135339      3.18134876576737      4.19896937043091
  O   10.12755321893763     -1.27873233207583      7.52341995353980
  H   8.53929652584757      2.20603035470832      1.17589769552270
  H   6.19985639942627      2.33513033792158      1.34370779736569
  N   1.10116118179478      3.27974811261695      5.97051957322992
  H   2.37579617253750      1.65579303548497      6.11385983497129
  H   1.47867375631570      1.76872407732194      4.59798325684359
  H   1.28077372758487      3.60145045002296      6.91423940405752
