93
Coordinates from ORCA-job 807_0.0
  C   -3.57314792933977      0.35815123734263      2.35870436922690
  C   -4.53680090221160      0.25755976540967      3.38319404786915
  C   -5.39607369460551     -0.86349002107577      3.42839880462838
  C   -5.28352465367586     -1.86071582546495      2.45324172284563
  C   -4.32523347394181     -1.73308401372651      1.45056513173366
  C   -3.46586663526409     -0.63226611455132      1.39128876260609
  H   -4.39478883030931      1.53328879475292      9.46495691923090
  C   -5.13472456496627      2.15886216579329      8.96391024631714
  C   -5.91344880626868      3.04922612723992      9.72055040100456
  H   -5.76557464436561      3.11553968545110     10.79740064279418
  C   -6.86546735013075      3.85642304357442      9.09524681799074
  C   -7.05805607780283      3.79463612217224      7.70461864354008
  H   -7.81477851422138      4.43556236687519      7.24623854927666
  C   -6.29259205204511      2.91281954343694      6.95845124066441
  C   -5.32609441921034      2.09744952079123      7.57977076137409
  C   -6.36897564646485     -0.90055587227888      4.51138034825077
  C   -6.43152200571345      0.09806946672596      5.40619262730430
  C   -5.49139592352525      1.27976260520220      5.41043996067628
  O   -4.60244129961279      1.25917484080916      4.27494205443308
  C   -6.23759943830540      2.68277881193167      5.45608428945043
  N   -4.69402165461825      1.28411550971248      6.64087830492041
  C   -7.60523998282753      2.66422226799285      4.76196468348815
  H   -8.31724867775437      1.98067990798600      5.24628214044197
  H   -7.50625750077742      2.36610323418502      3.70566628792660
  H   -8.04863474902664      3.67254709475700      4.77851425023393
  C   -5.35250406614537      3.77783738282782      4.81817924205403
  H   -4.34069229204573      3.77533465439376      5.24746855763522
  H   -5.80580329538205      4.76264252943587      5.00907776493244
  H   -5.26646736294639      3.63684099750775      3.73059529544048
  C   -3.85570627099157      0.15273696686416      7.02146844999874
  H   -7.04202064052066     -1.75992529719602      4.57786244292004
  H   -7.14950384611925      0.07690308803867      6.22942226016333
  H   -2.72550143853515     -0.55383676148718      0.59649467197543
  O   -2.76887312724842      1.47801795996257      2.26809680549166
  C   -1.74008640022043      1.62725454253177      3.17138348979947
  N   -4.21233053380617     -2.78023135123811      0.42378415936121
  O   -3.36727269004657     -2.63182033284454     -0.44627286694853
  O   -4.97113657399351     -3.73484545154018      0.50390012869064
  O   -1.51495571911571      0.80582924929364      4.01929492596439
  H   -5.93512491169523     -2.73465462649267      2.46480787297296
  C   -2.41395644804122      0.54719640883262      7.34718637686774
  H   -3.85392169160728     -0.56107945164007      6.18442950254438
  H   -4.31415541720681     -0.37559791953158      7.88066780115043
  H   -10.73463343675290      7.40393791610359     12.10941310127223
  H   -11.13813967777965      6.24246239468600     13.42494254905901
  C   -10.33465230327147      6.61988222417940     12.77447135045759
  H   -9.18997899452935      7.85739686992270     14.29604854531834
  O   -6.18336659804944      5.53158368916197     11.22944905515408
  C   -9.07310457163583      7.05058488501488     13.55878799961850
  H   -7.04723557730693      7.32999388286397     12.66863139739234
  C   -7.30875159885800      5.51265388355804     10.80613475479967
  C   -8.10429685494093      7.40015347582698     12.37890655457247
  C   -9.59923833717399      5.48739822686093     12.02649400095952
  H   -10.18227503020781      4.86867637011432     11.33140579515932
  C   -8.62633518502173      5.70378232721150     14.10443869675776
  C   -8.47455625298926      6.34010323588813     11.30605201019391
  O   -7.72605680145947      4.70845717574530      9.78412947899558
  C   -8.93462978277024      4.75764740733774     13.19707913850755
  H   -8.29074470163213      8.41967292898047     12.00599606100742
  H   -8.93106036114137      6.80590218887980     10.41771794775798
  H   -1.90868668948857      0.93734891294208      6.45242389316571
  H   -1.85355748448699     -0.33483312194502      7.69838912837914
  H   -2.37134204692705      1.31144643981019      8.13907707019566
  H   -10.52208935609402      2.56890063304442     12.38657333110710
  H   -9.58899495757151      1.32666713041063     13.25093948031534
  C   -9.86942514928550      2.39251245227766     13.25720113434750
  H   -10.46508282325105      2.58271237701024     14.16460741716897
  C   -8.62168730412610      3.28958689678683     13.21877745652672
  H   -8.05053055958544      5.55958150648800     15.02220297381282
  H   -2.08428559680944      3.01369382670097      0.48745936298297
  H   -0.69522055242899      3.75479370902177     -0.38840877847877
  C   -1.13646627232232      3.55866623823605      0.60022287712294
  H   0.26156543507208      1.89402578372913      1.27595706972966
  C   -0.13263022483855      2.88003039749165      1.55846500344957
  C   -1.24747772735960      4.82898256830635      1.46856625294443
  H   -1.88423735232877      5.64240537186681      1.09206868900113
  H   1.20244033691671      7.06729338622853     -0.19428677956512
  C   0.88854187437712      3.99557687331013      1.71625708237947
  C   -0.93683923682038      2.88384955432866      2.93015165700490
  C   -1.75629802420499      4.20994997510956      2.81377412208410
  C   0.23106758905014      5.17038646941295      1.66959928838481
  C   0.63284734088647      7.47114215495340      0.65817738269410
  H   1.94518272893106      3.84481880482492      1.95138098018599
  C   0.75954641729893      6.55722844032476      1.88777653125035
  H   -0.41620179236042      7.57847029037095      0.33696955736694
  H   1.01761594063545      8.48036929294027      0.87676487683948
  H   -0.22677599866532      2.91381588065045      3.76609973764009
  H   0.21590023180287      7.01996808999159      2.73397848526433
  H   1.81667188326382      6.49771031510710      2.19741781464514
  H   -8.02620051470194      3.02777263882522     12.32457984758998
  H   -7.98087441055741      3.07192045068770     14.08980136416523
  H   -2.83540505180095      4.00722738863383      2.75627104737568
  H   -1.58411243404566      4.87237693702331      3.67474731669677
