59
Coordinates from ORCA-job 809_0.0
  C   2.73388560516064      0.20396347163010      0.65755452624258
  C   3.30256312100111     -1.06769824267958      0.04940298931367
  O   2.31196342600431     -2.12828264852332      0.09457889812823
  C   0.99695190698298     -1.84690767829490     -0.09675084882533
  C   0.47747527922071     -0.58709057743092      0.19875890628248
  C   1.40777606731682      0.41497903751251      0.70368158115014
  C   -0.91825134065517     -0.36350008239536      0.04768592884708
  C   -1.75953249747788     -1.36477298054801     -0.38263037123943
  C   -1.24714586406874     -2.66031612174218     -0.68132957671730
  C   0.15727162147006     -2.91212121502805     -0.53486073899563
  C   0.66113956131202     -4.20848631182753     -0.83537284252677
  C   -0.18540594036141     -5.20733982747550     -1.26149527007188
  H   1.00386871871427      1.33623033255626      1.13440910740097
  H   3.44715675354579      0.93383528072364      1.04613007899103
  C   4.48220030036514     -1.54691178810886      0.91189181932503
  C   4.31773716392427     -2.55391125430483      1.87235540241923
  H   3.34583663265633     -3.03658722023156      1.97926594356421
  C   5.38964327702647     -2.94098215900813      2.68409537766347
  H   5.24631122824970     -3.73377758483136      3.42354907992155
  C   6.63425222721035     -2.31938088364278      2.55593394237596
  H   7.47025699398565     -2.62207493873639      3.19213962138844
  C   6.80251740981347     -1.30668377817582      1.60578245678364
  H   7.77215584264628     -0.81401323028309      1.49368890842900
  C   5.73554061439375     -0.92611689254140      0.78840014104399
  H   5.88422001863430     -0.14442919820084      0.03887258382482
  C   3.72009844490752     -0.89845967525282     -1.42731572184935
  C   3.51984004458740      0.28750926015015     -2.14287172356083
  C   3.88539357271770      0.36484457001951     -3.49191015992962
  H   3.72617218818731      1.29586787078124     -4.04238154460790
  C   4.44404710529901     -0.72878297536333     -4.15447182626630
  C   4.63729727454780     -1.91524318279653     -3.43386107065343
  C   4.28405395973502     -1.99958602160065     -2.08753337964027
  H   4.45044850477843     -2.94125438224558     -1.56130727647029
  H   4.73156962988482     -0.66118227670410     -5.20146858305979
  C   -1.58151563255832     -4.97041446948495     -1.41338414178768
  C   -2.08872067455976     -3.71835424205732     -1.12558226415700
  H   1.73073925805969     -4.39350532350254     -0.72790905248268
  H   -3.15716040607063     -3.52967651467061     -1.24111992130322
  H   -1.31692010763512      0.62707464231770      0.28543040448312
  H   -2.83064514511715     -1.17972752801605     -0.49634998954079
  H   -6.09271076853579     -5.18400975462542     -3.26587840423671
  C   -2.44358613316587     -6.11105624054611     -1.89198468058414
  C   -4.67779948458886     -6.60373524871774     -2.49322174337861
  C   -6.07291953987153     -6.03287908085693     -2.56396588801129
  O   -3.80544641609861     -5.69534156362487     -2.00210809766041
  O   -4.35197271326898     -7.71462299385571     -2.82801183449770
  H   -6.77030555132121     -6.80931016007690     -2.90074058035361
  H   -6.37721288138934     -5.64813801821943     -1.57848735606179
  H   0.21920745050996     -6.19768629655767     -1.49293331693776
  H   -2.09485198693519     -6.48467216234933     -2.87073146174543
  H   -2.37910824931468     -6.96876041200153     -1.19853150280844
  O   6.57635732593978     -2.16968638769978     -5.47320885149948
  H   7.12281298327760     -4.60660231178294     -6.11599268354251
  C   6.06832903171163     -3.13604882419400     -4.97252310047136
  C   6.37048041637416     -4.57263222010880     -5.31885627414276
  H   6.73865781899341     -5.10429712648410     -4.42750109402220
  O   5.12131194944430     -3.09170954110637     -3.99076422503653
  H   5.44955031564088     -5.08216955799873     -5.64286345591852
  H   3.07061028876333      1.15218464082029     -1.65159684298379
