54
Coordinates from ORCA-job 810_0.0
  C   -0.07594259839385      1.20456513166601      3.24921019983723
  C   -1.10760131091047      0.27451795285768      3.04138490674883
  C   -1.18493477119887     -0.41254031974983      1.80913459992240
  C   -0.23147304295355     -0.13042111999885      0.81108698148208
  H   -0.28497317570322     -0.65410368566696     -0.14510422758945
  C   0.78731995620943      0.80134600290177      1.00965387325230
  C   0.85784990148712      1.46215014712042      2.24737132461721
  H   1.64833388283230      2.19713095723636      2.43095111013558
  H   -5.70929892994058     -2.20960552083480      7.03564504389924
  C   -5.93029682023677     -1.28989637038602      6.49069731872609
  C   -6.86082830681913     -0.37061465910681      7.00142600243927
  H   -7.35856915975593     -0.59220355567627      7.94975847837692
  C   -7.14995626586974      0.81993050369791      6.33048369705720
  C   -6.51880780931830      1.10534564902447      5.10580779425610
  H   -6.75876158122926      2.02709930775062      4.56785090337744
  C   -5.60163706490320      0.20290698563357      4.58574310217410
  C   -5.29646196226676     -0.98295196222159      5.28172897102763
  C   -2.20661125241952     -1.43014924805028      1.57733164278389
  C   -3.28109641590677     -1.67750977756770      2.35047652411912
  C   -3.73427016616714     -0.89194796321443      3.55042326633033
  S   -2.21843723773364     -0.06069444101099      4.37789435715827
  C   -4.88209812141617      0.17503910720633      3.24394453537933
  N   -4.34661269059831     -1.72105983143762      4.57544383824870
  C   -5.86492008339077     -0.40280664907537      2.19272941706405
  H   -6.23071460567598     -1.39957543914046      2.48232757739919
  H   -5.39452711695198     -0.47495952831245      1.19954648538093
  H   -6.73788138247441      0.26267454413199      2.11082819236104
  C   -4.37810885941332      1.53482144176479      2.75352815338867
  H   -3.75028793621172      2.03439910096820      3.50288949788349
  H   -5.23551340966686      2.18975181439578      2.52881266478777
  H   -3.79504334289544      1.42658018448006      1.82514182840121
  C   -3.83041517747337     -2.99677865511544      5.02662484349531
  H   -2.06779218707290     -2.04918549649748      0.68513067327226
  H   -3.95834306817755     -2.48552506997764      2.05790677269490
  H   -0.01418674452728      1.73572213295271      4.20269313851582
  C   1.80370061340268      1.10597421328621     -0.06797881970901
  O   1.55189285951870      0.34784807226648     -1.22090111277149
  C   2.45329290087268      0.58782637070690     -2.26747292130974
  H   2.43263702283975      1.64652085282433     -2.59913100977446
  H   2.16278031193780     -0.05048925897662     -3.11484714580138
  H   3.49703066553367      0.34244867627504     -1.98179122981401
  H   -7.86823948153102      1.52687345160859      6.75276663890655
  C   -2.81619722159189     -2.95943279386035      6.17822656314997
  H   -3.37281651148056     -3.52054859007198      4.17367487552109
  H   -4.67967792703336     -3.61898704897978      5.35738174593779
  O   -2.63512380309976     -4.29172670481059      6.59771239900145
  H   -3.19636567312741     -2.32846565112577      7.00880571897934
  H   -1.86202541458663     -2.51040103090806      5.84275374880382
  C   -1.68243640646782     -4.44469251539515      7.61463663020124
  H   -1.62000451248279     -5.51545631793731      7.86119257090853
  H   -1.96055060637093     -3.88779995119612      8.53364959923590
  H   -0.67718456499880     -4.09575383611567      7.30031380058402
  H   1.77887009249860      2.19317311814641     -0.30429861206234
  H   2.82741651331112      0.90071727351580      0.31702307160816
