55
	Energy:      94.4220281
C         -0.30925        1.63125        3.09657
C         -1.52009        0.98504        2.79103
C         -1.51801       -0.00230        1.80012
C         -0.32301       -0.29245        1.11315
H         -0.32352       -1.04530        0.32641
C          0.87632        0.36676        1.41944
C          0.88134        1.32201        2.43599
H          1.79905        1.83975        2.70156
H         -4.22219       -1.24280        7.40806
C         -4.96764       -0.60742        6.94201
C         -5.95467       -0.00631        7.73552
H         -5.95702       -0.22124        8.79859
C         -6.88267        0.86403        7.15649
C         -6.87332        1.11186        5.78252
H         -7.61524        1.76372        5.33476
C         -5.88832        0.50729        5.01338
C         -4.91963       -0.32745        5.58472
C         -2.72141       -0.75690        1.44672
C         -3.84614       -0.75057        2.17833
C         -4.16819        0.04255        3.42768
S         -3.01899        1.52750        3.58258
C         -5.69794        0.53559        3.51114
N         -3.93997       -0.73997        4.67020
C         -6.71090       -0.48047        2.92494
H         -6.54018       -1.49754        3.29752
H         -6.66579       -0.50358        1.83047
H         -7.74122       -0.21467        3.19367
C         -6.00003        1.90342        2.87718
H         -5.52912        2.73456        3.41188
H         -7.07641        2.11462        2.88536
H         -5.67350        1.92855        1.83154
C         -3.48257       -2.11104        4.70844
H         -2.66189       -1.40346        0.57473
H         -4.62086       -1.43132        1.83819
C          2.13635        0.07791        0.65924
H          2.00612       -0.76222       -0.03053
H          2.94597       -0.17961        1.34949
H          2.42857        0.95536        0.07313
H         -2.66037       -2.27943        4.00623
H         -4.29311       -2.80777        4.46880
H         -3.08653       -2.36728        5.69718
O         -0.27115        2.54088        4.16806
C         -0.08730        3.87011        3.81457
C         -0.23034        4.71504        5.04634
H         -1.27723        4.73230        5.35930
H          0.09439        5.73589        4.82677
H          0.40181        4.32151        5.84695
O          0.14353        4.31102        2.69682
O         -7.88799        1.56120        7.87107
C         -8.01471        1.64229        9.25930
O         -7.32115        1.08997       10.10213
C         -9.15533        2.56346        9.57563
H        -10.06910        2.20519        9.09502
H         -8.91478        3.57539        9.23948
H         -9.31765        2.58221       10.65709
