75
Coordinates from ORCA-job 813_0.0
  C   -3.65370475014808      1.43045330495395      2.16065650054936
  C   -3.80561630096804      0.48507142137776      3.17816505313364
  C   -4.10462827885611     -0.85914482433776      2.87358813764693
  C   -4.26755039538457     -1.21409958129984      1.52485257153136
  C   -4.13503206413294     -0.27159859558804      0.50878295898242
  C   -3.81924158457822      1.07123355387914      0.81061681424689
  H   -1.08836610198386      1.86719651162686      8.21711559475472
  C   -2.13921250184729      2.14548861595683      8.13473718952426
  C   -2.64538274768392      3.24827071929888      8.84087663774574
  H   -1.96388736780506      3.83961762992796      9.45918075550924
  C   -3.99515315735623      3.60167831909504      8.76759089156587
  C   -4.87545395249289      2.83930103520926      7.97971836879497
  H   -5.93444534031959      3.10815713274947      7.92473190381553
  C   -4.38687473571886      1.74745673852542      7.27447382775239
  C   -3.02371173279317      1.40641320480505      7.34313690110598
  C   -4.18202150823947     -1.79120334355917      3.98627541982734
  C   -4.05740387981024     -1.37043979791707      5.25816754341619
  C   -3.88318384444511      0.07825736765250      5.63163359261859
  O   -3.61631875192831      0.90088067559842      4.45438093133701
  C   -5.10873329240121      0.71996933070578      6.41590705741785
  N   -2.76381327938239      0.29015345449127      6.53757441773972
  C   -5.77775743115455     -0.32078891010290      7.34301228329711
  H   -5.04600841294621     -0.80460260583623      8.00807689173836
  H   -6.29833437688223     -1.10160795785588      6.76559063215301
  H   -6.52144781386593      0.18416929430355      7.97822079616237
  C   -6.15810095041833      1.31032735700056      5.46691702349469
  H   -5.74391979356075      2.12462762822229      4.85820646187383
  H   -7.00492772418978      1.71038533717328      6.04707312620120
  H   -6.55920050124380      0.53687152437599      4.79164367551173
  C   -1.42254792202439     -0.10077530376423      6.13946166358306
  H   -4.09169808508637     -2.07671195642099      6.08871369915044
  H   -4.50945125757982     -2.25206868792501      1.27729895017807
  H   -4.36732842126225      4.46613018704208      9.32296089607020
  C   -0.81291003096305     -1.20414139745823      6.99256232879140
  H   -0.75639908547523      0.78022297700739      6.13585430815091
  H   -1.45623101223554     -0.46611895214966      5.10101933372425
  O   -0.58067002198114     -0.70423353552150      8.31553075868464
  H   0.15070653194677     -1.52784613296388      6.56002819342832
  H   -1.47102406576390     -2.08341531537211      7.04547923959356
  C   -0.56727265860584     -1.59396739251880      9.33478425113327
  C   -0.34543509062778     -0.89472058368820     10.65339780794314
  H   0.60381439519508     -0.33702962435327     10.62904407477285
  H   -0.32610601120261     -1.63431353765485     11.46299011731120
  H   -1.14902640703497     -0.16212499697784     10.82762925475621
  O   -0.71823382228987     -2.78015924680288      9.18360551114401
  C   -3.68724341365498      7.88868673349463     -3.90864274103875
  H   -2.88637034999390      7.21550150343410     -5.81880681628232
  C   -3.16929753126644      6.92692299069033     -4.80693693172826
  H   -4.45380109108720      8.26965042945204     -1.91237161097941
  C   -4.05463321880894      7.52401199557886     -2.60038870846723
  C   -3.01136857395576      5.59517557567869     -4.41368358612515
  C   -3.88582982662496      6.19594261621749     -2.24280283251449
  H   -2.60953852722856      4.86630560100768     -5.12201594203110
  C   -3.37012616748747      5.21058540523683     -3.11749680546737
  C   -3.87406984715159      4.33250910516466     -1.07790491295303
  C   -3.36418790655062      3.97993055296120     -2.34622992699102
  C   -4.03678253757835      3.42775448007337     -0.03905292580176
  H   -4.46151635972993      3.75443801876534      0.91105219158845
  C   -2.99911147893931      2.64481279759532     -2.56751599507502
  H   -2.58915053343459      2.32784528515196     -3.52982326471120
  C   -3.67084038041725      2.08571071375097     -0.26614960877053
  C   -3.15516364615172      1.72084179086040     -1.53476401874372
  H   -2.84430320309263      0.68764447687538     -1.70147211876059
  H   -4.30134155816235     -0.57204630798948     -0.52720715896978
  O   -3.86670304539295      9.19588040263080     -4.22250483323467
  C   -3.54581114760717      9.67079761581024     -5.52151214016047
  C   -3.86935572592907     11.15226913389543     -5.57216662495575
  H   -4.93747041722209     11.32409761042592     -5.36770524890256
  H   -3.63441121177292     11.55929568114773     -6.56820748360974
  H   -3.28249314813703     11.70463073013123     -4.82201261077634
  H   -3.38101656927474      2.44765061011670      2.44678038783049
  H   -2.47380335796705      9.49642877668767     -5.73473722919783
  H   -4.12902594790605      9.11663720365602     -6.28152266975949
  O   -4.19010787540786      5.66695376429299     -1.01731225113332
  H   -4.32634986453833     -2.85394633370499      3.76893006985806
