81
	Energy:     100.6749740
C         -3.72438        1.41423        2.27038
C         -3.80169        0.47654        3.30445
C         -4.10523       -0.85165        3.02207
C         -4.34534       -1.22955        1.69927
C         -4.30350       -0.27801        0.67128
C         -3.99867        1.06805        0.93349
H         -6.40120        0.85293        8.89398
C         -5.33575        0.68032        8.97262
C         -4.76173        0.59022       10.24579
H         -5.38937        0.70213       11.12663
C         -3.39143        0.35074       10.39533
C         -2.57779        0.21254        9.27317
H         -1.50964        0.06096        9.38794
C         -3.16511        0.29634        8.01547
C         -4.53945        0.51396        7.85183
C         -4.19124       -1.81616        4.10295
C         -4.03638       -1.36157        5.34995
C         -3.75741        0.09259        5.69888
O         -3.59987        0.96651        4.56382
C         -2.49326        0.29118        6.65694
N         -4.92142        0.50018        6.52072
C         -1.82874        1.67433        6.46136
H         -2.55900        2.49035        6.52636
H         -1.33285        1.74250        5.48672
H         -1.06838        1.86423        7.22858
C         -1.41432       -0.79023        6.51619
H         -1.77742       -1.78164        6.80676
H         -0.55105       -0.57516        7.15743
H         -1.04893       -0.84407        5.48466
C         -6.08514        1.17365        5.97036
H         -4.13033       -2.05419        6.18171
H         -4.59431       -2.25944        1.45447
H         -2.96045        0.28561       11.39112
C         -7.39082        0.42321        6.24709
H         -5.98969        1.29097        4.88590
H         -6.15268        2.19746        6.35987
O         -8.35215        0.76098        5.23078
H         -7.78924        0.71579        7.22396
H         -7.22857       -0.66052        6.23051
C         -9.59208        0.24424        5.44555
C        -10.49833        0.59286        4.30526
H        -10.63613        1.67568        4.25784
H        -11.47256        0.12028        4.46032
H        -10.07778        0.21595        3.36940
O         -9.93192       -0.40664        6.42312
C         -4.73930        7.89221       -3.86113
H         -4.07504        7.17623       -5.77608
C         -4.25683        6.92334       -4.73457
H         -5.36093        8.35907       -1.84881
C         -4.98412        7.59175       -2.51826
C         -4.00152        5.62424       -4.28311
C         -4.73458        6.28172       -2.07598
H         -3.62194        4.87525       -4.97171
C         -4.24191        5.29261       -2.93226
C         -4.50512        4.36955       -0.86935
C         -4.08329        4.09415       -2.16622
C         -4.49053        3.39287        0.14221
H         -4.85633        3.63971        1.13453
C         -3.61720        2.79605       -2.45562
H         -3.27696        2.54751       -3.45681
C         -4.01467        2.09631       -0.13501
C         -3.58101        1.82344       -1.44079
H         -3.19268        0.83952       -1.69630
H         -4.54351       -0.60197       -0.33950
H         -3.46133        2.43716        2.53085
N         -4.88477        5.69707       -0.83582
H         -4.39899       -2.85810        3.89135
H         -4.93107        8.89870       -4.22638
C         -5.34414        6.37679        0.36470
C         -4.18005        6.88774        1.21009
H         -5.96811        5.67601        0.93119
H         -6.01037        7.19410        0.07136
O         -4.55300        7.01148        2.59523
H         -3.79223        7.84095        0.82994
H         -3.34085        6.18329        1.18945
C         -5.33655        8.07932        2.90136
C         -5.61118        8.10955        4.37337
H         -6.04144        7.15597        4.69100
H         -6.33289        8.90153        4.59198
H         -4.68578        8.31289        4.91773
O         -5.75784        8.89741        2.09610
