74
Coordinates from ORCA-job 815-2_0.0
  C   -3.63283456864659      1.51622262572707      2.08784359914084
  C   -3.75449318583903      0.61408073234019      3.14520744868509
  C   -4.06938998246913     -0.73744793138989      2.90555285490759
  C   -4.28642128196129     -1.15365797777368      1.58438082244721
  C   -4.18716709190956     -0.25316066034086      0.52745403444263
  C   -3.85046971918296      1.09854044134638      0.76151682751809
  H   -1.08878366391161      1.88422605989444      8.30576885348103
  C   -2.13724515776951      2.16739580328585      8.21182325029292
  C   -2.66273321121340      3.23125766406579      8.96198081432684
  H   -1.99811177369649      3.78869164133906      9.62816260837160
  C   -4.01058078350172      3.58865704960029      8.87243667735146
  C   -4.86977222111734      2.87017817192838      8.02293600474329
  H   -5.92685799711425      3.14303889676109      7.95476559895920
  C   -4.36171670723044      1.81686533329021      7.27358699101002
  C   -3.00094052630685      1.47323541825217      7.35952196130651
  N   -4.11098321354066     -1.65749951302764      3.95898193215695
  C   -3.97825107271429     -1.22127019194015      5.15189629591771
  C   -3.81402258904119      0.23316812993726      5.56481206614541
  O   -3.51785150357611      1.05733595531517      4.40702942127223
  C   -5.06174330909677      0.83947386845941      6.34070745505903
  N   -2.71699923522320      0.40314803821091      6.49898024710516
  C   -5.76779909567826     -0.24508100692449      7.18746146773816
  H   -5.06458497401859     -0.76098314138583      7.85877676566622
  H   -6.26398523539705     -0.99711845455105      6.55277525996077
  H   -6.53823612779559      0.22937006007197      7.81413959692307
  C   -6.07364805632715      1.49219183973942      5.39095292206870
  H   -5.62436008190585      2.31984264699615      4.82667615602058
  H   -6.92191128201359      1.89086685603322      5.96971417600112
  H   -6.48166510387299      0.76007799627485      4.67510326496379
  C   -1.36428247757413      0.03790734799044      6.10965651503995
  H   -3.97377562043782     -1.94633782189075      5.97605650703654
  H   -4.53632907286854     -2.20365674568291      1.41511818942065
  H   -4.39773018814061      4.42239223697475      9.46322325357485
  C   -0.76516804839815     -1.10658613645223      6.91527540257420
  H   -0.70412529170490      0.92106675151835      6.17088047732575
  H   -1.37074300947875     -0.26459916691277      5.05049274326882
  O   -0.55520799016627     -0.67143419408861      8.26399380703897
  H   0.20588889052385     -1.40419705060741      6.48101150368285
  H   -1.41917585849302     -1.99065200754090      6.91428769277622
  C   -0.56319796403628     -1.60853167624254      9.24151181165106
  C   -0.35618413866728     -0.97259847005959     10.59403354516317
  H   0.60769768761038     -0.44026043647067     10.61538798924770
  H   -0.37347784269144     -1.74717902894463     11.37022608145184
  H   -1.14454868522509     -0.22733677695407     10.78269016394362
  O   -0.71931773917249     -2.78484915845751      9.03252840862865
  C   -3.83069069778030      7.66367277839594     -4.26597457692390
  H   -3.03737174546019      6.95615844144036     -6.14270227214149
  C   -3.30371321683385      6.67760102438618     -5.12330048228705
  H   -4.60245843504003      8.15133856115541     -2.28118508147992
  C   -4.19607650326110      7.38933816914561     -2.94729731033949
  C   -3.12584000609672      5.36129684185793     -4.67238750695880
  C   -4.01097160075055      6.07496634078171     -2.52202374634952
  C   -3.48972176970774      5.05775668935193     -3.34392248273997
  C   -3.96987107177441      4.26830799688864     -1.27041966637017
  C   -3.46354204440829      3.86342033444514     -2.52464260424139
  C   -4.11129296314751      3.40956731464958     -0.18948464579536
  H   -4.53047355300428      3.77220163819085      0.75007378938823
  C   -3.08446385150156      2.52384582595519     -2.69382386848032
  H   -2.68133176977537      2.18234568759745     -3.64837318041235
  C   -3.73014142675707      2.06448622071668     -0.36238942115526
  C   -3.22326877738217      1.64709569883358     -1.61880938439647
  H   -2.90395703949226      0.61001881619130     -1.74017208889212
  H   -4.39132753459160     -0.59295982440583     -0.48945979455297
  H   -3.34392467083490      2.54315430538004      2.31888142406833
  O   -4.30199630485336      5.59811795011451     -1.27176028671147
  H   -0.82768304775318      2.90924147117927     -6.72559957853461
  H   -1.43695909579586      5.35650870413793     -6.77262706767431
  O   -2.62736544389543      4.34049396820861     -5.40918129789813
  C   -1.68626183832518      3.26760043120798     -7.31445826374134
  C   -2.21666467825548      4.57198074709480     -6.75085851277386
  H   -1.35896996640328      3.40957118882743     -8.35637146974808
  H   -2.46587710975363      2.49018375331888     -7.29773472807587
  H   -3.07369590710096      4.93912480036569     -7.34630373800788
  H   -3.95490182927155      8.67821010687251     -4.65371162258262
