75
Coordinates from ORCA-job 815_0.0
  C   -4.03005300838460      1.41389728790838      2.12371988363756
  C   -4.18965296119229      0.50084955693037      3.17005440381104
  C   -4.36245907687508     -0.87373140773133      2.90606956584147
  C   -4.38168880345532     -1.29661694355659      1.56651647296729
  C   -4.22778018058426     -0.39049077871928      0.52125143531750
  C   -4.04601578714078      0.98516132036167      0.78501357780686
  H   -0.99969454364338      2.00597871575045      7.67604258818262
  C   -2.05088378003430      2.27914423258530      7.77087325899288
  C   -2.43554778166549      3.39556094801024      8.53020829212228
  H   -1.66234186041993      4.00317065269182      9.00910210297845
  C   -3.78052118815864      3.74222119515081      8.68226920017108
  C   -4.77795665211479      2.95960459269276      8.07419526508006
  H   -5.83235627449332      3.22422623962316      8.19623769075174
  C   -4.41046826625807      1.85440614016268      7.31798927761466
  C   -3.05317147477358      1.52020316787398      7.15858150447464
  C   -4.48114388572855     -1.75943412713822      4.05105517400406
  C   -4.39814696423052     -1.29028697701008      5.30994925146306
  C   -4.18648609561242      0.16351747444780      5.63712523834365
  O   -4.17236875832176      0.98751127296197      4.43361700385547
  C   -5.26165389204081      0.80648339589140      6.61617232324577
  N   -2.92725764651648      0.39010356712382      6.33961498921776
  C   -5.74160157365668     -0.22047600629554      7.66708861164853
  H   -4.89561070435302     -0.69175663557511      8.19043333726382
  H   -6.35868759195644     -1.01074753044563      7.21022248799935
  H   -6.35543965188140      0.29354349168505      8.42235854147309
  C   -6.46941359934442      1.37124806479563      5.86002528659689
  H   -6.17830118739880      2.17707109774693      5.17413334495944
  H   -7.20562427574927      1.77314533304923      6.57439177339002
  H   -6.97186460917612      0.58223751769124      5.27661410138434
  C   -1.66902040779627      0.00297090067397      5.72355445538657
  H   -4.45130567422582     -1.96917084177745      6.16141648513798
  H   -4.52620173235035     -2.35960767560387      1.35130681688527
  H   -4.05803728764694      4.61770402655585      9.27450511859146
  C   -0.91664960552001     -1.08823858682964      6.47174814567204
  H   -1.01989349723155      0.88812210205372      5.60261800267483
  H   -1.86947418237165     -0.37504933469668      4.70903888477423
  O   -0.46517100014048     -0.57040063805257      7.72913574713303
  H   -0.03871822770701     -1.41308415012514      5.88517317283628
  H   -1.55225562329138     -1.96845420466946      6.64555593056242
  C   -0.28025751525918     -1.44419525439365      8.74541334765166
  C   0.15059305840959     -0.72317878169220      9.99913162570269
  H   1.07344876329421     -0.15359637673184      9.80824911522736
  H   0.31599435175200     -1.45002663529145     10.80352414231345
  H   -0.62330267645341      0.00200592258045     10.29595996134851
  O   -0.44773251052484     -2.63299433765658      8.63871075238509
  C   -3.93222655368037      7.56358838354006     -4.22360387676164
  H   -2.80243642417042      6.95391341556070     -5.95724934008602
  C   -3.19219531992001      6.64079620661654     -4.98887429493405
  H   -5.03477565791826      7.95480262750920     -2.37872563668360
  C   -4.46357726008424      7.24137148706576     -2.97399569123863
  C   -2.96139592424433      5.34166126937119     -4.51289937098935
  C   -4.22133295413352      5.94531727996051     -2.52178690137229
  C   -3.49005553636194      4.99020428394029     -3.25341181685946
  C   -4.19247790699182      4.13881263383468     -1.26948529066315
  C   -3.47179980247451      3.79552560568923     -2.43400543199883
  C   -4.40309162239346      3.26228530471049     -0.21436526435777
  H   -4.98459710469662      3.57372220642598      0.65447688294658
  C   -2.94470363429548      2.50003052443900     -2.53908668827397
  H   -2.37663198339093      2.20801515227773     -3.42359611620405
  C   -3.86990255521255      1.96285791062644     -0.32121907158576
  C   -3.15099677893565      1.60568016393795     -1.48975699152022
  H   -2.71825595197247      0.60520880422621     -1.55543028785478
  H   -4.27355481777277     -0.74339591608359     -0.51067806374829
  H   -3.86519640864917      2.46186106163096      2.37980929765327
  O   -4.64755557381422      5.43060810237489     -1.32671624596780
  H   -4.62032928247493     -2.82985795111936      3.87104205014365
  H   -0.16184530835288      3.14150486338883     -6.19445869439301
  H   -0.98886183143886      5.52133263951373     -6.34124455764124
  O   -2.26316247239216      4.38107909136245     -5.16400419669595
  C   -0.95320853989067      3.42430954880873     -6.90591455704245
  C   -1.68423988585150      4.66549176327355     -6.43086530455061
  H   -0.48876371016190      3.60940765128267     -7.88720728677344
  H   -1.64840001091785      2.57618428099048     -7.00512632151971
  H   -2.47587778796769      4.95454844602748     -7.14774627883883
  H   -4.09110555721498      8.56664216581068     -4.62824234106708
