74
Coordinates from ORCA-job 816-2_0.0
  C   -2.97756805226871      2.02917019602071      1.99166121165006
  C   -3.33011712478206      1.44505173615932      3.20960785130476
  C   -4.24521193569063      0.37619668012213      3.26081286169081
  C   -4.82240908715534     -0.07495545150089      2.06566327555579
  C   -4.50776360780895      0.52162337497286      0.84685212365590
  C   -3.57521625822351      1.57452163166015      0.80592601545453
  H   -0.20567812537126      0.41407668392128      8.55168683152642
  C   -1.03964086418883      1.10212922774056      8.70362765905674
  C   -1.27565319213207      1.65903510989443      9.97058834108550
  H   -0.61211750702740      1.39266251472267     10.79793429343645
  C   -2.34273811431477      2.53223184864217     10.19275853970490
  C   -3.19487874598420      2.88065585598554      9.12890871493115
  H   -4.02299494679730      3.57557524153604      9.29672147154651
  C   -2.97504514007052      2.33740683796519      7.87053904916105
  C   -1.90290987196852      1.44835241834096      7.65823237162624
  N   -4.55669493846911     -0.24081355594526      4.47816832763007
  C   -4.04906580526359      0.25138074554493      5.54068243632266
  C   -3.09575931726726      1.43812339145599      5.63605113571063
  O   -2.73741310859289      1.91868083027368      4.33865955910487
  C   -3.66654761501761      2.61877295401065      6.54242988951533
  N   -1.87595132207277      1.02928053414511      6.33254079818206
  C   -5.20098224084844      2.62354766339525      6.62122558528715
  H   -5.60252082404116      1.72294615610536      7.10747586479599
  H   -5.64999864267816      2.70294645610809      5.61780174225742
  H   -5.54466247464991      3.49330920471778      7.20324475592427
  C   -3.17534510791231      3.97962471945452      6.00050867110221
  H   -2.08282375857876      3.99485598512684      5.87874372516011
  H   -3.45234261618891      4.77075790342795      6.71423051853685
  H   -3.63197618258111      4.21250746238285      5.02673918640683
  C   -0.90959992926744      0.11167196078568      5.77396969875629
  H   -4.27253393450724     -0.23106138388468      6.50310566593400
  H   -5.53476372069040     -0.90074018730405      2.12579653224772
  H   -2.51602433599599      2.94449032152444     11.18952199128598
  C   -1.15362950269560     -1.36204296575835      6.11078187592824
  H   -0.89424430590868      0.24190032244513      4.68110738680460
  H   0.09566778490285      0.39328138239153      6.13121998223414
  O   -0.05318185319204     -2.09261910856014      5.55718764061219
  H   -2.09780818571224     -1.73265913656923      5.68165924296678
  H   -1.20222975439482     -1.52870997555344      7.19916383259517
  C   -0.07776249745095     -3.43623912231775      5.71240846364141
  C   1.12565573836086     -4.07941969774750      5.06790211749227
  H   1.11997127980307     -3.87967966273317      3.98465597274983
  H   1.10474437319186     -5.16103745606214      5.24773203414836
  H   2.05193860586460     -3.64383015437170      5.47332293079429
  O   -0.96259696918944     -4.01375437081181      6.29142808959388
  H   -4.98562395218203      0.18599886895086     -0.07462648254720
  H   -2.23598774365074      2.82896007787356      1.97888632917576
  H   -3.30675146145477      7.14205824421596     -2.18947112602621
  C   -3.30380447365712      6.12527305501475     -1.78912346970319
  C   -2.89863621087311      5.06197524335935     -2.59467555588110
  H   -2.58840106723154      5.23567953586535     -3.62852403750604
  C   -3.71742818792540      5.89856061202672     -0.46259417001791
  H   -4.04206544706339      6.74331606834355      0.15079385110299
  C   -2.89980816358359      3.76380068374763     -2.06413397394767
  C   -2.10954991782047      2.03392578534843     -3.86007869237427
  H   -1.92632440936614      2.73477926145179     -4.67687132120888
  C   -3.72704756657782      4.61655332871886      0.08934317686132
  C   -2.57301999298813      2.46156903897082     -2.61174966007562
  C   -3.30531510669354      3.55147731226887     -0.71804806315744
  C   -1.86895839283464      0.67414711509050     -4.06515337696962
  C   -2.79588853330028      1.51268465885099     -1.57827233648296
  N   -3.23900929221015      2.18258084517108     -0.43008503955907
  H   -4.05973840352652      4.45380653162599      1.11549469558960
  C   -2.07531402829169     -0.26642275717635     -3.03504008941048
  C   -2.53767338367989      0.15376837971901     -1.78553761899885
  H   -2.68771551703585     -0.58039530459346     -0.99260100372587
  H   -1.87674934906299     -1.31836556280667     -3.21941495975712
  O   -1.40316597437395      0.37536791641729     -5.34283700675468
  C   -1.19466176779358     -0.86216185498729     -5.85961751033687
  C   -0.70917765386180     -0.73938483486890     -7.28446655759618
  H   -1.45496957231104     -0.20362000123636     -7.89231076699971
  H   -0.53579753385220     -1.74026751408381     -7.69778560422200
  H   0.22071025930918     -0.15033562901417     -7.31691117509750
  O   -1.36875342127895     -1.89883422612419     -5.27306471948177
