56
Coordinates from ORCA-job 820_0.0
  C   -0.73277635299832      1.24372809856671      1.76214397671329
  C   -1.84382073781975      0.39026412450038      1.91904791719311
  C   -1.95877645770883     -0.76662350174029      1.12045039385665
  C   -0.99485781752690     -1.03963280106336      0.14393979516238
  H   -1.08770378733162     -1.92733632442688     -0.48004476812814
  C   0.07624363681651     -0.16352460062236     -0.00859752508878
  C   0.22432072822761      0.97452517649463      0.79422588797714
  H   1.08014437196071      1.63454609954469      0.65949714484099
  H   -3.03239101634844     -0.20515990577336      7.35225321896479
  C   -3.77344984796521      0.41336781104659      6.84117770727074
  C   -4.45949747687177      1.42620751649690      7.53055657774609
  H   -4.24249664482588      1.58348913236928      8.59065395329357
  C   -5.40178626505624      2.23569789086260      6.88951629209733
  C   -5.68567127167495      2.04217810890768      5.52628656523329
  H   -6.42231784797428      2.67544708289308      5.02350152272924
  C   -5.01724836812294      1.04135343636275      4.83223286442097
  C   -4.06849315823360      0.23900467763267      5.48669442683799
  N   -3.03045077840938     -1.64499970195546      1.31294860532702
  C   -3.85396659645224     -1.41219749853050      2.26189762219045
  C   -3.80563383955207     -0.25155355024241      3.23782544675708
  O   -2.78162244162892      0.71475849718078      2.81546368579743
  C   -5.15721691901540      0.56342779497515      3.39225861879256
  N   -3.51198007955920     -0.68375589774765      4.57965440747928
  C   -6.38577943500414     -0.37256979507841      3.30226959145209
  H   -6.29324257265805     -1.23160545678223      3.98387663815743
  H   -6.54441855157091     -0.74663466389165      2.27782682610282
  H   -7.28522236272699      0.18866046494224      3.59635826975852
  C   -5.28917279343690      1.68564411410937      2.35609925756296
  H   -4.47701884234041      2.41908593627407      2.44049942237474
  H   -6.24669702853144      2.21075805312345      2.49928945748716
  H   -5.28720358791601      1.28035276632186      1.33077536277093
  C   -2.30745599245608     -1.43466657794132      4.90280433789799
  O   -0.62606898018297      2.38067577904541      2.53853640459316
  C   -0.40861400426788      2.22757491248521      3.88928872397064
  C   -0.45902000043488      3.56108413319494      4.58084577526398
  H   -1.50638882918037      3.90221685566798      4.61818348631948
  H   0.11493767608411      4.31243925377319      4.01924701373135
  H   -0.07465806064516      3.45850547030200      5.60276538299875
  O   -0.21610822171536      1.15943825150505      4.39986006844022
  C   -2.63802889207737     -2.70459237103452      5.69457656335685
  H   -1.60691616237145     -0.80149144302808      5.47164524627302
  H   -1.79144574644171     -1.71233017770237      3.97246183954475
  O   -1.44140711885791     -3.34679848308301      6.15099519908574
  H   -3.14764358087728     -3.44051694218693      5.05627094646508
  H   -3.28214221094881     -2.46807068670799      6.55357842135358
  C   -0.90486838589388     -2.89902077467899      7.30838534295493
  C   0.34667758510721     -3.66369159351456      7.65678677738846
  H   0.13570692154458     -4.74371216411136      7.68304480421893
  H   0.72736641366136     -3.32464584236665      8.62766704446254
  H   1.10823909639465     -3.50004499312784      6.87795259339934
  O   -1.38301736660241     -2.00260962024024      7.96105477261981
  H   -5.91826915873884      3.02075715853715      7.44728584385950
  N   1.09129983569159     -0.43938561053065     -1.03837491388347
  O   2.01036548877789      0.35786375359576     -1.15365123029934
  O   0.95197561048135     -1.44719811479536     -1.71370877524685
  H   -4.66572177379431     -2.13153325780714      2.42373916810027
