101
Coordinates from ORCA-job 822-2_0.0
  C   -0.50677800485398      3.12887047498235      2.59150965383605
  C   -1.59579111558546      2.61961932074408      3.33752824661107
  C   -2.35705307526740      1.51894053446547      2.88520979342734
  C   -1.99762017216910      0.88293864243393      1.69232857088216
  C   -0.90560835389651      1.36077755325411      0.97590798012221
  C   -0.17220218576372      2.47251101633853      1.40410500612756
  H   -2.62372710205453      1.28270252295549      9.29842917457272
  C   -3.29492196729395      2.07768816686201      8.97305774342287
  C   -4.29325886290381      2.54731297694092      9.84082394124049
  H   -4.38024860652908      2.10365119786046     10.83638299087610
  C   -5.17359026018189      3.55953991245715      9.45396856028888
  C   -5.06792941952240      4.12613077969755      8.17146188587029
  H   -5.76098219363141      4.91347626619746      7.86127575329246
  C   -4.08556268595126      3.66901512988331      7.30366149624133
  C   -3.19062628309719      2.65670353737229      7.70506986861208
  C   -3.50425933055038      1.12168505209280      3.68911939892836
  C   -3.79064697952555      1.76502368725381      4.83109885542694
  C   -2.91347782853551      2.84911897377854      5.40995912584342
  O   -1.88906645984661      3.25778233592345      4.49472084295097
  C   -3.72160195824440      4.11856540309280      5.89623105032388
  N   -2.29870058434205      2.35764509276149      6.66426788150051
  C   -4.91777116632877      4.44608480965191      4.99413332710664
  H   -5.67041206892376      3.64458313155160      4.98119304560494
  H   -4.58830629766096      4.62614075261022      3.95793698422659
  H   -5.41447654591506      5.36446595049281      5.34483732148048
  C   -2.79125861685330      5.34939139350253      5.98700103737135
  H   -1.89438136077199      5.13451963657643      6.58518926815145
  H   -3.33567606461020      6.17410513720032      6.47200871141982
  H   -2.47194276597673      5.68426980235118      4.98887910338056
  C   -1.49323172361936      1.15180332299157      6.64510655787989
  H   -4.12904821325736      0.29727678070718      3.33376408903635
  H   -4.64807778181781      1.47860247179264      5.44430696405835
  H   0.65679840038045      2.80253007606408      0.77986507255879
  C   0.21842317039602      4.35784242480254      3.09316371692142
  H   -2.55869243634830      0.02708612623255      1.31655636147866
  C   -0.28094669764342      1.17139633700671      7.57726772081490
  H   -1.13173630896130      1.00388599609042      5.61728890709361
  H   -2.08819821338133      0.25136335490460      6.90627867016547
  O   0.65760693142114      2.19304976459863      7.22733620850202
  H   0.25084678458242      0.21257975523085      7.47239192266874
  H   -0.57479033726934      1.30669855534677      8.62561709697951
  O   0.03239232604949      3.43788228172948      9.00617006481306
  C   0.73836918271838      3.27238345485488      8.03869332356210
  C   1.81821595253805      4.21874581032273      7.62466457765597
  C   1.97115018054431      5.37662994591674      8.36943940253547
  C   2.99132013142241      6.31355812548488      8.06441547962559
  C   3.87699970067916      6.04294203285723      6.96705185539969
  C   3.69614696168580      4.84521814177550      6.21839813280757
  C   2.69490552010000      3.95296867024964      6.53456152248929
  H   1.29191066093677      5.55647152284155      9.20566900673142
  H   4.37183183673827      4.64010259566874      5.38376743539764
  H   2.56814387192664      3.03194016149040      5.96437287640172
  C   3.16036632029636      7.51075501309878      8.81580047911705
  C   4.16556821054078      8.39123741767258      8.49021047896036
  C   5.05453998009246      8.13190321130257      7.41675072783284
  C   4.90610683703868      6.98143201173201      6.67318971017559
  H   2.49608756169334      7.73118513084428      9.65399652474548
  H   5.84525860702201      8.84863214282893      7.18839156654574
  H   5.58478895829319      6.77998409357593      5.84053664399359
  O   4.34322684114921      9.51972425677640      9.28636602291910
  C   4.15227697776224     10.76162300858605      8.75882616390935
  C   4.44181453607299     11.81993217792507      9.78971335379385
  H   4.24960740471577     12.81248145368653      9.36541553951034
  H   5.49108170533753     11.74381638687498     10.11549006578605
  H   3.81427706025259     11.65737162329311     10.67950639247397
  O   3.79674473439656     10.95330404895565      7.62488416989721
  C   1.21468403914354      4.95385469983564      2.10995180499121
  H   0.72208123677593      4.12929255385683      4.04888521781498
  H   -0.52590526981355      5.13181378674395      3.34377184720271
  O   1.69273595247293      6.18241961826457      2.67012504674276
  H   0.75607680679868      5.15909458902537      1.13073978147228
  H   2.07467279191791      4.28546686968027      1.93192039946652
  C   2.20970334654534      7.09064682392567      1.81166005202682
  O   2.30468703471262      6.89387617658163      0.62202389630303
  C   2.62887200054904      8.34908172256615      2.49899442102712
  C   2.55152771063730      8.50427001358347      3.91238246287977
  C   2.94876178979123      9.68354735062653      4.50336272448174
  C   3.43214262501092     10.76767574960067      3.71715580339777
  C   3.50769357961954     10.61699568684406      2.29067234726478
  C   3.10221192950826      9.38649384241755      1.71105700872613
  H   2.18222472138766      7.67700904817425      4.51898218629290
  H   2.91059648692320      9.80591353535541      5.58786351804803
  H   3.15560944184758      9.24428593779371      0.62917123138537
  C   3.85154676389795     11.99584980665461      4.30392690681844
  C   4.31078789944121     13.03057728547594      3.51759290602901
  C   4.36683419960451     12.88075183688713      2.10671184940041
  C   3.98727340304135     11.70167648820471      1.50216605242903
  H   3.81158704751857     12.09508640015045      5.39141828016049
  H   4.65055163405856     13.97080770682433      3.95866449940272
  H   4.06435079283456     11.59946648199660      0.41709538993510
  O   4.88960263271652     13.91418423498076      1.34990256436323
  C   4.13225819286236     14.95440721882862      0.86133382660943
  C   2.64303116542668     14.89476625402486      1.12040066808510
  H   2.20583738376074     13.97951484659653      0.69295903274220
  H   2.17955090173776     15.77808040382893      0.66531372304149
  H   2.43003747156596     14.87601371114462      2.20033191098778
  O   4.68677175525914     15.82950364890747      0.26220800056741
  H   -5.94735281756970      3.90669758540267     10.14288717186561
  N   -0.51815767507937      0.68588882467690     -0.27315239847607
  O   -1.18470920764939     -0.27565556703169     -0.62729554320794
  O   0.44760491504661      1.12469595017139     -0.88001601465555
