99
Coordinates from ORCA-job 822_0.0
  C   -0.53241748840487      3.09316539744112      2.63742263325183
  C   -1.56608470601632      2.51485233164158      3.40223283861818
  C   -2.26135167123710      1.37306292482703      2.95904181145958
  C   -1.89166213540230      0.77650321450353      1.74247795645487
  C   -0.85792569975166      1.31480863621708      0.98237374456034
  C   -0.19523074696860      2.46537803550428      1.42833330595497
  H   -2.39625694531423      1.06731587257712      9.37762907519932
  C   -3.13318152189576      1.80799274131172      9.06589750555789
  C   -4.16463552290418      2.17936162238207      9.94290821409330
  H   -4.21004885875287      1.71615517936661     10.93248670620939
  C   -5.12961421446299      3.11799120169052      9.57285948450872
  C   -5.07648066070301      3.70909184901815      8.29770008655678
  H   -5.83411760868668      4.43914804382254      7.99855112429220
  C   -4.06190246501631      3.35018313117489      7.42140355625766
  C   -3.08224689429692      2.41022183387026      7.80490917643905
  C   -3.35207534125824      0.88921204424264      3.79214211927840
  C   -3.65441942230344      1.50020799798574      4.94810479432263
  C   -2.84656437652339      2.64852083953197      5.50686905895094
  O   -1.87750653023145      3.13129059865485      4.58026915127308
  C   -3.74181229140542      3.84731403107952      6.01942555563469
  N   -2.17661107587284      2.20220280939906      6.75715792251134
  C   -4.96341469799660      4.10059449000288      5.12865717472694
  H   -5.65325448264349      3.24460331304054      5.10583456895798
  H   -4.65170657036547      4.31849119340514      4.09424484540285
  H   -5.52599207013592      4.97454253602832      5.49399351582356
  C   -2.90019969920107      5.13909632847303      6.12726715645428
  H   -1.99453287012587      4.97724975593270      6.72881218504806
  H   -3.50161798748823      5.91988188807515      6.61812895583070
  H   -2.59878182863488      5.50324254876610      5.13385810385832
  C   -1.26704643340633      1.07595366104689      6.71626588985655
  H   -3.92469623923942      0.02210618963123      3.44903577660379
  H   -4.47042193595917      1.14657165165398      5.58250734376799
  H   0.60201884927278      2.88012466502752      0.80881817535806
  C   0.13835323474452      4.35568511501924      3.13678964690423
  H   -2.43184670315880     -0.11188307287567      1.40297713311239
  C   -0.05638381332231      1.18982096118983      7.64338133819483
  H   -0.89932623820350      0.97876647538761      5.68454008730803
  H   -1.77515243758183      0.12018017590984      6.96607160278541
  O   0.80564656552291      2.27696926484920      7.28979910343123
  H   0.54714906671969      0.27459666220507      7.53752556198279
  H   -0.35579177399835      1.30478589565523      8.69278309821393
  O   0.05187327813307      3.50769036403582      9.02819976406115
  C   0.79037397269346      3.37293540414912      8.08034828707894
  H   -0.56783438059852      0.85159246345777      0.03642526024740
  C   1.81608757035895      4.38264944482222      7.67523831829516
  C   1.87805914875610      5.55833844439612      8.40508047477088
  C   2.84762984559962      6.55130372771925      8.11194583751770
  C   3.77878551141153      6.31878796682125      7.04377901813057
  C   3.68910854839871      5.10321504177402      6.30796240173653
  C   2.73494662942858      4.15671018938794      6.61123221811590
  H   1.16744758091491      5.70781774944626      9.22112653658204
  H   4.39682057474448      4.92865295208749      5.49313213560302
  H   2.67695163873096      3.22335130880411      6.05013989674928
  C   2.92373803864413      7.76787910592147      8.84737365515013
  C   3.88484287275079      8.70145244750751      8.53643060335291
  C   4.81993633847747      8.47912558378230      7.49410461727923
  C   4.75978264390101      7.31158858178386      6.76499983409777
  H   2.22353929706060      7.96140357735328      9.66272789443661
  H   5.57386252096792      9.23692796388809      7.27502116199577
  H   5.47238789559518      7.13914089664925      5.95441110363019
  O   3.96771634992858      9.84933397881456      9.32097586522923
  C   3.78137245281695     11.07613671814224      8.75921578937379
  C   3.95485235543908     12.15762081157569      9.79256577052966
  H   3.80559958535908     13.13988127519264      9.32880530373416
  H   4.96091474711104     12.09360747023252     10.23537358870380
  H   3.23181482029460     12.01068672970115     10.61001330524895
  O   3.50988893934001     11.24183373976263      7.59809762835045
  C   1.08353935198685      5.00181384596291      2.13753464391406
  H   0.67625667472429      4.14758528630841      4.07870622057758
  H   -0.63661771520196      5.09145067884540      3.40962871716501
  O   1.53924802852174      6.24178718770578      2.69599207866329
  H   0.58737656949081      5.20453657660815      1.17550009837977
  H   1.95973710771803      4.36834579706181      1.91900699308190
  C   2.21053315160908      7.06208953501132      1.86173910850614
  O   2.43660233805038      6.78329981241117      0.70546971690910
  C   2.63210549058898      8.33495816222021      2.52123776976400
  C   2.39330680208012      8.59336057909068      3.90102353164767
  C   2.81490123670230      9.77648476141076      4.46787778330794
  C   3.48520280743840     10.76216336638621      3.68860104475248
  C   3.72025828893324     10.50755845717292      2.29476134163583
  C   3.28368879550533      9.27642443990771      1.74097713012453
  H   1.88325099499000      7.83992642565111      4.50202557640515
  H   2.65563676038324      9.97486894955953      5.52999939043881
  H   3.45852936843828      9.05542488930256      0.68550671461582
  C   3.94088211835773     11.98933943436602      4.25053776736162
  C   4.58643383885569     12.92465238317778      3.46975558443820
  C   4.80014121937745     12.67234451848628      2.08896167005904
  C   4.38891445481742     11.49059720907171      1.51167139722838
  H   3.77911560552086     12.16756991965023      5.31635273034004
  H   4.95449928986164     13.86163973441576      3.89472347445323
  H   4.58795723216571     11.30639666694832      0.45326305581396
  O   5.50480574227775     13.59954263551848      1.34146397115817
  C   4.90847900015626     14.64700876422295      0.67760272929789
  C   3.40335408419437     14.75675693690408      0.78557376767341
  H   2.91322807166430     13.85342298961364      0.39154623895643
  H   3.08131606469233     15.63506639007944      0.21365980363072
  H   3.08855487015806     14.85819424184850      1.83560402846495
  O   5.60487644118132     15.39911232199984      0.05956208072735
  H   -5.92775861888859      3.38816313120465     10.26855048549830
