58
Coordinates from ORCA-job 82_0.0
  C   -0.33392092166114      0.90317362500796      1.61272317501846
  C   -1.33769866638896      0.00582648119926      1.99796519860366
  C   -1.38302767553911     -1.29181458137419      1.44907856331075
  C   -0.41023317523228     -1.65909020539243      0.50406942019307
  H   -0.44100889611614     -2.66710214754673      0.07998533602380
  C   0.58334209999515     -0.76553245376001      0.11351814549046
  C   0.62880679967244      0.52585648626262      0.66949490471527
  H   -3.46836885401034      0.96578049973834      7.35666394355937
  C   -4.05754556209837      1.38664540221474      6.53947881960998
  C   -4.82990567695103      2.54110382439745      6.74577723005108
  H   -4.83165761881873      3.00929774557184      7.73405083994899
  C   -5.58677573555055      3.10042246530203      5.71372577748523
  C   -5.59052989811271      2.50024514711115      4.44149537885229
  H   -6.18506266202870      2.93462825689641      3.63252949061803
  C   -4.83340095914563      1.35687053542862      4.22550206289113
  C   -4.06528675316996      0.80712729061503      5.26769338051667
  C   -2.42654530651821     -2.18057381537369      1.93473279616763
  C   -3.34322873655855     -1.76013381886282      2.82402831969624
  C   -3.38909477446607     -0.35491615293703      3.36238336695365
  O   -2.23820751096865      0.42618695707685      2.91738113422171
  C   -4.70355568870543      0.46732794130913      2.99728015514869
  N   -3.37866893064221     -0.32528944349670      4.81647822795544
  C   -5.93675428021147     -0.46170110137689      2.92610762831589
  H   -6.04833678455911     -1.06099188316151      3.84264163350982
  H   -5.88065403652375     -1.14485699561664      2.06341005647689
  H   -6.84588176726317      0.14899613424175      2.81651752118311
  C   -4.55875888027336      1.23095899944164      1.67567166837476
  H   -3.74994578049918      1.97174446903569      1.72080967449474
  H   -5.49763756694648      1.75831570418793      1.44309464213600
  H   -4.35403999756644      0.54040057877849      0.84112043531208
  C   -2.29693873714626     -0.93027470105705      5.56906124744447
  C   -2.79335941550479     -2.04148429281236      6.48964911150379
  H   -1.76535354095916     -0.16798845636986      6.16614454340606
  H   -1.55891169670116     -1.34907160953428      4.86856313812020
  O   -1.66035937063027     -2.51623361662319      7.22650747100593
  H   -3.24061785841850     -2.86761753120048      5.91454098248968
  H   -3.56469300321831     -1.67678748367489      7.18809796465682
  H   -6.17647391900646      4.00251572796379      5.89378546417657
  C   -1.85090468963241     -3.60314328544912      8.00663227782580
  H   -0.32403169253967      1.89870340530186      2.06258608175611
  O   1.32445918067214      2.03334762949334     -1.05462681319812
  C   2.23344557886920      2.83255453599651     -1.65243930262168
  C   1.72496442613508      3.32699187301603     -2.98554267419670
  H   1.45275819851988      2.47474196501607     -3.62706455602069
  H   2.49724387164162      3.93624353703639     -3.47053934900586
  H   0.81255362875570      3.92575255339310     -2.83716112328835
  O   3.30215263195783      3.10276718453541     -1.16259641860822
  C   -0.57877039613658     -3.98611322867588      8.72327414539385
  H   0.22547235075976     -4.16989453937826      7.99408017971392
  H   -0.75373237307127     -4.88446002054934      9.32743855640073
  H   -0.24851185845821     -3.15720680019927      9.36888145114003
  O   -2.91021310856773     -4.17079098584079      8.09895731219046
  C   1.69082794844322      1.50017918174887      0.23441840026217
  H   2.67575744140827      1.01450913777896      0.14780926040699
  H   1.79790778715023      2.33079721804909      0.94973888368999
  H   1.33185153145170     -1.06568409394365     -0.62407398498689
  H   -2.44357978945114     -3.21268754136681      1.57174289302076
  H   -4.10721892946449     -2.43965170757248      3.20369593048714
