59
Coordinates from ORCA-job 85_0.0
  C   3.15199741562404      0.57810155764693      0.88026062333268
  C   3.55819650837314     -0.78713518187783      0.35485362258972
  O   2.40832646818000     -1.67510469527512      0.38431981415742
  C   1.17316194364496     -1.20011613553830      0.06618223494608
  C   0.83836857313691      0.14103637161603      0.23953878552173
  C   1.87762311341769      0.99835978518703      0.79966632211847
  C   -0.49197022752292      0.57999027846070     -0.07753188102189
  C   -1.44419346209704     -0.38852010192818     -0.54213928837845
  C   -1.05148895937852     -1.75076746415053     -0.67153472975574
  C   0.22826720555268     -2.16956416075192     -0.37523698100467
  C   -0.91576758718657      1.93315293386133      0.04366259438208
  C   -2.20717926755747      2.30876918926114     -0.27225242264431
  C   -3.14421513536036      1.35161169907342     -0.73066325185451
  C   -2.76475591670332      0.03162256002500     -0.86225271817093
  H   -1.78090130809150     -2.48332244163541     -1.02032088920821
  H   -0.21010480151010      2.69320294800965      0.38390761917140
  H   -2.50728544757520      3.35527031781176     -0.17061392663728
  H   -4.16253743238707      1.66091661422546     -0.97999074415301
  H   -3.47880775826426     -0.71709559697461     -1.21738413157331
  O   -0.40069608993631     -4.41515677362372     -0.94181452494492
  C   -0.16356781127378     -5.74285158727929     -1.03178089783338
  C   -1.39037912799129     -6.47959143701317     -1.51275467401579
  H   -2.22735466094096     -6.31166425876995     -0.81691235932038
  H   -1.17047503618036     -7.55163828775605     -1.58313171966426
  H   -1.70096608504601     -6.09275176215997     -2.49586860952547
  O   0.89716922085462     -6.24361531260837     -0.75575682812432
  H   1.60874353462990      1.98282573314310      1.18833602495871
  H   3.93169326960434      1.19928739877407      1.32602975801629
  C   4.60042089947849     -1.39883851473274      1.30557642287775
  C   4.23346345497631     -2.32345273785669      2.29227001472863
  H   3.19588868811071     -2.65136361742367      2.35867089821092
  C   5.18796851320331     -2.82612171462716      3.18313548735082
  H   4.88647738335309     -3.55387460957058      3.94148977417140
  C   6.51692695053665     -2.40217789334249      3.10863035243812
  H   7.26117454231716     -2.79526059380135      3.80637588890287
  C   6.88837040180992     -1.47194882532755      2.13234929454563
  H   7.92584919996224     -1.13395301868509      2.06191563957868
  C   5.93804745603453     -0.97746128642349      1.23584311221331
  H   6.24369264433254     -0.26320012956273      0.46685742948861
  C   4.07441677162776     -0.75462897140997     -1.09751104064545
  C   4.12221802715224      0.41749119182303     -1.86024755358469
  H   3.80120953157215      1.36512484228428     -1.42368400856225
  C   4.56781967276117      0.39098279844830     -3.18505390424921
  H   4.61168719896499      1.30290018241256     -3.78425134893756
  C   4.96085173753431     -0.81667699789201     -3.76281177033066
  C   4.92011474522633     -2.00438344758251     -3.01975683067964
  H   5.21908091732917     -2.94937937250636     -3.46973341474289
  C   4.48159577090871     -1.95874149996756     -1.69737593518514
  H   4.45569815696462     -2.88369846436224     -1.11607647951861
  O   5.44189116276941     -0.73792054900398     -5.06184945304680
  C   5.19139983610096     -1.69219967614690     -6.00880501796570
  C   5.83884084741379     -1.29611831016046     -7.31177042989392
  H   5.42921070948608     -0.33363250074987     -7.65633002555505
  H   5.65507354451035     -2.07364589971288     -8.06293760266033
  H   6.92118325591359     -1.15491093364328     -7.16645050561366
  O   4.54718064954663     -2.68599292585037     -5.81406102935622
  C   0.68573253461455     -3.59939498640108     -0.49904334752067
  H   1.06722446233756     -3.97985365243377      0.46338669158933
  H   1.52712919513517     -3.68211007554442     -1.20796812941129
