85
Coordinates from ORCA-job 89_0.0
  C   2.20756782976469      0.44664775755957      5.29911704521285
  C   3.36995628202159      0.05846026589331      4.39562016115799
  O   3.24777048257547      0.70079672273159      3.10321921136141
  C   2.02440167678477      0.93939262601318      2.57286757395770
  C   0.86726223418521      1.02226661866695      3.34292336475891
  C   1.04027768909535      0.86144866682653      4.78367109494546
  C   -0.38953127718536      1.30007876278302      2.70367020942756
  C   -0.41961044301721      1.50443860609119      1.28130620737712
  C   0.79260134296681      1.42989294841846      0.54083180951276
  C   1.98233697001775      1.15673383447251      1.16887739392997
  C   -1.61970680930762      1.38304175544067      3.41516412051509
  C   -2.80699974435475      1.65638830926690      2.76460897065886
  C   -2.83118380287331      1.85918914845448      1.36362649540594
  C   -1.65896765260192      1.78136562944533      0.64097872927365
  H   0.78677603544280      1.58154821651654     -0.54068129356450
  H   -1.63185166385231      1.22341714284126      4.49457043767942
  H   -3.73684295992039      1.71484646497994      3.33675273792390
  H   -3.77666230048704      2.07554402006461      0.85963671941195
  H   -1.66464344561516      1.93506395345815     -0.44192122732767
  O   3.14719312645231      1.01339740014778      0.43344074645806
  C   4.10409798375788      1.99640342209727      0.52889378038178
  C   5.35426024145771      1.57559786073314     -0.19845926768297
  H   5.86662199612156      0.79796993727768      0.39099795834704
  H   6.01950057217419      2.44010030141411     -0.31302711876944
  H   5.10782172262735      1.14014932649089     -1.17786540370699
  O   3.93067796953392      3.02566016586339      1.11554601822236
  H   0.21694178360707      1.11429850784263      5.45386853458382
  H   2.36113471882754      0.35556771007413      6.37670807882617
  C   4.70727422488587      0.57363356681911      4.95278122108436
  C   5.80930494814151     -0.25546038269516      5.20545028747682
  H   5.72062753279797     -1.32713436236571      5.02102135991349
  C   7.01600069459534      0.26381136664969      5.68628200329491
  H   7.85706957446384     -0.40798969627847      5.87381662603951
  C   7.14448248698772      1.63544926431425      5.91730932771698
  C   6.06335603711116      2.48534370824965      5.67092669797524
  H   6.12298778165474      3.56323013345648      5.83576809356906
  C   4.86937427343051      1.94741967960027      5.19810063546185
  F   3.84479995245789      2.78190391077802      4.98099828130415
  H   8.08543830507828      2.04920678255883      6.28916950405075
  C   3.38100592656858     -1.44738990773426      4.15159828131828
  C   3.71748107995609     -2.09628862233168      2.98839412980612
  C   3.70007609112611     -3.51790634612146      3.12009519290435
  H   3.97280433448655     -1.56397692384020      2.07185061498677
  H   3.94723116067797     -4.20648335459770      2.30978833858422
  S   3.01793054352859     -2.58328403158158      5.42424600155235
  C   3.35260668885698     -3.93432774920811      4.38117981567880
  H   5.00774943854705     -9.13252109578508      2.68913099228165
  H   3.10548418304130     -7.71495005072624      3.41706070502138
  C   5.19722963438691     -8.22565509671609      3.26828352030750
  H   1.47332555831732     -5.61678433895112      3.44562625430764
  C   4.12549300493517     -7.42416413244245      3.67507004127328
  H   0.06348291460300     -6.95482214583284      4.94510377832923
  C   1.80475601401272     -5.87475601620667      4.45347243246547
  H   -0.65867075690980     -8.56371089189184      6.10905487614112
  C   1.04162267355304     -6.60658906451242      5.28314430367677
  C   6.50230743255124     -7.87007421125802      3.61447436744345
  H   7.34568188734650     -8.49479064501114      3.30950034861318
  H   -1.75445252721267    -10.08588001923111      7.69156460987914
  C   4.32730678694925     -6.25341128631022      4.41801522464443
  C   -0.29354470496275     -8.61677638371020      7.13624561003693
  C   3.16677920339966     -5.35710260471888      4.88664660539247
  C   -0.90927581941373     -9.47747698051102      8.02438352638203
  C   1.47513050090681     -6.89872382132689      6.64569284900272
  C   6.73322038582980     -6.71195198054935      4.36170439068370
  C   0.81006853142119     -7.81186145921637      7.53459117825035
  C   5.65310174530334     -5.92610895989346      4.74618426687466
  C   -0.45258971513836     -9.58151486564754      9.36013450772853
  O   3.21146492286279     -5.25705725465936      6.33392370484041
  C   2.56828310308304     -6.16863112615990      7.10290313363740
  H   7.73796103977119     -6.40653308497906      4.66021232167798
  H   -0.94642430625561    -10.26680881101333     10.05377751328113
  C   1.27252115002256     -7.92276348594973      8.89051147085973
  F   5.90496603866349     -4.81119791300219      5.45442044254322
  C   0.61708651764828     -8.81806824209208      9.77982249872681
  C   3.00972837373044     -6.28020049001312      8.44995475576341
  C   2.37779955855073     -7.13477658909947      9.31843992256289
  H   0.98010814668747     -8.89192258641273     10.80886593481078
  O   4.03408887256593     -5.46026382916642      8.88408646642480
  H   2.73696930960311     -7.20458351454699     10.34736616590406
  O   5.60631425191607     -6.72335998551337      7.85827996540393
  C   5.30988222666118     -5.72088307073536      8.44587947529499
  C   6.22431896746602     -4.58113210915049      8.80118943988083
  H   6.03764962490857     -4.23150842591933      9.82680594495372
  H   6.00976137768805     -3.74483355267229      8.11670139836652
  H   7.26826225795412     -4.89333299600213      8.67665555533413
