58
Coordinates from ORCA-job C:\Users\AIElement\Documents/96_0.000
  H   4.53179207732456     -1.95666160493069      0.13201768298181
  C   4.05510161016693     -1.00784506110231     -0.11688316176893
  C   2.71575629977999     -0.79150804853488      0.22522681040350
  C   2.06064888889130      0.40252346840973     -0.08788139953469
  H   1.01143001496506      0.51928466695865      0.19113928130171
  C   2.74929684134186      1.42329290717378     -0.74886366613433
  H   2.23544934635215      2.35311181032522     -1.00404268896435
  C   4.09725574002948      1.23794808985770     -1.06983212096518
  C   4.74039478271928      0.02707179307673     -0.74387650529518
  C   6.28955039922703      1.45181763707346     -1.87330111894866
  C   5.04789606415743      2.11257856512241     -1.76618598806179
  C   4.86831632785975      3.37759998350616     -2.33320565986098
  H   3.90906689942552      3.89520373035127     -2.25263065643957
  C   5.93324771063250      3.96421510416691     -3.02465663146601
  H   5.80703051156349      4.95168212247152     -3.47652734544029
  C   7.15029030865725      3.28659333652921     -3.16553633709517
  H   7.96463257301391      3.74102314991512     -3.73511777420439
  C   7.33877323812442      2.01926290582964     -2.59546634669825
  H   8.28351398361065      1.49571110156946     -2.74918959206950
  O   2.00732114577753     -1.79604219591159      0.87337567333277
  C   2.19443409496670     -1.94203989735872      2.22435783272694
  C   1.38631311182969     -3.10184033671267      2.74139369245146
  H   0.33048183163010     -2.98747871432491      2.45231857309588
  H   1.48215415083833     -3.15986744432246      3.83214606941753
  H   1.74997524224986     -4.03509552902603      2.28293934022778
  O   2.91133439834714     -1.22670278943306      2.86939647238318
  C   6.21867515042695      0.08636497203489     -1.16294058450342
  C   6.52359235150355     -1.00472428937434     -2.10412272069755
  N   6.76533008413837     -1.86632903387475     -2.84109951601097
  N   7.03984097569354     -2.41405147795084      1.16819948714998
  H   12.14452263637929     -2.19451487932415     -4.27956182285732
  C   7.11743904354167     -1.35422076590355      0.70485736507394
  C   12.36768500362716     -1.12725285011963     -4.43706795547720
  C   11.23081383114546      1.28690833723450     -0.73728621372958
  O   11.62002528174795     -0.51053441224902     -2.28170372500708
  H   12.23718067487253      1.65273607804590     -0.95115862157789
  C   10.77568429212404      0.13703293342831     -1.38791148116828
  C   11.41691174043761     -0.29362042833835     -3.62078898678846
  C   10.39957549516938      1.94931056875235      0.17029064107192
  H   12.25757599552499     -0.87716565757501     -5.49897389990450
  H   10.75747265825987      2.84284851874113      0.68714324657134
  C   9.50126562170804     -0.38846008388783     -1.14871088447541
  C   9.11028218813139      1.45826324470406      0.39681133404825
  O   10.58340213656525      0.45990728059892     -4.04435255936704
  C   8.66951231198810      0.29856292357106     -0.27157632747506
  C   8.04462118517955      1.93057579321074      1.28850219036754
  C   8.02585833626671      2.99485350311657      2.19461017341025
  H   9.18282046401974     -1.29514581053600     -1.66425789801028
  H   8.88544595416573      3.66324259962856      2.28885009657295
  C   7.21277130275684     -0.00944508661800      0.11141214398235
  H   13.40348886858750     -0.95923783569346     -4.10534076803560
  C   6.93132501018298      1.07202696093632      1.17223286412194
  C   6.89362157202756      3.17947582149065      2.99478697374620
  C   5.81763628494053      1.23362533541483      1.99557374103952
  C   5.80678525799213      2.30135177734250      2.90455204086877
  H   6.86547397255799      4.00514212469911      3.71080907203991
  H   4.97531525085327      0.54088263698205      1.96822483850288
  H   4.94041147400226      2.43789245083281      3.55627332114263
