56
Coordinates from ORCA-job 9_0.0
  H   -5.21418979179677      1.20701047382873     -0.01944115523833
  C   -5.27734177488139      0.58975805502547     -0.91831417300332
  C   -6.02553754456284      1.08926466793281     -1.99206695301183
  H   -6.51652016962646      2.05590748876688     -1.92431659126221
  C   -6.13538428436006      0.32008821681100     -3.15497088638132
  C   -5.50520289731568     -0.92936593090039     -3.23036614961498
  H   -5.60987563771076     -1.51549370850642     -4.14585421945107
  C   -4.76778688301899     -1.40450484466701     -2.15071811123777
  H   -4.28392021142402     -2.38233870203019     -2.22598292428740
  C   -4.63317208205332     -0.65451393750048     -0.96702395342388
  H   -0.46730848195931     -2.34549812731721     -1.21628323119212
  C   -0.63232777260422     -1.37578939220914     -1.69508589485516
  C   -1.51777052280410     -0.46155188557549     -1.10083807511969
  C   -1.69603963256997      0.77770713178073     -1.73867946209425
  H   -2.37733913281113      1.52161980807518     -1.32007236492405
  C   -1.01523202601014      1.08728695649561     -2.91556905233000
  H   -1.15500210657092      2.04991680803077     -3.41197682563482
  C   -0.14150925325226      0.15576760576949     -3.48457038130103
  C   0.05570019553319     -1.08794156583388     -2.87650431729046
  H   0.74563927965016     -1.81218160594050     -3.30450859597184
  O   -6.84066202294695      0.66620671199674     -4.29905671786213
  O   0.43607024836538      0.53827982820327     -4.68865116582956
  C   -7.52757904278692      1.82228892807461     -4.50473805850176
  C   -8.15351372690491      1.79823117862114     -5.87803201590934
  H   -7.37269766497734      1.68191312503805     -6.64581941125689
  H   -8.70846234686326      2.72963450793717     -6.04263753555473
  H   -8.82945597983579      0.93353026164074     -5.96829248456722
  C   1.68883469003782      0.16605477381590     -5.08051901283389
  C   1.99594044866040      0.76556173689155     -6.43042093734835
  H   1.25318145654948      0.42504031728997     -7.16889044862160
  H   3.00363510469805      0.46683403921292     -6.74340251307222
  H   1.92386430999714      1.86318618463177     -6.38051117059286
  O   -7.61923108344707      2.72283290670593     -3.71263700685463
  O   2.42463025630102     -0.53217122475626     -4.43717126835499
  C   -3.79419493394899     -1.21746879851327      0.15664567210379
  C   -2.24450711467982     -0.84946193033225      0.15805761469049
  C   -2.55398734572477      0.17871334070590      1.27615112263355
  H   -1.72938972977677     -1.70448453426628      0.61619616631171
  C   -3.91275837989643     -0.52616116858799      1.55570748799146
  H   -3.94121866263631     -2.30650253847099      0.19820960099029
  C   -3.83812083219566     -1.52485139501162      2.69223098818050
  H   -4.77448394097463      0.13221888878163      1.71331420343568
  C   -1.59014665143756      0.36302978704189      2.42627460937221
  H   -2.74324198260377      1.17711206939284      0.84844716937101
  O   -4.78873954948765     -1.30835368017160      3.61138515898588
  O   -0.32106245188685      0.43298656399463      1.99667680796983
  O   -3.03380806730395     -2.42672113833099      2.76067581190576
  O   -1.91526053233239      0.45706624727494      3.58589746055576
  C   -4.76403544468315     -2.16042391090757      4.75807661922262
  H   -5.61134343885257     -1.85448340305436      5.38437501419552
  H   -3.81782055563755     -2.03554718129156      5.30608323478084
  H   -4.86405774122278     -3.21655837094313      4.46440977988411
  C   0.68256970894909      0.61827770233436      2.99736538864424
  H   1.64183284532242      0.64756203556879      2.46579870781336
  H   0.66912015488700     -0.21286694133682      3.71886424994807
  H   0.51882072942530      1.55894756878400      3.54540019579918
