19
Coordinates from ORCA-job C:\Users\AIElement\Documents/con6_0.000
  C   -2.25766373923905      1.33479233353560      0.75151073168562
  C   -0.80223181087238      1.09336482458122      0.79194853959476
  H   -4.83625583268387      3.07288264424985      2.32432907591153
  C   -3.11200483049218      1.78883951743314      1.91347950678050
  O   -1.33748167667612      2.27952132960508      0.20025750512641
  C   0.08950076281130      1.25889089013289      2.00168680720708
  H   -0.40685443546238      0.37963535816554      0.04948583198319
  H   -3.78308690058294      3.65282604782155      1.00719324799004
  C   1.45492823461177      1.84793553143814      1.63229703349691
  H   -2.82201949019918      0.77984414082915     -0.01700920241592
  C   -4.21772363692552      2.75287294856995      1.47079782393004
  H   -3.55693932182451      0.89471794121301      2.38779260388037
  H   -2.48221487481028      2.27288334740586      2.67583127837417
  H   -4.88712617969002      2.28478711024282      0.72936936916273
  H   -0.40192971324139      1.90255333965628      2.74751871901955
  H   0.22058556355875      0.26766755688358      2.47349085000449
  H   1.33446077490139      2.84019163678751      1.16904372360229
  H   2.09618114851057      1.96080595554193      2.52095042784213
  H   1.98972595830607      1.20523754590688      0.91267612682408

