63
Coordinates from ORCA-job con8_0.0
  C   3.13537990974054      0.40256727056734      0.04261620551452
  C   3.06558877938615     -1.11108634776911     -0.06584616560511
  O   1.93964853026778     -1.59928935198476      0.70299620455442
  C   0.77194553349963     -0.90083728825617      0.70790911170798
  C   0.73992654807120      0.47751524850915      0.49088889858610
  C   2.02900046207938      1.12831976990287      0.28225802594956
  C   -0.51853850683512      1.16531495200531      0.55393433290067
  C   -1.71022725366694      0.43074317305303      0.86841156880609
  C   -1.61064912142572     -0.96927724991140      1.10570946588627
  C   -0.40063451084823     -1.62351597028348      1.02651427007739
  C   -0.65140079501951      2.56480962793156      0.31647738361405
  C   -1.87125375961810      3.19584905305587      0.39314351173830
  C   -3.04817377363263      2.46333501030761      0.71077456295085
  C   -2.96541509134772      1.10226204313022      0.94186901375617
  H   -2.51763871976877     -1.53009225676165      1.34810633371918
  H   0.22863277083438      3.15682513517055      0.05946271834109
  H   -3.85028923341570      0.51201865071561      1.18360471488362
  H   2.10337212824654      2.21521347710634      0.35976004243431
  H   4.11296775402912      0.87463650711885     -0.07605125009808
  C   4.32164641710341     -1.72159805358598      0.58061089852372
  C   4.29617922783073     -2.21162480170854      1.89328706338001
  H   3.35746611234184     -2.20072104718597      2.44767696946467
  C   5.46004719150597     -2.71394780856322      2.48514090249640
  H   5.42147694922735     -3.09857769427370      3.50813414493526
  C   6.66561399797422     -2.72273640419798      1.77888242845287
  H   7.57455100362062     -3.11434118149718      2.24355100728935
  C   6.69964887728670     -2.22840622413351      0.47090969557866
  H   7.63594056527364     -2.23263573016647     -0.09380986141958
  C   5.53591477533165     -1.73526387973173     -0.12433317042137
  H   5.57221741662239     -1.36653379507682     -1.15265613746051
  C   2.89481828663250     -1.60896848952554     -1.51552662990981
  C   2.92753013112764     -0.75539829811149     -2.62291183333810
  H   3.06654533266580      0.31771047111527     -2.47707042794491
  C   2.77813126776440     -1.24285010038989     -3.92735734485843
  H   2.81963863617890     -0.56326140934573     -4.77659997759809
  C   2.58123137715158     -2.61108300043867     -4.12051310083594
  C   2.53119680072997     -3.48163658819853     -3.02464940345417
  H   2.36663459613802     -4.54629826982679     -3.20421609990398
  C   2.68974058504384     -2.98177193296820     -1.73557646468760
  H   2.65286854142320     -3.66367836897458     -0.88299635692518
  O   2.35879695926528     -3.19334316617201     -5.36060154655335
  C   3.01879732201191     -2.81160182512413     -6.49456629072493
  C   2.55469485720337     -3.65092867961438     -7.65856105248771
  H   2.73699783469035     -4.71679334475865     -7.45108317062964
  H   3.08893199738406     -3.34550698997967     -8.56624172257085
  H   1.46914253421634     -3.52880614466442     -7.79840030988820
  O   3.84353149139900     -1.94011727611649     -6.53793067234786
  H   -0.31654002576758     -2.69775376813848      1.20330621042686
  H   -9.85346731842982      2.38002318129956      2.75699348957338
  H   -10.88576083020089      3.64880478741129      1.99745387762353
  C   -10.03163582743421      2.97710230795488      1.84959874440531
  O   -8.76968806719774      4.97754528305602      1.33090409936259
  C   -8.80489356454112      3.78669113094987      1.50748406345910
  H   -6.25035514040380      4.42930955466540      1.80940253176358
  O   -7.71216066352815      2.99427502638332      1.41015727544111
  C   -6.48090747661983      3.63937384672800      1.07703569600389
  H   -5.35853094945343      2.08616298768020      2.07981910392122
  H   -10.25036299626381      2.27063143782599      1.03301374019593
  C   -5.41018508080829      2.56302087564953      1.08283303916589
  O   -4.19283729827939      3.19781395820342      0.75866986495858
  H   -6.55400149141958      4.11801200819710      0.08710702002628
  H   -5.65841568584912      1.77512259825250      0.34679210150111
  H   -1.96853031952423      4.26833336348866      0.21065865629365
